%NProcShared=40
%Mem=64GB
%chk=MAHT4_clust-19.chk
#N OPT FREQ=NORAMAN Integral(Ultrafine) wB97XD def2SVP

MAHT4_clust-19

0  1
O          -2.04070        -0.92580        -2.14430
C          -1.78290        -0.21060        -3.11100
O          -2.70570         0.54100        -3.78450
C          -0.35780        -0.08110        -3.69080
C          -0.24970        -0.72000        -5.10670
C          -0.44770        -2.25370        -5.14040
C          -0.32890        -2.87410        -6.54710
C           1.05850        -2.74330        -7.16310
C           1.30770        -1.76160        -8.12660
C           2.57790        -1.64160        -8.68420
C           3.59420        -2.50380        -8.27780
C           3.35230        -3.48510        -7.31870
C           2.08230        -3.60550        -6.76050
C           0.16310         1.37870        -3.69940
S           1.41010         1.88530        -2.42880
C           1.41960         0.59210        -1.22380
C           0.42210         0.54850        -0.24860
C           0.43100        -0.47130         0.69920
C           1.44030        -1.43240         0.66950
C           2.44320        -1.38250        -0.29740
C           2.43600        -0.36410        -1.24700
O          -0.19350         2.16130        -4.58060
H          -3.59050         0.45660        -3.42210
H           0.29800        -0.68220        -3.06600
H           0.73590        -0.49820        -5.52060
H          -0.96260        -0.25310        -5.78970
H           0.26970        -2.73070        -4.47090
H          -1.43300        -2.50110        -4.74390
H          -0.58230        -3.93430        -6.49830
H          -1.07440        -2.43670        -7.21350
H           0.52160        -1.09010        -8.44050
H           2.77460        -0.88320        -9.42760
H           4.57950        -2.41030        -8.71030
H           4.14600        -4.14900        -7.00920
H           1.89560        -4.36530        -6.01540
H          -0.36070         1.29300        -0.22960
H          -0.34070        -0.51750         1.45330
H           1.44630        -2.22320         1.40500
H           3.22210        -2.13050        -0.31030
H           3.21100        -0.32450        -1.99860

--Link1--
%NProcShared=40
%Mem=64GB
%chk=MAHT4_clust-19.chk
#N Guess=Read Geom=Check Integral(Ultrafine) Density Prop=(Potential,EFG) Volume Pop=NBO7 Pop=Hirshfeld Polar wB97XD def2TZVP

MAHT4_clust-19

0  1

--Link1--
%NProcShared=40
%Mem=64GB
%chk=MAHT4_clust-19.chk
#N Guess=Read Geom=Check Integral(Ultrafine) Density Pop=(ChelpG,ReadRadii) NMR wB97XD def2TZVP

MAHT4_clust-19

0  1

