%NProcShared=40
%Mem=64GB
%chk=MAHT6_clust-14.chk
#N OPT FREQ=NORAMAN Integral(Ultrafine) wB97XD def2SVP

MAHT6_clust-14

0  1
O          -3.33760         1.75550        -1.38660
C          -3.53690         2.08500        -0.21830
O          -4.38750         3.08200         0.17130
C          -2.84090         1.40340         0.97650
C          -3.83850         0.55080         1.82390
C          -3.22800        -0.64820         2.58930
C          -2.33490        -0.28600         3.79230
C          -1.88690        -1.51300         4.60440
C          -0.98940        -1.14270         5.79310
C          -1.92740         2.37030         1.76620
S          -2.68090         3.22990         3.21430
C          -1.28200         4.03850         3.92490
C          -0.99430         5.35820         3.57500
C           0.10660         5.99480         4.14250
C           0.90590         5.30910         5.05600
C           0.61490         3.99240         5.40960
C          -0.48530         3.35360         4.84370
O          -0.75250         2.52550         1.43140
H          -4.82330         3.50970        -0.56930
H          -2.16140         0.68350         0.51460
H          -4.59250         0.12550         1.15790
H          -4.41460         1.17200         2.51030
H          -4.05030        -1.26910         2.94810
H          -2.66840        -1.27650         1.89480
H          -2.87130         0.40120         4.44810
H          -1.44660         0.24210         3.44710
H          -1.35140        -2.20680         3.95490
H          -2.76220        -2.05050         4.97160
H          -0.68930        -2.03290         6.34640
H          -0.08170        -0.63730         5.46140
H          -1.50630        -0.47970         6.48770
H          -1.61550         5.88720         2.86680
H           0.33970         7.01520         3.87630
H           1.75950         5.80380         5.49540
H           1.23950         3.47010         6.11920
H          -0.71330         2.33290         5.11570

--Link1--
%NProcShared=40
%Mem=64GB
%chk=MAHT6_clust-14.chk
#N Guess=Read Geom=Check Integral(Ultrafine) Density Prop=(Potential,EFG) Volume Pop=NBO7 Pop=Hirshfeld Polar wB97XD def2TZVP

MAHT6_clust-14

0  1

--Link1--
%NProcShared=40
%Mem=64GB
%chk=MAHT6_clust-14.chk
#N Guess=Read Geom=Check Integral(Ultrafine) Density Pop=(ChelpG,ReadRadii) NMR wB97XD def2TZVP

MAHT6_clust-14

0  1

