 Entering Gaussian System, Link 0=g16
 Input=nn000048-PdCl2_spc-nom_0002.com
 Output=nn000048-PdCl2_spc-nom_0002.log
 Initial command:
 /uufs/chpc.utah.edu/sys/installdir/gaussian16/C01/AVX/g16/l1.exe "/scratch/general/vast/u1112142/GAUSSSCRDIR/13078918-notchpeak.peaks/Gau-1200705.inp" -scrdir="/scratch/general/vast/u1112142/GAUSSSCRDIR/13078918-notchpeak.peaks/"
 Entering Link 1 = /uufs/chpc.utah.edu/sys/installdir/gaussian16/C01/AVX/g16/l1.exe PID=   1200706.
  
 Copyright (c) 1988-2019, Gaussian, Inc.  All Rights Reserved.
  
 This is part of the Gaussian(R) 16 program.  It is based on
 the Gaussian(R) 09 system (copyright 2009, Gaussian, Inc.),
 the Gaussian(R) 03 system (copyright 2003, Gaussian, Inc.),
 the Gaussian(R) 98 system (copyright 1998, Gaussian, Inc.),
 the Gaussian(R) 94 system (copyright 1995, Gaussian, Inc.),
 the Gaussian 92(TM) system (copyright 1992, Gaussian, Inc.),
 the Gaussian 90(TM) system (copyright 1990, Gaussian, Inc.),
 the Gaussian 88(TM) system (copyright 1988, Gaussian, Inc.),
 the Gaussian 86(TM) system (copyright 1986, Carnegie Mellon
 University), and the Gaussian 82(TM) system (copyright 1983,
 Carnegie Mellon University). Gaussian is a federally registered
 trademark of Gaussian, Inc.
  
 This software contains proprietary and confidential information,
 including trade secrets, belonging to Gaussian, Inc.
  
 This software is provided under written license and may be
 used, copied, transmitted, or stored only in accord with that
 written license.
  
 The following legend is applicable only to US Government
 contracts under FAR:
  
                    RESTRICTED RIGHTS LEGEND
  
 Use, reproduction and disclosure by the US Government is
 subject to restrictions as set forth in subparagraphs (a)
 and (c) of the Commercial Computer Software - Restricted
 Rights clause in FAR 52.227-19.
  
 Gaussian, Inc.
 340 Quinnipiac St., Bldg. 40, Wallingford CT 06492
  
  
 ---------------------------------------------------------------
 Warning -- This program may not be used in any manner that
 competes with the business of Gaussian, Inc. or will provide
 assistance to any competitor of Gaussian, Inc.  The licensee
 of this program is prohibited from giving any competitor of
 Gaussian, Inc. access to this program.  By using this program,
 the user acknowledges that Gaussian, Inc. is engaged in the
 business of creating and licensing software in the field of
 computational chemistry and represents and warrants to the
 licensee that it is not a competitor of Gaussian, Inc. and that
 it will not use this program in any manner prohibited above.
 ---------------------------------------------------------------
  

 Cite this work as:
 Gaussian 16, Revision C.01,
 M. J. Frisch, G. W. Trucks, H. B. Schlegel, G. E. Scuseria, 
 M. A. Robb, J. R. Cheeseman, G. Scalmani, V. Barone, 
 G. A. Petersson, H. Nakatsuji, X. Li, M. Caricato, A. V. Marenich, 
 J. Bloino, B. G. Janesko, R. Gomperts, B. Mennucci, H. P. Hratchian, 
 J. V. Ortiz, A. F. Izmaylov, J. L. Sonnenberg, D. Williams-Young, 
 F. Ding, F. Lipparini, F. Egidi, J. Goings, B. Peng, A. Petrone, 
 T. Henderson, D. Ranasinghe, V. G. Zakrzewski, J. Gao, N. Rega, 
 G. Zheng, W. Liang, M. Hada, M. Ehara, K. Toyota, R. Fukuda, 
 J. Hasegawa, M. Ishida, T. Nakajima, Y. Honda, O. Kitao, H. Nakai, 
 T. Vreven, K. Throssell, J. A. Montgomery, Jr., J. E. Peralta, 
 F. Ogliaro, M. J. Bearpark, J. J. Heyd, E. N. Brothers, K. N. Kudin, 
 V. N. Staroverov, T. A. Keith, R. Kobayashi, J. Normand, 
 K. Raghavachari, A. P. Rendell, J. C. Burant, S. S. Iyengar, 
 J. Tomasi, M. Cossi, J. M. Millam, M. Klene, C. Adamo, R. Cammi, 
 J. W. Ochterski, R. L. Martin, K. Morokuma, O. Farkas, 
 J. B. Foresman, and D. J. Fox, Gaussian, Inc., Wallingford CT, 2019.
 
 ******************************************
 Gaussian 16:  ES64L-G16RevC.01  3-Jul-2019
                21-May-2026 
 ******************************************
 %NProcShared=10
 Will use up to   10 processors via shared memory.
 %Mem=32GB
 %chk=nn000048-PdCl2_spc-nom_0002.chk
 ---------------------------------------------------------
 #N PBE1PBE/def2TZVP EmpiricalDispersion=GD3BJ NMR SCF=XQC
 ---------------------------------------------------------
 1/38=1,172=1/1;
 2/12=2,17=6,18=5,40=1/2;
 3/5=44,7=101,11=2,25=1,30=1,74=-13,124=41/1,2,3,8;
 4//1;
 5/5=2,8=3,13=1,38=5/2,8;
 8/6=1,10=90,11=11/1;
 10/13=100,45=16/2;
 6/7=2,8=2,9=2,10=2,28=1/1;
 99/9=1/99;
 ---------------------------
 nn000048-PdCl2_spc-nom_0002
 ---------------------------
 Symbolic Z-matrix:
 Charge =  0 Multiplicity = 1
 N                    -0.28002   1.67911  -0.38737 
 N                     1.63698  -0.17919  -0.43606 
 C                    -1.18044   2.66694  -0.28564 
 H                    -0.77535   3.68086  -0.44549 
 C                    -2.54065   2.40632  -0.05243 
 H                    -3.2416    3.25236  -0.01349 
 C                    -3.01685   1.09488   0.07228 
 C                    -2.05095   0.03492   0.01544 
 C                    -2.35888  -1.34845   0.24532 
 H                    -3.39211  -1.62616   0.49291 
 C                    -1.37958  -2.31339   0.20246 
 H                    -1.63522  -3.36028   0.41539 
 C                    -0.00682  -1.98764  -0.06589 
 C                     1.05296  -2.95193  -0.07442 
 C                     2.35286  -2.45485  -0.14598 
 H                     3.2021   -3.1523   -0.11317 
 C                     2.64262  -1.07452  -0.29795 
 C                     4.06856  -0.61883  -0.25197 
 C                     0.34345  -0.61979  -0.26238 
 C                    -0.6875    0.38258  -0.22435 
 C                     4.37652   0.23618   0.98771 
 H                     4.72159  -1.5134   -0.27907 
 H                     4.2732    0.0038   -1.15085 
 C                     0.42109  -7.20852   0.15272 
 C                     1.34074  -6.583     1.00938 
 C                     1.53884  -5.19744   0.93965 
 C                     0.81157  -4.41161   0.01776 
 C                    -0.11027  -5.05298  -0.84151 
 C                    -0.29983  -6.43994  -0.77518 
 H                     0.26803  -8.29688   0.20603 
 H                     1.90687  -7.17845   1.7414 
 H                     2.24954  -4.70747   1.62232 
 H                    -0.6582   -4.45874  -1.58808 
 H                    -1.01121  -6.92565  -1.46005 
 C                    -7.24769   0.44541   0.57459 
 C                    -6.5428   -0.25941  -0.41422 
 C                    -5.16391  -0.06484  -0.57221 
 C                    -4.46684   0.84513   0.25575 
 C                    -5.1899    1.5582    1.23823 
 C                    -6.56712   1.35508   1.39934 
 H                    -8.32965   0.28865   0.69948 
 H                    -7.07288  -0.9614   -1.0755 
 H                    -4.6218   -0.59846  -1.3672 
 H                    -4.6561    2.26249   1.89426 
 H                    -7.11255   1.91005   2.17744 
 H                     4.18447  -0.3169    1.9301 
 H                     5.43911   0.54743   0.97391 
 H                     3.76529   1.16031   0.9836 
 
                          Input orientation:                          
 ---------------------------------------------------------------------
 Center     Atomic      Atomic             Coordinates (Angstroms)
 Number     Number       Type             X           Y           Z
 ---------------------------------------------------------------------
      1          7           0       -0.280017    1.679112   -0.387372
      2          7           0        1.636978   -0.179194   -0.436057
      3          6           0       -1.180445    2.666944   -0.285636
      4          1           0       -0.775347    3.680859   -0.445490
      5          6           0       -2.540653    2.406322   -0.052434
      6          1           0       -3.241598    3.252363   -0.013495
      7          6           0       -3.016852    1.094882    0.072283
      8          6           0       -2.050946    0.034917    0.015444
      9          6           0       -2.358881   -1.348447    0.245315
     10          1           0       -3.392113   -1.626155    0.492911
     11          6           0       -1.379585   -2.313394    0.202461
     12          1           0       -1.635220   -3.360276    0.415387
     13          6           0       -0.006818   -1.987635   -0.065891
     14          6           0        1.052958   -2.951933   -0.074424
     15          6           0        2.352861   -2.454853   -0.145979
     16          1           0        3.202103   -3.152299   -0.113172
     17          6           0        2.642615   -1.074515   -0.297947
     18          6           0        4.068559   -0.618831   -0.251971
     19          6           0        0.343454   -0.619792   -0.262376
     20          6           0       -0.687505    0.382580   -0.224353
     21          6           0        4.376524    0.236180    0.987707
     22          1           0        4.721593   -1.513404   -0.279067
     23          1           0        4.273205    0.003800   -1.150852
     24          6           0        0.421086   -7.208520    0.152725
     25          6           0        1.340742   -6.582998    1.009385
     26          6           0        1.538836   -5.197441    0.939650
     27          6           0        0.811571   -4.411609    0.017755
     28          6           0       -0.110270   -5.052977   -0.841505
     29          6           0       -0.299832   -6.439936   -0.775185
     30          1           0        0.268025   -8.296880    0.206031
     31          1           0        1.906874   -7.178447    1.741402
     32          1           0        2.249538   -4.707469    1.622323
     33          1           0       -0.658205   -4.458742   -1.588084
     34          1           0       -1.011210   -6.925649   -1.460046
     35          6           0       -7.247693    0.445406    0.574588
     36          6           0       -6.542804   -0.259415   -0.414222
     37          6           0       -5.163913   -0.064836   -0.572207
     38          6           0       -4.466839    0.845134    0.255748
     39          6           0       -5.189900    1.558200    1.238227
     40          6           0       -6.567122    1.355075    1.399343
     41          1           0       -8.329648    0.288653    0.699478
     42          1           0       -7.072879   -0.961395   -1.075499
     43          1           0       -4.621798   -0.598465   -1.367198
     44          1           0       -4.656095    2.262490    1.894261
     45          1           0       -7.112553    1.910049    2.177438
     46          1           0        4.184474   -0.316904    1.930104
     47          1           0        5.439109    0.547433    0.973909
     48          1           0        3.765292    1.160310    0.983600
 ---------------------------------------------------------------------
                    Distance matrix (angstroms):
                    1          2          3          4          5
     1  N    0.000000
     2  N    2.670307   0.000000
     3  C    1.340497   4.007617   0.000000
     4  H    2.062940   4.551858   1.103486   0.000000
     5  C    2.398226   4.927946   1.404447   2.212520   0.000000
     6  H    3.374294   5.979518   2.159891   2.540201   1.099375
     7  C    2.835995   4.851784   2.443742   3.461172   1.400783
     8  C    2.449862   3.721623   2.788546   3.890052   2.422391
     9  C    3.726671   4.218804   4.218292   5.317773   3.770939
    10  H    4.624373   5.314926   4.891658   5.991032   4.157314
    11  C    4.182948   3.749955   5.008160   6.059374   4.867111
    12  H    5.279813   4.642362   6.084870   7.145494   5.855964
    13  C    3.690938   2.471750   4.805289   5.732937   5.072214
    14  C    4.829217   2.856561   6.050163   6.890161   6.451776
    15  C    4.907136   2.403177   6.223870   6.893646   6.898278
    16  H    5.961785   3.375386   7.286979   7.913444   7.992571
    17  C    4.016496   1.353507   5.349249   5.858141   6.248421
    18  C    4.920264   2.477853   6.192697   6.479831   7.271385
    19  C    2.385225   1.377496   3.622906   4.447567   4.185632
    20  C    1.368801   2.400755   2.337748   3.306851   2.749408
    21  C    5.065203   3.115246   6.197574   6.360947   7.323848
    22  H    5.934643   3.364463   7.232524   7.564682   8.255654
    23  H    4.911355   2.737538   6.130516   6.285394   7.308029
    24  C    8.931587   7.157967  10.014083  10.971230  10.062761
    25  C    8.534650   6.571588   9.674446  10.580230   9.848886
    26  C    7.235758   5.204326   8.410967   9.278916   8.685832
    27  C    6.201014   4.335964   7.359762   8.259597   7.597796
    28  C    6.749523   5.193363   7.813542   8.768070   7.884829
    29  C    8.128328   6.562250   9.162445  10.137322   9.154229
    30  H   10.008641   8.257309  11.070016  12.040737  11.068605
    31  H    9.368593   7.335102  10.515330  11.397427  10.717562
    32  H    7.157230   5.011730   8.353865   9.153678   8.738235
    33  H    6.265619   4.990948   7.262542   8.220240   7.282234
    34  H    8.702137   7.319571   9.665699  10.657531   9.560661
    35  C    7.141142   8.963755   6.518184   7.307529   5.137565
    36  C    6.555997   8.180204   6.110238   6.985005   4.822267
    37  C    5.189215   6.803215   4.838674   5.771118   3.641192
    38  C    4.317244   6.227714   3.796376   4.707460   2.498495
    39  C    5.173407   7.240720   4.430260   5.179659   3.066534
    40  C    6.544084   8.545755   5.794518   6.508252   4.407406
    41  H    8.240823  10.042009   7.598541   8.359754   6.209860
    42  H    7.320435   8.768257   6.964877   7.848971   5.738402
    43  H    4.999847   6.341537   4.865756   5.827293   3.884393
    44  H    4.969531   7.141076   4.122582   4.748306   2.878438
    45  H    7.301721   9.367475   6.467575   7.083481   5.110860
    46  H    5.411696   3.479571   6.526500   6.798925   7.521552
    47  H    5.986834   4.119732   7.063800   7.102993   8.257447
    48  H    4.302702   2.887804   5.323647   5.386359   6.510825
                    6          7          8          9         10
     6  H    0.000000
     7  C    2.170850   0.000000
     8  C    3.430808   1.435177   0.000000
     9  C    4.691867   2.536281   1.435744   0.000000
    10  H    4.907040   2.778812   2.187663   1.098177   0.000000
    11  C    5.872936   3.783376   2.449544   1.375493   2.146376
    12  H    6.818459   4.677079   3.443853   2.144777   2.469789
    13  C    6.158257   4.310604   2.876768   2.457155   3.450094
    14  C    7.545873   5.741218   4.308546   3.783391   4.673137
    15  C    7.992986   6.440658   5.061474   4.855693   5.839490
    16  H    9.085753   7.533150   6.145682   5.857213   6.795597
    17  C    7.309360   6.072308   4.833070   5.038367   6.111277
    18  C    8.275349   7.296917   6.160133   6.487806   7.565129
    19  C    5.282814   3.787316   2.497794   2.844522   3.941787
    20  C    3.847533   2.453819   1.427355   2.451641   3.444473
    21  C    8.254426   7.499159   6.503705   6.959014   8.004052
    22  H    9.284151   8.173746   6.953511   7.101781   8.151128
    23  H    8.265531   7.472044   6.430870   6.911036   8.007235
    24  C   11.084807   8.987346   7.654879   6.486698   6.768974
    25  C   10.898553   8.877874   7.502551   6.455350   6.872915
    26  C    9.755010   7.816646   6.412353   5.521690   6.104746
    27  C    8.669811   6.706806   5.288251   4.414353   5.065124
    28  C    8.914566   6.861443   5.512463   4.467771   4.928922
    29  C   10.157500   8.054432   6.753903   5.586086   5.860269
    30  H   12.072724   9.950553   8.650595   7.428520   7.614295
    31  H   11.763852   9.771234   8.406896   7.377252   7.775985
    32  H    9.807517   7.987788   6.600488   5.866575   6.526737
    33  H    8.283380   6.258017   4.970312   3.990938   4.452903
    34  H   10.519461   8.408303   7.190800   5.985788   6.129223
    35  C    4.926829   4.309774   5.242836   5.217931   4.377617
    36  C    4.836437   3.808300   4.521950   4.373350   3.552143
    37  C    3.874437   2.523923   3.169519   3.191270   2.590651
    38  C    2.714490   1.482733   2.559441   3.042268   2.705283
    39  C    2.869299   2.509229   3.697111   4.177217   3.731978
    40  C    4.081044   3.799106   4.904472   5.133235   4.448599
    41  H    5.931287   5.410100   6.320948   6.207770   5.299850
    42  H    5.793300   4.690100   5.234750   4.910818   4.055842
    43  H    4.308867   2.741420   2.986997   2.878101   2.455256
    44  H    2.572971   2.714780   3.908816   4.586402   4.322383
    45  H    4.646104   4.676638   5.814655   6.078511   5.402226
    46  H    8.465446   7.569923   6.532240   6.835063   7.822041
    47  H    9.145834   8.521496   7.568503   8.058155   9.107487
    48  H    7.380202   6.843409   6.002704   6.659161   7.696337
                   11         12         13         14         15
    11  C    0.000000
    12  H    1.098476   0.000000
    13  C    1.436182   2.183452   0.000000
    14  C    2.530150   2.762782   1.432853   0.000000
    15  C    3.751342   4.127918   2.406822   1.393540   0.000000
    16  H    4.668538   4.870557   3.414067   2.158812   1.099418
    17  C    4.238316   4.902390   2.811963   2.470156   1.418585
    18  C    5.723663   6.363488   4.303133   3.816901   2.515121
    19  C    2.460329   3.447429   1.425585   2.444913   2.723731
    20  C    2.815922   3.913618   2.471106   3.764394   4.159446
    21  C    6.344267   7.028735   5.026840   4.726339   3.552762
    22  H    6.172213   6.655995   4.756912   3.945899   2.552436
    23  H    6.257385   6.977077   4.843712   4.501671   3.277570
    24  C    5.216047   4.371083   5.242951   4.309222   5.139876
    25  C    5.126483   4.426638   4.908105   3.800276   4.404638
    26  C    4.168735   3.704681   3.701758   2.511321   3.059905
    27  C    3.039373   2.692619   2.559767   1.482370   2.496253
    28  C    3.194736   2.602016   3.163637   2.521091   3.647056
    29  C    4.376072   3.561604   4.517957   3.806215   4.828412
    30  H    6.206186   5.294925   6.321080   5.409551   6.212868
    31  H    6.069423   5.374307   5.820056   4.678656   5.106217
    32  H    4.573634   4.285203   3.916466   2.718944   2.865631
    33  H    2.885994   2.484971   2.974516   2.736735   3.893810
    34  H    4.916557   4.076582   5.228427   4.687341   5.747326
    35  C    6.494933   6.782950   7.665518   8.992438  10.054917
    36  C    5.590882   5.864126   6.769578   8.066022   9.166502
    37  C    4.469594   4.928179   5.527128   6.872598   7.899098
    38  C    4.417044   5.072379   5.293375   6.707823   7.586805
    39  C    5.529969   6.124070   6.413892   7.812659   8.655279
    40  C    6.465349   6.893937   7.507211   8.876256   9.821897
    41  H    7.437813   7.629597   8.662377   9.956587  11.061537
    42  H    5.989548   6.127439   7.211220   8.425772   9.588483
    43  H    3.989582   4.441268   4.992117   6.277972   7.320070
    44  H    5.876770   6.551966   6.597086   7.978673   8.691454
    45  H    7.389515   7.802713   8.409277   9.766541  10.679171
    46  H    6.158690   6.739831   4.933788   4.557181   3.497964
    47  H    7.434651   8.101128   6.096382   5.708142   4.448910
    48  H    6.256720   7.065698   5.023923   5.038522   4.042315
                   16         17         18         19         20
    16  H    0.000000
    17  C    2.159712   0.000000
    18  C    2.681133   1.497691   0.000000
    19  C    3.822006   2.343967   3.725120   0.000000
    20  C    5.257069   3.635690   4.860425   1.438427   0.000000
    21  C    3.751399   2.525326   1.537104   4.308254   5.209118
    22  H    2.241060   2.124883   1.107902   4.468436   5.732022
    23  H    3.490702   2.132846   1.112446   4.076910   5.060683
    24  C    4.925209   6.539443   7.542668   6.602247   7.680883
    25  C    4.061341   5.809249   6.678570   6.178332   7.359020
    26  C    2.838573   4.443928   5.364991   4.881462   6.119488
    27  C    2.705115   3.819501   5.006585   3.830859   5.028926
    28  C    3.887783   4.868469   6.121422   4.493816   5.500850
    29  C    4.848748   6.137873   7.296701   5.877998   6.855685
    30  H    5.931055   7.619398   8.579409   7.691734   8.742499
    31  H    4.618109   6.477519   7.188531   7.033873   8.231897
    32  H    2.517513   4.127990   4.851678   4.888184   6.159953
    33  H    4.334067   4.900292   6.234774   4.183104   5.029813
    34  H    5.814141   6.995476   8.187762   6.559981   7.419025
    35  C   11.073154  10.044386  11.396200   7.711074   6.608958
    36  C   10.169691   9.222247  10.618688   6.897353   5.893449
    37  C    8.929354   7.876329   9.254621   5.543921   4.512141
    38  C    8.656110   7.384848   8.674906   5.055035   3.837684
    39  C    9.718066   8.404720   9.627005   6.132982   4.877786
    40  C   10.864708   9.674863  10.942617   7.376820   6.176734
    41  H   12.061585  11.101516  12.467731   8.773433   7.698353
    42  H   10.549947   9.747216  11.177084   7.468591   6.580557
    43  H    8.325147   7.358099   8.761647   5.086729   4.212744
    44  H    9.751975   8.319409   9.435461   6.160692   4.875685
    45  H   11.716074  10.497546  11.718128   8.242865   7.027305
    46  H    3.630357   2.813452   2.205912   4.433074   5.372815
    47  H    4.458022   3.474005   2.177467   5.371826   6.244870
    48  H    4.485386   2.810197   2.187224   4.053418   4.678826
                   21         22         23         24         25
    21  C    0.000000
    22  H    2.187427   0.000000
    23  H    2.153627   1.806369   0.000000
    24  C    8.471497   7.149486   8.279837   0.000000
    25  C    7.464425   6.228245   7.526744   1.403892   0.000000
    26  C    6.130173   5.018699   6.236977   2.431678   1.401382
    27  C    5.937310   4.876061   5.731003   2.827261   2.445052
    28  C    7.173041   6.015962   6.699368   2.432529   2.805743
    29  C    8.339461   7.052060   7.910469   1.404087   2.428299
    30  H    9.502837   8.129276   9.315787   1.100362   2.175659
    31  H    7.851365   6.640606   8.096254   2.175401   1.100415
    32  H    5.419084   4.464122   5.829389   3.429025   2.172375
    33  H    7.350204   6.271424   6.665152   3.428784   3.905777
    34  H    9.290370   7.971959   8.719971   2.175435   3.427415
    35  C   11.633438  12.158514  11.657755  10.843003  11.106248
    36  C   11.020107  11.334787  10.844259   9.854301  10.206109
    37  C    9.671809   9.995374   9.455091   9.096701   9.343362
    38  C    8.894474   9.501369   8.892397   9.421453   9.459023
    39  C    9.660589  10.486879   9.883027  10.465031  10.439386
    40  C   11.008395  11.767766  11.217938  11.123141  11.211574
    41  H   12.709549  13.211353  12.741144  11.536112  11.867269
    42  H   11.695292  11.834212  11.387313   9.833342  10.331418
    43  H    9.338738   9.450931   8.917993   8.451845   8.775801
    44  H    9.301397  10.340298   9.700866  10.886265  10.723233
    45  H   11.671169  12.561905  12.014441  12.000145  12.039701
    46  H    1.109457   2.569153   3.098872   8.050872   6.942512
    47  H    1.107319   2.516313   2.483843   9.274142   8.224410
    48  H    1.107988   3.107666   2.480197   9.050491   8.114057
                   26         27         28         29         30
    26  C    0.000000
    27  C    1.412918   0.000000
    28  C    2.431653   1.414027   0.000000
    29  C    2.804487   2.445011   1.401423   0.000000
    30  H    3.429239   3.927623   3.429774   2.175659   0.000000
    31  H    2.168558   3.438901   3.906137   3.427559   2.508801
    32  H    1.100551   2.174838   3.429069   3.904967   4.337758
    33  H    3.429593   2.177425   1.100331   2.171259   4.336826
    34  H    3.904866   3.439015   2.168222   1.100460   2.508492
    35  C   10.448832   9.426155   9.120326   9.874340  11.534705
    36  C    9.567130   8.456604   8.033574   8.792260  10.553339
    37  C    8.576491   7.412753   7.105870   8.021371   9.893340
    38  C    8.546846   7.453295   7.414268   8.455709  10.295525
    39  C    9.539588   8.552534   8.592764   9.588367  11.312692
    40  C   10.433281   9.466179   9.368857  10.235707  11.887114
    41  H   11.293444  10.301412   9.922994  10.579531  12.160380
    42  H    9.806455   8.675467   8.079216   8.716580  10.456603
    43  H    8.026553   6.780831   6.361833   7.290587   9.254784
    44  H    9.743666   8.829510   9.036869  10.091342  11.772739
    45  H   11.264771  10.364330  10.326167  11.173782  12.749149
    46  H    5.639153   5.639163   6.968287   8.057239   9.054889
    47  H    6.943838   6.849850   8.090484   9.209674  10.273832
    48  H    6.736470   6.379938   7.546914   8.796720  10.113057
                   31         32         33         34         35
    31  H    0.000000
    32  H    2.497465   0.000000
    33  H    5.006187   4.338611   0.000000
    34  H    4.339169   5.005377   2.495323   0.000000
    35  C   11.970409  10.855748   8.494067   9.867417   0.000000
    36  C   11.131792  10.061708   7.323988   8.725306   1.404061
    37  C   10.293313   9.018274   6.374937   8.068703   2.432616
    38  C   10.354190   8.820921   6.785021   8.675852   2.827471
    39  C   11.267049   9.734032   8.045365   9.834523   2.431716
    40  C   12.031069  10.702227   8.811384  10.373749   1.403886
    41  H   12.713362  11.735930   9.307080  10.500916   1.100361
    42  H   11.279301  10.402825   7.324085   8.512581   2.175417
    43  H    9.776662   8.546134   5.537202   7.285481   3.428633
    44  H   11.499010   9.815399   8.560655  10.438318   3.429244
    45  H   12.811751  11.478173   9.818313  11.336986   2.175447
    46  H    7.232140   4.807886   7.279011   9.064423  11.537460
    47  H    8.529652   6.181246   8.294747  10.167483  12.693495
    48  H    8.576879   6.093956   7.599646   9.704077  11.043741
                   36         37         38         39         40
    36  C    0.000000
    37  C    1.401485   0.000000
    38  C    2.445101   1.414025   0.000000
    39  C    2.804401   2.431582   1.412992   0.000000
    40  C    2.428206   2.805735   2.445207   1.401413   0.000000
    41  H    2.175665   3.429871   3.927832   3.429288   2.175676
    42  H    1.100474   2.168242   3.439072   3.904780   3.427341
    43  H    2.171033   1.100300   2.177601   3.429605   3.905682
    44  H    3.904967   3.428963   2.174728   1.100614   2.172641
    45  H    3.427519   3.906138   3.439003   2.168527   1.100420
    46  H   10.980604   9.680777   8.888139   9.585071  10.893761
    47  H   12.089009  10.732633   9.936407  10.680231  12.040883
    48  H   10.498874   9.146158   8.270253   8.967642  10.342608
                   41         42         43         44         45
    41  H    0.000000
    42  H    2.508512   0.000000
    43  H    4.336621   2.494916   0.000000
    44  H    4.338033   5.005373   4.338589   0.000000
    45  H    2.508906   4.339167   5.006091   2.497717   0.000000
    46  H   12.589058  11.669491   9.407545   9.209246  11.517088
    47  H   13.773922  12.768182  10.393061  10.281129  12.682642
    48  H   12.129636  11.234210   8.886102   8.541889  10.968813
                   46         47         48
    46  H    0.000000
    47  H    1.798748   0.000000
    48  H    1.803813   1.782519   0.000000
 Stoichiometry    C26H20N2
 Framework group  C1[X(C26H20N2)]
 Deg. of freedom   138
 Full point group                 C1      NOp   1
 Largest Abelian subgroup         C1      NOp   1
 Largest concise Abelian subgroup C1      NOp   1
                         Standard orientation:                         
 ---------------------------------------------------------------------
 Center     Atomic      Atomic             Coordinates (Angstroms)
 Number     Number       Type             X           Y           Z
 ---------------------------------------------------------------------
      1          7           0       -1.151236    2.817089   -0.484392
      2          7           0        1.487798    2.409755   -0.473695
      3          6           0       -2.459147    3.101671   -0.411489
      4          1           0       -2.711248    4.164220   -0.569972
      5          6           0       -3.423273    2.100932   -0.207884
      6          1           0       -4.485032    2.385611   -0.191992
      7          6           0       -3.056302    0.754778   -0.083806
      8          6           0       -1.654341    0.448896   -0.109729
      9          6           0       -1.111033   -0.859374    0.123954
     10          1           0       -1.798953   -1.685090    0.349683
     11          6           0        0.246580   -1.080089    0.111566
     12          1           0        0.638386   -2.083481    0.326839
     13          6           0        1.184115   -0.018704   -0.127408
     14          6           0        2.606178   -0.192592   -0.103620
     15          6           0        3.380592    0.965072   -0.148915
     16          1           0        4.475686    0.886875   -0.090822
     17          6           0        2.822371    2.259821   -0.305118
     18          6           0        3.720743    3.455777   -0.229658
     19          6           0        0.683522    1.301152   -0.326607
     20          6           0       -0.737749    1.522562   -0.320547
     21          6           0        3.448317    4.322823    1.009981
     22          1           0        4.771209    3.103717   -0.234436
     23          1           0        3.548822    4.088310   -1.128480
     24          6           0        4.546666   -4.032281    0.142736
     25          6           0        4.914826   -2.996122    1.015516
     26          6           0        4.276894   -1.750685    0.939351
     27          6           0        3.251129   -1.523689   -0.005433
     28          6           0        2.890412   -2.574020   -0.880737
     29          6           0        3.536193   -3.815644   -0.807776
     30          1           0        5.049872   -5.009097    0.201153
     31          1           0        5.703572   -3.159648    1.765217
     32          1           0        4.557115   -0.944730    1.634422
     33          1           0        2.117550   -2.400863   -1.644562
     34          1           0        3.253009   -4.618501   -1.505085
     35          6           0       -6.143089   -2.224918    0.325223
     36          6           0       -5.137380   -2.385521   -0.641287
     37          6           0       -4.121604   -1.428382   -0.768737
     38          6           0       -4.098763   -0.288656    0.067905
     39          6           0       -5.123911   -0.131790    1.027598
     40          6           0       -6.133459   -1.094958    1.158285
     41          1           0       -6.937790   -2.979274    0.426186
     42          1           0       -5.148212   -3.260151   -1.309082
     43          1           0       -3.352197   -1.544778   -1.546636
     44          1           0       -5.111249    0.746917    1.690218
     45          1           0       -6.917513   -0.962947    1.919044
     46          1           0        3.589272    3.754011    1.952043
     47          1           0        4.135269    5.191259    1.018393
     48          1           0        2.415587    4.723383    0.984300
 ---------------------------------------------------------------------
 Rotational constants (GHZ):           0.2504467           0.1082375           0.0788416
 Standard basis: def2TZVP (5D, 7F)
 There are  1128 symmetry adapted cartesian basis functions of A   symmetry.
 There are   988 symmetry adapted basis functions of A   symmetry.
   988 basis functions,  1588 primitive gaussians,  1128 cartesian basis functions
    95 alpha electrons       95 beta electrons
       nuclear repulsion energy      2279.9097717023 Hartrees.
 NAtoms=   48 NActive=   48 NUniq=   48 SFac= 1.00D+00 NAtFMM=   60 NAOKFM=F Big=F
 Integral buffers will be    131072 words long.
 Raffenetti 2 integral format.
 Two-electron integral symmetry is turned on.
 Nuclear repulsion after empirical dispersion term =     2279.8482134106 Hartrees.
 One-electron integrals computed using PRISM.
   1 Symmetry operations used in ECPInt.
 ECPInt:  NShTT=   75466 NPrTT=  232216 LenC2=   59772 LenP2D=  126521.
 LDataN:  DoStor=T MaxTD1= 6 Len=  172
 NBasis=   988 RedAO= T EigKep=  2.91D-06  NBF=   988
 NBsUse=   988 1.00D-06 EigRej= -1.00D+00 NBFU=   988
 ExpMin= 9.52D-02 ExpMax= 1.97D+04 ExpMxC= 6.73D+02 IAcc=3 IRadAn=         5 AccDes= 0.00D+00
 Harris functional with IExCor= 1009 and IRadAn=       5 diagonalized for initial guess.
 HarFok:  IExCor= 1009 AccDes= 0.00D+00 IRadAn=         5 IDoV= 1 UseB2=F ITyADJ=14
 ICtDFT=  3500011 ScaDFX=  1.000000  1.000000  1.000000  1.000000
 FoFCou: FMM=F IPFlag=           0 FMFlag=      100000 FMFlg1=           0
         NFxFlg=           0 DoJE=T BraDBF=F KetDBF=T FulRan=T
         wScrn=  0.000000 ICntrl=       500 IOpCl=  0 I1Cent=   200000004 NGrid=           0
         NMat0=    1 NMatS0=      1 NMatT0=    0 NMatD0=    1 NMtDS0=    0 NMtDT0=    0
 Petite list used in FoFCou.
 Requested convergence on RMS density matrix=1.00D-08 within  32 cycles.
 Requested convergence on MAX density matrix=1.00D-06.
 Requested convergence on             energy=1.00D-06.
 No special actions if energy rises.
 Integral accuracy reduced to 1.0D-05 until final iterations.
 Problem detected with inexpensive integrals.
 Switching to full accuracy and repeating last cycle.
 Spurious integrated density or basis function:
 NE=  190 NElCor=    0 El error=3.37D-01 rel=1.77D-03 Tolerance=1.00D-03
 Shell   149     absolute error=6.25D-05              Tolerance=1.20D-02
 Shell   149       signed error=6.25D-05              Tolerance=1.00D-01
 Inaccurate quadrature in CalDSu.
 Error termination via Lnk1e in /uufs/chpc.utah.edu/sys/installdir/gaussian16/C01/AVX/g16/l502.exe at Thu May 21 14:19:11 2026.
 Job cpu time:       0 days  0 hours 34 minutes 41.6 seconds.
 Elapsed time:       0 days  0 hours  3 minutes 29.8 seconds.
 File lengths (MBytes):  RWF=    587 Int=      0 D2E=      0 Chk=     24 Scr=      2
