 Entering Gaussian System, Link 0=g16
 Input=nn000048-PdCl2_spc-nom_0004.com
 Output=nn000048-PdCl2_spc-nom_0004.log
 Initial command:
 /uufs/chpc.utah.edu/sys/installdir/gaussian16/C01/AVX/g16/l1.exe "/scratch/general/vast/u1112142/GAUSSSCRDIR/13078919-notchpeak.peaks/Gau-582009.inp" -scrdir="/scratch/general/vast/u1112142/GAUSSSCRDIR/13078919-notchpeak.peaks/"
 Entering Link 1 = /uufs/chpc.utah.edu/sys/installdir/gaussian16/C01/AVX/g16/l1.exe PID=    582010.
  
 Copyright (c) 1988-2019, Gaussian, Inc.  All Rights Reserved.
  
 This is part of the Gaussian(R) 16 program.  It is based on
 the Gaussian(R) 09 system (copyright 2009, Gaussian, Inc.),
 the Gaussian(R) 03 system (copyright 2003, Gaussian, Inc.),
 the Gaussian(R) 98 system (copyright 1998, Gaussian, Inc.),
 the Gaussian(R) 94 system (copyright 1995, Gaussian, Inc.),
 the Gaussian 92(TM) system (copyright 1992, Gaussian, Inc.),
 the Gaussian 90(TM) system (copyright 1990, Gaussian, Inc.),
 the Gaussian 88(TM) system (copyright 1988, Gaussian, Inc.),
 the Gaussian 86(TM) system (copyright 1986, Carnegie Mellon
 University), and the Gaussian 82(TM) system (copyright 1983,
 Carnegie Mellon University). Gaussian is a federally registered
 trademark of Gaussian, Inc.
  
 This software contains proprietary and confidential information,
 including trade secrets, belonging to Gaussian, Inc.
  
 This software is provided under written license and may be
 used, copied, transmitted, or stored only in accord with that
 written license.
  
 The following legend is applicable only to US Government
 contracts under FAR:
  
                    RESTRICTED RIGHTS LEGEND
  
 Use, reproduction and disclosure by the US Government is
 subject to restrictions as set forth in subparagraphs (a)
 and (c) of the Commercial Computer Software - Restricted
 Rights clause in FAR 52.227-19.
  
 Gaussian, Inc.
 340 Quinnipiac St., Bldg. 40, Wallingford CT 06492
  
  
 ---------------------------------------------------------------
 Warning -- This program may not be used in any manner that
 competes with the business of Gaussian, Inc. or will provide
 assistance to any competitor of Gaussian, Inc.  The licensee
 of this program is prohibited from giving any competitor of
 Gaussian, Inc. access to this program.  By using this program,
 the user acknowledges that Gaussian, Inc. is engaged in the
 business of creating and licensing software in the field of
 computational chemistry and represents and warrants to the
 licensee that it is not a competitor of Gaussian, Inc. and that
 it will not use this program in any manner prohibited above.
 ---------------------------------------------------------------
  

 Cite this work as:
 Gaussian 16, Revision C.01,
 M. J. Frisch, G. W. Trucks, H. B. Schlegel, G. E. Scuseria, 
 M. A. Robb, J. R. Cheeseman, G. Scalmani, V. Barone, 
 G. A. Petersson, H. Nakatsuji, X. Li, M. Caricato, A. V. Marenich, 
 J. Bloino, B. G. Janesko, R. Gomperts, B. Mennucci, H. P. Hratchian, 
 J. V. Ortiz, A. F. Izmaylov, J. L. Sonnenberg, D. Williams-Young, 
 F. Ding, F. Lipparini, F. Egidi, J. Goings, B. Peng, A. Petrone, 
 T. Henderson, D. Ranasinghe, V. G. Zakrzewski, J. Gao, N. Rega, 
 G. Zheng, W. Liang, M. Hada, M. Ehara, K. Toyota, R. Fukuda, 
 J. Hasegawa, M. Ishida, T. Nakajima, Y. Honda, O. Kitao, H. Nakai, 
 T. Vreven, K. Throssell, J. A. Montgomery, Jr., J. E. Peralta, 
 F. Ogliaro, M. J. Bearpark, J. J. Heyd, E. N. Brothers, K. N. Kudin, 
 V. N. Staroverov, T. A. Keith, R. Kobayashi, J. Normand, 
 K. Raghavachari, A. P. Rendell, J. C. Burant, S. S. Iyengar, 
 J. Tomasi, M. Cossi, J. M. Millam, M. Klene, C. Adamo, R. Cammi, 
 J. W. Ochterski, R. L. Martin, K. Morokuma, O. Farkas, 
 J. B. Foresman, and D. J. Fox, Gaussian, Inc., Wallingford CT, 2019.
 
 ******************************************
 Gaussian 16:  ES64L-G16RevC.01  3-Jul-2019
                21-May-2026 
 ******************************************
 %NProcShared=10
 Will use up to   10 processors via shared memory.
 %Mem=32GB
 %chk=nn000048-PdCl2_spc-nom_0004.chk
 ---------------------------------------------------------
 #N PBE1PBE/def2TZVP EmpiricalDispersion=GD3BJ NMR SCF=XQC
 ---------------------------------------------------------
 1/38=1,172=1/1;
 2/12=2,17=6,18=5,40=1/2;
 3/5=44,7=101,11=2,25=1,30=1,74=-13,124=41/1,2,3,8;
 4//1;
 5/5=2,8=3,13=1,38=5/2,8;
 8/6=1,10=90,11=11/1;
 10/13=100,45=16/2;
 6/7=2,8=2,9=2,10=2,28=1/1;
 99/9=1/99;
 ---------------------------
 nn000048-PdCl2_spc-nom_0004
 ---------------------------
 Symbolic Z-matrix:
 Charge =  0 Multiplicity = 1
 N                    -0.28732   1.71842  -0.23379 
 N                     1.64851  -0.12332  -0.1547 
 C                    -1.21001   2.684    -0.35045 
 H                    -0.80251   3.70664  -0.42739 
 C                    -2.58518   2.40163  -0.31341 
 H                    -3.2981    3.23588  -0.37981 
 C                    -3.05157   1.0935   -0.13263 
 C                    -2.07081   0.04844  -0.06142 
 C                    -2.38829  -1.34845   0.03159 
 H                    -3.44295  -1.65035   0.07768 
 C                    -1.39948  -2.30407   0.04161 
 H                    -1.6684   -3.36597   0.11883 
 C                    -0.00931  -1.95686  -0.05414 
 C                     1.04981  -2.91948  -0.10335 
 C                     2.34758  -2.42391  -0.2043 
 H                     3.1882   -3.12678  -0.29264 
 C                     2.64193  -1.03716  -0.25705 
 C                     4.05306  -0.60894  -0.51749 
 C                     0.34859  -0.57665  -0.09559 
 C                    -0.69256   0.41608  -0.11923 
 C                     4.23591  -0.00436  -1.91933 
 H                     4.33521   0.16891   0.22513 
 H                     4.71386  -1.48858  -0.38678 
 C                     0.46017  -7.18881  -0.05931 
 C                     1.32544  -6.58143   0.86423 
 C                     1.50752  -5.1917    0.85045 
 C                     0.81646  -4.38498  -0.08059 
 C                    -0.04739  -5.00775  -1.01014 
 C                    -0.22071  -6.39868  -0.99923 
 H                     0.31968  -8.28014  -0.05004 
 H                     1.86249  -7.19424   1.6038 
 H                     2.17842  -4.7147    1.58102 
 H                    -0.56176  -4.3967   -1.76693 
 H                    -0.8872   -6.87007  -1.73722 
 C                    -7.2965    0.42165   0.19292 
 C                    -6.42881  -0.09224   1.16989 
 C                    -5.04592   0.1087    1.06204 
 C                    -4.50799   0.83364  -0.02615 
 C                    -5.39247   1.35771  -0.99524 
 C                    -6.77413   1.14798  -0.88887 
 H                    -8.3816    0.25988   0.27765 
 H                    -6.83269  -0.64754   2.02986 
 H                    -4.37343  -0.27126   1.84568 
 H                    -4.98383   1.91745  -1.85028 
 H                    -7.44782   1.55341  -1.65876 
 H                     3.96709  -0.72544  -2.71847 
 H                     3.61501   0.9061   -2.03277 
 H                     5.29096   0.30033  -2.06142 
 
                          Input orientation:                          
 ---------------------------------------------------------------------
 Center     Atomic      Atomic             Coordinates (Angstroms)
 Number     Number       Type             X           Y           Z
 ---------------------------------------------------------------------
      1          7           0       -0.287322    1.718419   -0.233790
      2          7           0        1.648512   -0.123322   -0.154697
      3          6           0       -1.210015    2.684004   -0.350448
      4          1           0       -0.802510    3.706637   -0.427387
      5          6           0       -2.585177    2.401626   -0.313406
      6          1           0       -3.298103    3.235883   -0.379807
      7          6           0       -3.051567    1.093497   -0.132627
      8          6           0       -2.070807    0.048444   -0.061416
      9          6           0       -2.388287   -1.348455    0.031595
     10          1           0       -3.442946   -1.650348    0.077679
     11          6           0       -1.399483   -2.304069    0.041608
     12          1           0       -1.668403   -3.365966    0.118828
     13          6           0       -0.009313   -1.956856   -0.054136
     14          6           0        1.049813   -2.919477   -0.103349
     15          6           0        2.347578   -2.423913   -0.204297
     16          1           0        3.188203   -3.126781   -0.292638
     17          6           0        2.641927   -1.037165   -0.257049
     18          6           0        4.053059   -0.608936   -0.517492
     19          6           0        0.348594   -0.576648   -0.095586
     20          6           0       -0.692563    0.416077   -0.119232
     21          6           0        4.235906   -0.004363   -1.919327
     22          1           0        4.335208    0.168907    0.225126
     23          1           0        4.713864   -1.488582   -0.386778
     24          6           0        0.460166   -7.188815   -0.059309
     25          6           0        1.325437   -6.581431    0.864230
     26          6           0        1.507518   -5.191704    0.850448
     27          6           0        0.816457   -4.384978   -0.080589
     28          6           0       -0.047391   -5.007755   -1.010138
     29          6           0       -0.220706   -6.398681   -0.999228
     30          1           0        0.319675   -8.280142   -0.050041
     31          1           0        1.862489   -7.194239    1.603803
     32          1           0        2.178423   -4.714702    1.581021
     33          1           0       -0.561765   -4.396697   -1.766933
     34          1           0       -0.887202   -6.870067   -1.737223
     35          6           0       -7.296498    0.421649    0.192919
     36          6           0       -6.428811   -0.092239    1.169889
     37          6           0       -5.045925    0.108704    1.062040
     38          6           0       -4.507992    0.833645   -0.026150
     39          6           0       -5.392473    1.357709   -0.995237
     40          6           0       -6.774130    1.147981   -0.888874
     41          1           0       -8.381598    0.259876    0.277653
     42          1           0       -6.832693   -0.647538    2.029863
     43          1           0       -4.373431   -0.271263    1.845684
     44          1           0       -4.983831    1.917449   -1.850283
     45          1           0       -7.447819    1.553405   -1.658757
     46          1           0        3.967085   -0.725438   -2.718471
     47          1           0        3.615006    0.906101   -2.032766
     48          1           0        5.290960    0.300334   -2.061423
 ---------------------------------------------------------------------
                    Distance matrix (angstroms):
                    1          2          3          4          5
     1  N    0.000000
     2  N    2.673147   0.000000
     3  C    1.340644   4.011305   0.000000
     4  H    2.062986   4.555267   1.103521   0.000000
     5  C    2.398593   4.932004   1.404343   2.212227   0.000000
     6  H    3.374733   5.983638   2.159987   2.540051   1.099390
     7  C    2.835809   4.855087   2.443046   3.460295   1.400501
     8  C    2.449358   3.724452   2.787594   3.889073   2.421888
     9  C    3.726956   4.222724   4.218413   5.317829   3.771060
    10  H    4.626400   5.320597   4.894475   5.993687   4.160193
    11  C    4.182483   3.752928   5.007043   6.058459   4.865745
    12  H    5.280408   4.646664   6.085432   7.146317   5.855973
    13  C    3.690151   2.473933   4.802819   5.730937   5.069385
    14  C    4.828564   2.859993   6.047055   6.887779   6.447590
    15  C    4.909428   2.404968   6.226447   6.896120   6.901435
    16  H    5.963111   3.377935   7.287858   7.914515   7.993474
    17  C    4.021726   1.353684   5.356611   5.864880   6.257082
    18  C    4.933150   2.479776   6.210580   6.496833   7.291866
    19  C    2.385545   1.377964   3.622992   4.447659   4.186237
    20  C    1.368736   2.402673   2.337672   3.306786   2.749926
    21  C    5.125290   3.134115   6.272699   6.432965   7.409111
    22  H    4.896874   2.729103   6.116085   6.271958   7.291555
    23  H    5.943073   3.363656   7.245973   7.577752   8.271342
    24  C    8.940246   7.165365  10.017326  10.974548  10.065547
    25  C    8.526086   6.545973   9.682574  10.584932   9.867879
    26  C    7.221276   5.169013   8.417477   9.281679   8.704215
    27  C    6.204294   4.342755   7.358663   8.259271   7.594953
    28  C    6.775080   5.240759   7.807051   8.766438   7.862870
    29  C    8.153383   6.602071   9.159411  10.138193   9.138188
    30  H   10.018655   8.265016  11.074417  12.045106  11.072836
    31  H    9.350611   7.289443  10.528014  11.404257  10.748863
    32  H    7.124499   4.937033   8.363787   9.156343   8.770568
    33  H    6.310348   5.074087   7.250033   8.216834   7.240451
    34  H    8.739695   7.379214   9.659587  10.657838   9.532820
    35  C    7.140885   8.968335   6.516040   7.303958   5.135486
    36  C    6.554898   8.185269   6.103670   6.974096   4.815916
    37  C    5.187934   6.808066   4.831304   5.759347   3.633817
    38  C    4.317407   6.231762   3.795478   4.705919   2.497659
    39  C    5.174213   7.243992   4.434836   5.187261   3.071737
    40  C    6.544710   8.549627   5.797297   6.513060   4.410230
    41  H    8.240524  10.046734   7.596217   8.355825   6.207652
    42  H    7.318727   8.773707   6.955542   7.833264   5.729721
    43  H    4.997934   6.347220   4.854256   5.808788   3.873481
    44  H    4.970902   7.143370   4.132651   4.765425   2.889630
    45  H    7.302773   9.371064   6.473031   7.093153   5.116126
    46  H    5.499641   3.508741   6.635826   6.902275   7.648202
    47  H    4.373138   2.907569   5.410356   5.471260   6.605683
    48  H    6.038910   4.133100   7.132461   7.169614   8.336937
                    6          7          8          9         10
     6  H    0.000000
     7  C    2.170644   0.000000
     8  C    3.430364   1.434955   0.000000
     9  C    4.691819   2.535752   1.435538   0.000000
    10  H    4.909738   2.779585   2.188151   1.097984   0.000000
    11  C    5.871407   3.781957   2.448593   1.375148   2.145785
    12  H    6.818282   4.675809   3.442763   2.143874   2.468611
    13  C    6.155221   4.308843   2.875942   2.457035   3.449806
    14  C    7.541171   5.738130   4.306807   3.782440   4.672082
    15  C    7.996112   6.444228   5.065086   4.862167   5.848768
    16  H    9.086432   7.534658   6.147577   5.862150   6.803611
    17  C    7.318331   6.080385   4.840112   5.048096   6.124844
    18  C    8.297058   7.315881   6.175912   6.506867   7.591368
    19  C    5.283425   3.788384   2.499083   2.846468   3.944443
    20  C    3.848122   2.454379   1.427605   2.451897   3.445794
    21  C    8.344496   7.583195   6.574896   7.035098   8.103213
    22  H    8.248620   7.453006   6.413553   6.895305   7.989438
    23  H    9.301195   8.187407   6.964199   7.115843   8.171624
    24  C   11.086100   8.996351   7.667056   6.498596   6.776995
    25  C   10.922655   8.891367   7.506433   6.470631   6.904471
    26  C    9.779148   7.826586   6.410543   5.533388   6.135590
    27  C    8.665833   6.706564   5.290736   4.416270   5.064164
    28  C    8.883806   6.857140   5.528059   4.467156   4.897481
    29  C   10.133059   8.055899   6.772576   5.591582   5.838598
    30  H   12.075426   9.961788   8.664865   7.442313   7.624160
    31  H   11.804824   9.790287   8.408343   7.396901   7.823774
    32  H    9.851345   8.001535   6.590988   5.881087   6.576480
    33  H    8.226053   6.245983   4.994525   3.982796   4.387053
    34  H   10.477846   8.406994   7.216304   5.989172   6.088609
    35  C    4.922914   4.310081   5.245170   5.220137   4.376793
    36  C    4.824861   3.808975   4.530794   4.381738   3.540623
    37  C    3.861742   2.524779   3.180740   3.201276   2.575416
    38  C    2.712868   1.483252   2.560792   3.042703   2.704685
    39  C    2.879701   2.508733   3.690482   4.171671   3.741685
    40  C    4.086716   3.798994   4.900502   5.129822   4.456642
    41  H    5.927123   5.410405   6.323428   6.210238   5.298984
    42  H    5.777611   4.690893   5.247227   4.923120   4.038197
    43  H    4.290596   2.742920   3.006878   2.896905   2.427657
    44  H    2.596584   2.713463   3.896015   4.576510   4.338265
    45  H    4.656886   4.676283   5.807638   6.072639   5.414633
    46  H    8.599091   7.697830   6.641911   6.952824   7.973862
    47  H    7.480056   6.934612   6.078673   6.736774   7.797698
    48  H    9.231321   8.599251   7.632765   8.128349   9.201197
                   11         12         13         14         15
    11  C    0.000000
    12  H    1.098138   0.000000
    13  C    1.436070   2.183596   0.000000
    14  C    2.529583   2.763588   1.432064   0.000000
    15  C    3.757033   4.137630   2.407410   1.392827   0.000000
    16  H    4.672840   4.879870   3.413167   2.156737   1.099308
    17  C    4.245849   4.913608   2.813553   2.470131   1.418624
    18  C    5.737271   6.382887   4.305166   3.811771   2.510159
    19  C    2.461418   3.448847   1.426460   2.445529   2.723993
    20  C    2.815102   3.913156   2.470199   3.763250   4.161158
    21  C    6.394648   7.093329   5.031207   4.684746   3.515869
    22  H    6.247877   6.967781   4.844762   4.521043   3.295116
    23  H    6.182357   6.671847   4.757975   3.943736   2.550971
    24  C    5.227735   4.379122   5.252982   4.310089   5.127147
    25  C    5.137871   4.456222   4.900167   3.797642   4.412649
    26  C    4.176519   3.735647   3.685551   2.506439   3.078775
    27  C    3.042286   2.693080   2.564833   1.484139   2.491067
    28  C    3.200662   2.568602   3.197401   2.527257   3.614069
    29  C    4.386194   3.541643   4.546174   3.810732   4.798623
    30  H    6.219112   5.303782   6.331840   5.410423   6.199323
    31  H    6.082326   5.415536   5.803670   4.674228   5.124505
    32  H    4.580650   4.330724   3.881448   2.708080   2.909242
    33  H    2.889928   2.417261   3.031782   2.747158   3.846815
    34  H    4.926967   4.041525   5.267173   4.693478   5.708060
    35  C    6.498248   6.784318   7.669511   8.995099  10.062962
    36  C    5.608864   5.872265   6.795954   8.095939   9.184231
    37  C    4.489910   4.936662   5.556964   6.905507   7.917174
    38  C    4.417315   5.071589   5.293940   6.706794   7.592250
    39  C    5.516125   6.117429   6.391434   7.784140   8.650701
    40  C    6.455175   6.889095   7.489964   8.852986   9.820012
    41  H    7.441738   7.631444   8.667130   9.960169  11.070240
    42  H    6.018059   6.140994   7.253681   8.476215   9.613759
    43  H    4.028816   4.458295   5.049363   6.342188   7.349033
    44  H    5.852181   6.540943   6.556083   7.927957   8.677918
    45  H    7.372498   7.794978   8.380222   9.728090  10.671660
    46  H    6.237801   6.839692   4.942349   4.490339   3.439287
    47  H    6.305023   7.127014   5.024658   4.993787   4.004830
    48  H    7.481155   8.162597   6.100573   5.673496   4.419721
                   16         17         18         19         20
    16  H    0.000000
    17  C    2.160134   0.000000
    18  C    2.671718   1.497499   0.000000
    19  C    3.821699   2.344679   3.728553   0.000000
    20  C    5.257590   3.640018   4.871364   1.438774   0.000000
    21  C    3.673322   2.524008   1.537558   4.331828   5.263736
    22  H    3.527784   2.134081   1.111813   4.068390   5.045608
    23  H    2.240580   2.124507   1.107938   4.469003   5.738358
    24  C    4.898647   6.530083   7.510900   6.613207   7.691993
    25  C    4.091802   5.807693   6.709677   6.158967   7.348785
    26  C    2.897456   4.446755   5.417822   4.851476   6.101462
    27  C    2.693177   3.817242   4.992492   3.836990   5.032769
    28  C    3.810765   4.854396   6.033738   4.541796   5.534249
    29  C    4.777579   6.123019   7.212371   5.919184   6.887523
    30  H    5.902918   7.608970   8.544242   7.703683   8.755207
    31  H    4.679554   6.479187   7.257046   6.998022   8.210607
    32  H    2.655513   4.137344   4.977483   4.825223   6.120320
    33  H    4.224747   4.881583   6.099577   4.267895   5.088695
    34  H    5.719085   6.976275   8.068190   6.620369   7.466169
    35  C   11.079534  10.054994  11.418373   7.715392   6.611311
    36  C   10.189915   9.230781  10.629385   6.911534   5.901251
    37  C    8.950104   7.883912   9.262906   5.559734   4.521243
    38  C    8.659527   7.394227   8.695634   5.057686   3.839340
    39  C    9.707331   8.416170   9.659917   6.124619   4.872700
    40  C   10.857125   9.686909  10.975095   7.371354   6.173613
    41  H   12.068760  11.112440  12.490308   8.778117   7.700856
    42  H   10.581069   9.754497  11.179898   7.489556   6.591744
    43  H    8.360904   7.363650   8.758103   5.114618   4.228726
    44  H    9.728959   8.331886   9.477570   6.142821   4.864734
    45  H   11.700230  10.510891  11.757908   8.231932   7.021192
    46  H    3.501110   2.812795   2.205737   4.471592   5.456319
    47  H    4.412974   2.806481   2.187072   4.076844   4.738869
    48  H    4.392642   3.473045   2.177818   5.390787   6.291903
                   21         22         23         24         25
    21  C    0.000000
    22  H    2.153732   0.000000
    23  H    2.186334   1.806952   0.000000
    24  C    8.326597   8.320632   7.119960   0.000000
    25  C    7.712122   7.418506   6.243682   1.403757   0.000000
    26  C    6.482612   6.092865   5.052177   2.431677   1.401672
    27  C    5.853493   5.763067   4.865454   2.826463   2.444616
    28  C    6.648848   6.894264   5.953377   2.432840   2.806130
    29  C    7.848266   8.086322   6.988143   1.404047   2.428257
    30  H    9.344496   9.358774   8.096146   1.100373   2.175562
    31  H    8.351040   7.888664   6.681862   2.175427   1.100422
    32  H    6.218759   5.508159   4.550664   3.429916   2.173948
    33  H    6.506417   6.985226   6.180147   3.428738   3.906099
    34  H    8.568389   8.981733   7.883909   2.175407   3.427337
    35  C   11.731982  11.634496  12.175131  10.869619  11.127963
    36  C   11.103475  10.808556  11.337203   9.966459  10.115898
    37  C    9.749549   9.418583   9.995192   9.210224   9.240740
    38  C    8.985663   8.871709   9.516587   9.436289   9.476551
    39  C    9.768053   9.875744  10.517111  10.400596  10.564936
    40  C   11.118031  11.207899  11.797354  11.069118  11.332262
    41  H   12.810072  12.717240  13.228367  11.566042  11.890084
    42  H   11.769607  11.342208  11.826686  10.016923  10.155042
    43  H    9.400384   8.869068   9.436349   8.651311   8.559122
    44  H    9.418157   9.706143  10.382109  10.759588  10.927324
    45  H   11.789994  12.012726  12.600720  11.896254  12.227471
    46  H    1.109434   3.098407   2.564539   7.819518   7.355726
    47  H    1.107849   2.481979   3.106650   8.909277   8.348523
    48  H    1.107326   2.481741   2.517477   9.134132   8.464248
                   26         27         28         29         30
    26  C    0.000000
    27  C    1.412516   0.000000
    28  C    2.431740   1.413557   0.000000
    29  C    2.804435   2.444300   1.401725   0.000000
    30  H    3.429330   3.926835   3.430021   2.175515   0.000000
    31  H    2.168801   3.438504   3.906539   3.427592   2.508916
    32  H    1.100628   2.173619   3.428445   3.905034   4.339087
    33  H    3.429964   2.177932   1.100324   2.171090   4.336566
    34  H    3.904821   3.438394   2.168442   1.100481   2.508276
    35  C   10.461968   9.433902   9.136484   9.899745  11.566603
    36  C    9.438851   8.513824   8.344899   9.111358  10.680452
    37  C    8.431293   7.474376   7.446973   8.359283  10.019937
    38  C    8.559183   7.455652   7.415332   8.463701  10.313489
    39  C    9.690781   8.506811   8.311994   9.322487  11.243229
    40  C   10.573672   9.427830   9.119036   9.995582  11.828577
    41  H   11.306743  10.310539   9.943106  10.609758  12.196371
    42  H    9.570768   8.771087   8.619364   9.271969  10.664851
    43  H    7.732193   6.896964   7.021731   7.929937   9.474238
    44  H    9.998581   8.746184   8.545919   9.621313  11.634385
    45  H   11.488719  10.298217   9.911401  10.765771  12.634105
    46  H    6.223679   5.502465   6.113318   7.258035   8.803276
    47  H    7.066658   6.295903   7.030833   8.315091   9.958789
    48  H    7.277080   6.774735   7.601249   8.739766  10.118493
                   31         32         33         34         35
    31  H    0.000000
    32  H    2.499688   0.000000
    33  H    5.006507   4.338036   0.000000
    34  H    4.339164   5.005437   2.494865   0.000000
    35  C   11.994974  10.866603   8.509648   9.898164   0.000000
    36  C   10.925766   9.778582   7.847006   9.224949   1.404077
    37  C   10.067406   8.702057   6.957687   8.592677   2.432773
    38  C   10.377221   8.836023   6.779344   8.682457   2.827277
    39  C   11.511963  10.041401   7.552777   9.409798   2.431714
    40  C   12.263657  10.982698   8.373047   9.983221   1.403817
    41  H   12.738282  11.745605   9.328118  10.538586   1.100360
    42  H   10.892522   9.896641   8.233857   9.394662   2.175462
    43  H    9.320559   7.920921   6.678249   8.278601   3.428714
    44  H   11.909059  10.346843   7.709089   9.696164   3.429361
    45  H   13.185122  11.935237   9.101272  10.677206   2.175425
    46  H    8.059576   6.131817   5.907118   7.891984  11.690180
    47  H    9.050496   6.834959   6.755424   8.990329  11.146716
    48  H    9.019807   6.935839   7.510207   9.470451  12.788310
                   36         37         38         39         40
    36  C    0.000000
    37  C    1.401565   0.000000
    38  C    2.444854   1.413884   0.000000
    39  C    2.804302   2.431562   1.412826   0.000000
    40  C    2.428146   2.805861   2.445094   1.401527   0.000000
    41  H    2.175648   3.429990   3.927636   3.429337   2.175653
    42  H    1.100469   2.168208   3.438797   3.904673   3.427293
    43  H    2.171022   1.100327   2.177772   3.429697   3.905819
    44  H    3.904900   3.428854   2.174515   1.100637   2.172915
    45  H    3.427501   3.906277   3.438902   2.168641   1.100430
    46  H   11.117326   9.809302   9.028082   9.742195  11.055805
    47  H   10.589237   9.231759   8.367488   9.078275  10.454719
    48  H   12.163409  10.800182  10.022287  10.788444  12.151534
                   41         42         43         44         45
    41  H    0.000000
    42  H    2.508534   0.000000
    43  H    4.336615   2.494689   0.000000
    44  H    4.338257   5.005295   4.338573   0.000000
    45  H    2.508953   4.339176   5.006235   2.498089   0.000000
    46  H   12.745100  11.797795   9.518508   9.373233  11.688292
    47  H   12.234138  11.316941   8.957884   8.660030  11.088056
    48  H   13.871256  12.830434  10.439955  10.403412  12.806593
                   46         47         48
    46  H    0.000000
    47  H    1.804459   0.000000
    48  H    1.799046   1.782302   0.000000
 Stoichiometry    C26H20N2
 Framework group  C1[X(C26H20N2)]
 Deg. of freedom   138
 Full point group                 C1      NOp   1
 Largest Abelian subgroup         C1      NOp   1
 Largest concise Abelian subgroup C1      NOp   1
                         Standard orientation:                         
 ---------------------------------------------------------------------
 Center     Atomic      Atomic             Coordinates (Angstroms)
 Number     Number       Type             X           Y           Z
 ---------------------------------------------------------------------
      1          7           0        1.150571    2.848427   -0.275857
      2          7           0       -1.487613    2.428625   -0.373166
      3          6           0        2.456078    3.130029   -0.158901
      4          1           0        2.704294    4.204018   -0.210814
      5          6           0        3.423503    2.118780   -0.042100
      6          1           0        4.483249    2.405325    0.016959
      7          6           0        3.063173    0.765580   -0.062507
      8          6           0        1.663415    0.457636   -0.132826
      9          6           0        1.127886   -0.872896   -0.072304
     10          1           0        1.821540   -1.720294    0.007263
     11          6           0       -0.228980   -1.095640   -0.090563
     12          1           0       -0.613288   -2.123472   -0.048437
     13          6           0       -1.173220   -0.015644   -0.156265
     14          6           0       -2.593340   -0.196963   -0.121751
     15          6           0       -3.377145    0.952557   -0.186715
     16          1           0       -4.470644    0.864737   -0.115837
     17          6           0       -2.827376    2.256691   -0.284103
     18          6           0       -3.746886    3.435320   -0.195570
     19          6           0       -0.679015    1.317609   -0.270231
     20          6           0        0.741635    1.542791   -0.236824
     21          6           0       -3.588604    4.208001    1.124277
     22          1           0       -3.513964    4.135807   -1.026950
     23          1           0       -4.788115    3.074238   -0.309533
     24          6           0       -4.548667   -4.018395    0.265842
     25          6           0       -4.886600   -3.150572   -0.784501
     26          6           0       -4.242015   -1.912279   -0.910294
     27          6           0       -3.238940   -1.527148    0.006611
     28          6           0       -2.911133   -2.405968    1.064137
     29          6           0       -3.563668   -3.639932    1.192065
     30          1           0       -5.056935   -4.989201    0.365934
     31          1           0       -5.657628   -3.440360   -1.514204
     32          1           0       -4.500192   -1.236278   -1.739601
     33          1           0       -2.160163   -2.102643    1.808953
     34          1           0       -3.306095   -4.307929    2.027824
     35          6           0        6.169298   -2.219543    0.070987
     36          6           0        5.189955   -2.271845   -0.933792
     37          6           0        4.167767   -1.313771   -0.973923
     38          6           0        4.111967   -0.281891   -0.008947
     39          6           0        5.111109   -0.231758    0.988690
     40          6           0        6.127228   -1.196119    1.030954
     41          1           0        6.969031   -2.974667    0.102729
     42          1           0        5.226701   -3.060968   -1.699931
     43          1           0        3.419909   -1.342688   -1.780515
     44          1           0        5.073130    0.563056    1.749105
     45          1           0        6.890983   -1.148837    1.821768
     46          1           0       -3.801516    3.568458    2.005467
     47          1           0       -2.562029    4.614579    1.214660
     48          1           0       -4.283534    5.069980    1.139641
 ---------------------------------------------------------------------
 Rotational constants (GHZ):           0.2521996           0.1072958           0.0788281
 Standard basis: def2TZVP (5D, 7F)
 There are  1128 symmetry adapted cartesian basis functions of A   symmetry.
 There are   988 symmetry adapted basis functions of A   symmetry.
   988 basis functions,  1588 primitive gaussians,  1128 cartesian basis functions
    95 alpha electrons       95 beta electrons
       nuclear repulsion energy      2278.6373221318 Hartrees.
 NAtoms=   48 NActive=   48 NUniq=   48 SFac= 1.00D+00 NAtFMM=   60 NAOKFM=F Big=F
 Integral buffers will be    131072 words long.
 Raffenetti 2 integral format.
 Two-electron integral symmetry is turned on.
 Nuclear repulsion after empirical dispersion term =     2278.5758122354 Hartrees.
 One-electron integrals computed using PRISM.
   1 Symmetry operations used in ECPInt.
 ECPInt:  NShTT=   75466 NPrTT=  232216 LenC2=   59750 LenP2D=  126398.
 LDataN:  DoStor=T MaxTD1= 6 Len=  172
 NBasis=   988 RedAO= T EigKep=  2.91D-06  NBF=   988
 NBsUse=   988 1.00D-06 EigRej= -1.00D+00 NBFU=   988
 ExpMin= 9.52D-02 ExpMax= 1.97D+04 ExpMxC= 6.73D+02 IAcc=3 IRadAn=         5 AccDes= 0.00D+00
 Harris functional with IExCor= 1009 and IRadAn=       5 diagonalized for initial guess.
 HarFok:  IExCor= 1009 AccDes= 0.00D+00 IRadAn=         5 IDoV= 1 UseB2=F ITyADJ=14
 ICtDFT=  3500011 ScaDFX=  1.000000  1.000000  1.000000  1.000000
 FoFCou: FMM=F IPFlag=           0 FMFlag=      100000 FMFlg1=           0
         NFxFlg=           0 DoJE=T BraDBF=F KetDBF=T FulRan=T
         wScrn=  0.000000 ICntrl=       500 IOpCl=  0 I1Cent=   200000004 NGrid=           0
         NMat0=    1 NMatS0=      1 NMatT0=    0 NMatD0=    1 NMtDS0=    0 NMtDT0=    0
 Petite list used in FoFCou.
 Requested convergence on RMS density matrix=1.00D-08 within  32 cycles.
 Requested convergence on MAX density matrix=1.00D-06.
 Requested convergence on             energy=1.00D-06.
 No special actions if energy rises.
 Integral accuracy reduced to 1.0D-05 until final iterations.
 Problem detected with inexpensive integrals.
 Switching to full accuracy and repeating last cycle.
 Spurious integrated density or basis function:
 NE=  190 NElCor=    0 El error=3.23D-01 rel=1.70D-03 Tolerance=1.00D-03
 Shell   212     absolute error=3.59D-05              Tolerance=1.20D-02
 Shell   212       signed error=3.59D-05              Tolerance=1.00D-01
 Inaccurate quadrature in CalDSu.
 Error termination via Lnk1e in /uufs/chpc.utah.edu/sys/installdir/gaussian16/C01/AVX/g16/l502.exe at Thu May 21 14:19:22 2026.
 Job cpu time:       0 days  0 hours 34 minutes 43.2 seconds.
 Elapsed time:       0 days  0 hours  3 minutes 30.2 seconds.
 File lengths (MBytes):  RWF=    587 Int=      0 D2E=      0 Chk=     24 Scr=      2
