%NProcShared=16
%Mem=40GB
%chk=q20_crest_clustered-10.chk
#N OPT FREQ=NORAMAN Integral(Ultrafine) wB97XD def2SVP

q20_crest_clustered-10

0  1
O           3.61985        -1.75146        -1.97684
C           3.29782        -0.92825        -1.15700
C           2.68844        -1.28548         0.14122
C           2.80973        -2.73043         0.56361
N           1.66103        -3.42360         0.77330
C           0.33969        -3.05563         0.51895
C          -0.01067        -2.30727        -0.60340
C          -1.34047        -2.00038        -0.83966
C          -2.30935        -2.42859         0.04341
S          -4.04191        -2.10083        -0.21840
O          -4.52633        -1.41297         0.96777
O          -4.05842        -1.12581        -1.43377
O          -4.68989        -3.31879        -0.56290
C          -1.97736        -3.17942         1.15549
C          -0.65562        -3.50151         1.39129
O           3.89725        -3.20280         0.78032
C           2.22974        -0.34507         0.98914
Cl          1.48847        -0.73185         2.47577
C           3.41588         0.54024        -1.41943
Cl          4.10625         0.94041        -2.91752
C           2.94909         1.47880        -0.56755
C           3.14989         2.95464        -0.82010
N           2.04324         3.73277        -0.67066
C           0.73972         3.30534        -0.41873
C           0.22128         2.19234        -1.08374
C          -1.04521         1.73568        -0.77030
C          -1.78888         2.39715         0.18440
S          -3.37026         1.72187         0.60938
O          -4.01529         1.27145        -0.61179
O          -2.90006         0.45159         1.40353
O          -4.09867         2.62968         1.42851
C          -1.31276         3.52997         0.81316
C          -0.04684         3.99299         0.50535
O           4.23390         3.41629        -1.07781
C           2.37451         1.11718         0.74098
O           2.07195         1.93272         1.58162
H           1.79814        -4.31259         1.24153
H           0.74806        -2.00643        -1.30843
H          -1.63320        -1.46031        -1.72556
H          -4.10960        -0.15735        -1.16200
H          -2.76337        -3.50663         1.81612
H          -0.38343        -4.09679         2.24949
H           2.23179         4.72514        -0.59093
H           0.80097         1.70469        -1.85132
H          -1.47320         0.88156        -1.26773
H          -3.59854        -0.28103         1.36490
H          -1.93937         4.02295         1.53833
H           0.35116         4.86595         0.99868

--Link1--
%NProcShared=16
%Mem=40GB
%chk=q20_crest_clustered-10.chk
#N Guess=Read Geom=Check Integral(Ultrafine) Density Pop=NBO7 Pop=Hirshfeld Pop=(ChelpG,ReadRadii) Polar Prop=(Potential,EFG) Volume  wB97XD def2TZVP SCRF(IEFPCM,solvent=water)

q20_crest_clustered-10

0  1

--Link1--
%NProcShared=16
%Mem=40GB
%chk=q20_crest_clustered-10.chk
#N Guess=Read Geom=Check Integral(Ultrafine) Density NMR  wB97XD def2TZVP SCRF(IEFPCM,solvent=water)

q20_crest_clustered-10

0  1

