%NProcShared=16
%Mem=40GB
%chk=sulfide1333_lec_new.chk
#N OPT=(CalcAll,Tight) FREQ=NORAMAN Integral(Ultrafine) B3LYP EmpiricalDispersion=GD3BJ 6-31G(d,p)

sulfide1333_lec_new

0  1
 I         -0.4801228003        1.6494511631        0.0471472250
 C         -1.4659305263       -0.2115246168       -0.1418157395
 C         -1.0146670168       -1.3398291705        0.5330391350
 S          0.4115922361       -1.3095543626        1.5982936690
 C          1.7123687926       -0.9985775073        0.4266545877
 C          2.8733543416       -0.4012202839        0.8989069470
 C          3.9204099233       -0.1614486104        0.0298905137
 C          3.8109691354       -0.5086654583       -1.3069065806
 C          2.6528969035       -1.1097596208       -1.7694848350
 C          1.6028832359       -1.3658907556       -0.9062607714
 C         -1.7227888873       -2.5289228713        0.4145766546
 C         -2.8512990784       -2.6005315955       -0.3810077507
 C         -3.2779961233       -1.4786794424       -1.0714182274
 C         -2.5863459301       -0.2856572905       -0.9515173735
 H          2.9423314886       -0.1238347297        1.9396192970
 H          4.8211131484        0.3070101905        0.3971629135
 H          4.6259592443       -0.3114885797       -1.9867092924
 H          2.5623081329       -1.3874958175       -2.8092586415
 H          0.7048959572       -1.8440519830       -1.2715387187
 H         -1.3706006529       -3.3950820763        0.9537741174
 H         -3.3909037208       -3.5312669896       -0.4651899104
 H         -4.1532384313       -1.5248382311       -1.7011413576
 H         -2.9243761561        0.5925961869       -1.4798655331

--Link1--
%NProcShared=16
%Mem=40GB
%chk=sulfide1333_lec_new.chk
#N Guess=Read Geom=Check Integral(Ultrafine) Density Pop=NBO7 Pop=Hirshfeld Polar Prop=(Potential,EFG) Volume  M062X def2TZVP

sulfide1333_lec_new

0  1

--Link1--
%NProcShared=16
%Mem=40GB
%chk=sulfide1333_lec_new.chk
#N Guess=Read Geom=Check Integral(Ultrafine) Density NMR Pop=(ChelpG,ReadRadii)  M062X def2TZVP

sulfide1333_lec_new

0  1

I 1.98 

