 Entering Gaussian System, Link 0=g16
 Input=Lig127_xyz-1.com
 Output=Lig127_xyz-1.log
 Initial command:
 /uufs/chpc.utah.edu/sys/installdir/gaussian16/C01/AVX/g16/l1.exe "/scratch/general/vast/u1365460/GAUSSSCRDIR/11267729-notchpeak.peaks/Gau-88288.inp" -scrdir="/scratch/general/vast/u1365460/GAUSSSCRDIR/11267729-notchpeak.peaks/"
 Entering Link 1 = /uufs/chpc.utah.edu/sys/installdir/gaussian16/C01/AVX/g16/l1.exe PID=     88289.
  
 Copyright (c) 1988-2019, Gaussian, Inc.  All Rights Reserved.
  
 This is part of the Gaussian(R) 16 program.  It is based on
 the Gaussian(R) 09 system (copyright 2009, Gaussian, Inc.),
 the Gaussian(R) 03 system (copyright 2003, Gaussian, Inc.),
 the Gaussian(R) 98 system (copyright 1998, Gaussian, Inc.),
 the Gaussian(R) 94 system (copyright 1995, Gaussian, Inc.),
 the Gaussian 92(TM) system (copyright 1992, Gaussian, Inc.),
 the Gaussian 90(TM) system (copyright 1990, Gaussian, Inc.),
 the Gaussian 88(TM) system (copyright 1988, Gaussian, Inc.),
 the Gaussian 86(TM) system (copyright 1986, Carnegie Mellon
 University), and the Gaussian 82(TM) system (copyright 1983,
 Carnegie Mellon University). Gaussian is a federally registered
 trademark of Gaussian, Inc.
  
 This software contains proprietary and confidential information,
 including trade secrets, belonging to Gaussian, Inc.
  
 This software is provided under written license and may be
 used, copied, transmitted, or stored only in accord with that
 written license.
  
 The following legend is applicable only to US Government
 contracts under FAR:
  
                    RESTRICTED RIGHTS LEGEND
  
 Use, reproduction and disclosure by the US Government is
 subject to restrictions as set forth in subparagraphs (a)
 and (c) of the Commercial Computer Software - Restricted
 Rights clause in FAR 52.227-19.
  
 Gaussian, Inc.
 340 Quinnipiac St., Bldg. 40, Wallingford CT 06492
  
  
 ---------------------------------------------------------------
 Warning -- This program may not be used in any manner that
 competes with the business of Gaussian, Inc. or will provide
 assistance to any competitor of Gaussian, Inc.  The licensee
 of this program is prohibited from giving any competitor of
 Gaussian, Inc. access to this program.  By using this program,
 the user acknowledges that Gaussian, Inc. is engaged in the
 business of creating and licensing software in the field of
 computational chemistry and represents and warrants to the
 licensee that it is not a competitor of Gaussian, Inc. and that
 it will not use this program in any manner prohibited above.
 ---------------------------------------------------------------
  

 Cite this work as:
 Gaussian 16, Revision C.01,
 M. J. Frisch, G. W. Trucks, H. B. Schlegel, G. E. Scuseria, 
 M. A. Robb, J. R. Cheeseman, G. Scalmani, V. Barone, 
 G. A. Petersson, H. Nakatsuji, X. Li, M. Caricato, A. V. Marenich, 
 J. Bloino, B. G. Janesko, R. Gomperts, B. Mennucci, H. P. Hratchian, 
 J. V. Ortiz, A. F. Izmaylov, J. L. Sonnenberg, D. Williams-Young, 
 F. Ding, F. Lipparini, F. Egidi, J. Goings, B. Peng, A. Petrone, 
 T. Henderson, D. Ranasinghe, V. G. Zakrzewski, J. Gao, N. Rega, 
 G. Zheng, W. Liang, M. Hada, M. Ehara, K. Toyota, R. Fukuda, 
 J. Hasegawa, M. Ishida, T. Nakajima, Y. Honda, O. Kitao, H. Nakai, 
 T. Vreven, K. Throssell, J. A. Montgomery, Jr., J. E. Peralta, 
 F. Ogliaro, M. J. Bearpark, J. J. Heyd, E. N. Brothers, K. N. Kudin, 
 V. N. Staroverov, T. A. Keith, R. Kobayashi, J. Normand, 
 K. Raghavachari, A. P. Rendell, J. C. Burant, S. S. Iyengar, 
 J. Tomasi, M. Cossi, J. M. Millam, M. Klene, C. Adamo, R. Cammi, 
 J. W. Ochterski, R. L. Martin, K. Morokuma, O. Farkas, 
 J. B. Foresman, and D. J. Fox, Gaussian, Inc., Wallingford CT, 2019.
 
 ******************************************
 Gaussian 16:  ES64L-G16RevC.01  3-Jul-2019
                 6-Mar-2026 
 ******************************************
 %NProcShared=16
 Will use up to   16 processors via shared memory.
 %chk=Lig127_xyz-1.chk
 ----------------------------------------------------------------------
 # B3LYP gen 6D pseudo=read int=(grid=fine) empiricaldispersion=GD3BJ o
 pt freq=noraman SCF=XQC
 ----------------------------------------------------------------------
 1/18=20,19=15,26=3,38=1/1,3;
 2/9=110,12=2,17=6,18=5,40=1/2;
 3/5=7,8=2,11=2,16=1,17=8,25=1,30=1,71=1,74=-5,75=-4,124=41/1,2,3;
 4//1;
 5/5=2,8=3,13=1,38=5/2,8;
 6/7=2,8=2,9=2,10=2,28=1/1;
 7//1,2,3,16;
 1/18=20,19=15,26=3/3(2);
 2/9=110/2;
 99//99;
 2/9=110/2;
 3/5=7,6=1,8=2,11=2,16=1,17=8,25=1,30=1,71=1,74=-5,75=-4,82=7,124=41/1,2,3;
 4/5=5,16=3,69=1/1;
 5/5=2,8=3,13=1,38=5/2,8;
 7//1,2,3,16;
 1/18=20,19=15,26=3/3(-5);
 2/9=110/2;
 6/7=2,8=2,9=2,10=2,19=2,28=1/1;
 99/9=1/99;
 ----------
 Lig127.xyz
 ----------
 Symbolic Z-matrix:
 Charge =  0 Multiplicity = 3
 N                    -1.25058  -1.00755   0.27516 
 C                    -2.492    -0.60801   0.01648 
 C                    -3.01496   0.56732   0.57272 
 C                    -4.38425   1.04732   0.16771 
 F                    -5.18634   0.02227  -0.17135 
 F                    -4.97643   1.7325    1.16541 
 F                    -4.30388   1.87274  -0.8967 
 C                    -2.23015   1.32013   1.44107 
 C                    -0.93722   0.88089   1.73885 
 C                    -0.4934   -0.28145   1.12524 
 C                     0.87818  -0.79358   1.25217 
 N                     1.30461  -1.72224   0.47835 
 C                     2.76369  -1.75691   0.60736 
 C                     3.39688  -1.01852  -0.61805 
 C                     3.31695   0.49361  -0.5109 
 C                     2.14356   1.23498  -0.87303 
 C                     1.05812   0.65405  -1.57642 
 C                    -0.09629   1.36368  -1.81396 
 C                    -0.22024   2.70432  -1.37888 
 C                     0.84157   3.32018  -0.75162 
 C                     2.0497    2.61734  -0.49839 
 C                     3.15626   3.2545    0.11815 
 C                     4.3126    2.55192   0.36759 
 C                     4.37911   1.17256   0.06567 
 C                     2.96716  -1.0496    1.96518 
 O                     1.74865  -0.24601   2.1124 
 H                    -3.07162  -1.22592  -0.65976 
 H                    -2.6204    2.23239   1.87736 
 H                    -0.27762   1.43321   2.39586 
 H                     3.1128   -2.79161   0.62125 
 H                     4.45172  -1.3113   -0.65927 
 H                     2.90162  -1.41778  -1.50815 
 H                     1.10485  -0.37116  -1.92002 
 H                    -0.911     0.87548  -2.34003 
 H                    -1.1432    3.24911  -1.5571 
 H                     0.77562   4.36171  -0.44694 
 H                     3.07809   4.30726   0.37634 
 H                     5.17265   3.04591   0.80956 
 H                     5.28497   0.6258    0.31298 
 H                     2.99772  -1.75114   2.80372 
 H                     3.80955  -0.3632    2.00291 
 Ni                   -0.23333  -2.63151  -0.56531 
 F                    -1.01526  -4.0223    0.26382 
 F                     0.27397  -2.07054  -2.24511 
 

 GradGradGradGradGradGradGradGradGradGradGradGradGradGradGradGradGradGrad
 Berny optimization.
 Initialization pass.
                           ----------------------------
                           !    Initial Parameters    !
                           ! (Angstroms and Degrees)  !
 --------------------------                            --------------------------
 ! Name  Definition              Value          Derivative Info.                !
 --------------------------------------------------------------------------------
 ! R1    R(1,2)                  1.3295         estimate D2E/DX2                !
 ! R2    R(1,10)                 1.3502         estimate D2E/DX2                !
 ! R3    R(1,42)                 2.0925         estimate D2E/DX2                !
 ! R4    R(2,3)                  1.4015         estimate D2E/DX2                !
 ! R5    R(2,27)                 1.084          estimate D2E/DX2                !
 ! R6    R(3,4)                  1.5064         estimate D2E/DX2                !
 ! R7    R(3,8)                  1.3916         estimate D2E/DX2                !
 ! R8    R(4,5)                  1.345          estimate D2E/DX2                !
 ! R9    R(4,6)                  1.3474         estimate D2E/DX2                !
 ! R10   R(4,7)                  1.3494         estimate D2E/DX2                !
 ! R11   R(8,9)                  1.3976         estimate D2E/DX2                !
 ! R12   R(8,28)                 1.0839         estimate D2E/DX2                !
 ! R13   R(9,10)                 1.3873         estimate D2E/DX2                !
 ! R14   R(9,29)                 1.0825         estimate D2E/DX2                !
 ! R15   R(10,11)                1.4696         estimate D2E/DX2                !
 ! R16   R(11,12)                1.2818         estimate D2E/DX2                !
 ! R17   R(11,26)                1.3407         estimate D2E/DX2                !
 ! R18   R(12,13)                1.4652         estimate D2E/DX2                !
 ! R19   R(12,42)                2.0691         estimate D2E/DX2                !
 ! R20   R(13,14)                1.5645         estimate D2E/DX2                !
 ! R21   R(13,25)                1.5445         estimate D2E/DX2                !
 ! R22   R(13,30)                1.0921         estimate D2E/DX2                !
 ! R23   R(14,15)                1.518          estimate D2E/DX2                !
 ! R24   R(14,31)                1.0955         estimate D2E/DX2                !
 ! R25   R(14,32)                1.0941         estimate D2E/DX2                !
 ! R26   R(15,16)                1.4344         estimate D2E/DX2                !
 ! R27   R(15,24)                1.3862         estimate D2E/DX2                !
 ! R28   R(16,17)                1.4179         estimate D2E/DX2                !
 ! R29   R(16,21)                1.4353         estimate D2E/DX2                !
 ! R30   R(17,18)                1.3757         estimate D2E/DX2                !
 ! R31   R(17,33)                1.0823         estimate D2E/DX2                !
 ! R32   R(18,19)                1.4149         estimate D2E/DX2                !
 ! R33   R(18,34)                1.0857         estimate D2E/DX2                !
 ! R34   R(19,20)                1.3785         estimate D2E/DX2                !
 ! R35   R(19,35)                1.0865         estimate D2E/DX2                !
 ! R36   R(20,21)                1.4205         estimate D2E/DX2                !
 ! R37   R(20,36)                1.0872         estimate D2E/DX2                !
 ! R38   R(21,22)                1.4179         estimate D2E/DX2                !
 ! R39   R(22,23)                1.3758         estimate D2E/DX2                !
 ! R40   R(22,37)                1.0868         estimate D2E/DX2                !
 ! R41   R(23,24)                1.4136         estimate D2E/DX2                !
 ! R42   R(23,38)                1.0858         estimate D2E/DX2                !
 ! R43   R(24,39)                1.0866         estimate D2E/DX2                !
 ! R44   R(25,26)                1.467          estimate D2E/DX2                !
 ! R45   R(25,40)                1.0937         estimate D2E/DX2                !
 ! R46   R(25,41)                1.0873         estimate D2E/DX2                !
 ! R47   R(42,43)                1.7981         estimate D2E/DX2                !
 ! R48   R(42,44)                1.8422         estimate D2E/DX2                !
 ! A1    A(2,1,10)             118.9797         estimate D2E/DX2                !
 ! A2    A(2,1,42)             127.5174         estimate D2E/DX2                !
 ! A3    A(10,1,42)            113.4285         estimate D2E/DX2                !
 ! A4    A(1,2,3)              121.5467         estimate D2E/DX2                !
 ! A5    A(1,2,27)             116.7011         estimate D2E/DX2                !
 ! A6    A(3,2,27)             121.7424         estimate D2E/DX2                !
 ! A7    A(2,3,4)              119.9778         estimate D2E/DX2                !
 ! A8    A(2,3,8)              119.397          estimate D2E/DX2                !
 ! A9    A(4,3,8)              120.53           estimate D2E/DX2                !
 ! A10   A(3,4,5)              111.5303         estimate D2E/DX2                !
 ! A11   A(3,4,6)              111.2496         estimate D2E/DX2                !
 ! A12   A(3,4,7)              110.662          estimate D2E/DX2                !
 ! A13   A(5,4,6)              108.1867         estimate D2E/DX2                !
 ! A14   A(5,4,7)              107.6295         estimate D2E/DX2                !
 ! A15   A(6,4,7)              107.4095         estimate D2E/DX2                !
 ! A16   A(3,8,9)              118.9894         estimate D2E/DX2                !
 ! A17   A(3,8,28)             120.2254         estimate D2E/DX2                !
 ! A18   A(9,8,28)             120.7853         estimate D2E/DX2                !
 ! A19   A(8,9,10)             117.7129         estimate D2E/DX2                !
 ! A20   A(8,9,29)             122.1855         estimate D2E/DX2                !
 ! A21   A(10,9,29)            120.0679         estimate D2E/DX2                !
 ! A22   A(1,10,9)             123.3414         estimate D2E/DX2                !
 ! A23   A(1,10,11)            112.9768         estimate D2E/DX2                !
 ! A24   A(9,10,11)            123.5298         estimate D2E/DX2                !
 ! A25   A(10,11,12)           120.7187         estimate D2E/DX2                !
 ! A26   A(10,11,26)           121.2686         estimate D2E/DX2                !
 ! A27   A(12,11,26)           117.8557         estimate D2E/DX2                !
 ! A28   A(11,12,13)           107.174          estimate D2E/DX2                !
 ! A29   A(11,12,42)           112.0622         estimate D2E/DX2                !
 ! A30   A(13,12,42)           140.7323         estimate D2E/DX2                !
 ! A31   A(12,13,14)           108.8379         estimate D2E/DX2                !
 ! A32   A(12,13,25)           101.4064         estimate D2E/DX2                !
 ! A33   A(12,13,30)           109.9916         estimate D2E/DX2                !
 ! A34   A(14,13,25)           114.7799         estimate D2E/DX2                !
 ! A35   A(14,13,30)           109.1312         estimate D2E/DX2                !
 ! A36   A(25,13,30)           112.3711         estimate D2E/DX2                !
 ! A37   A(13,14,15)           113.1737         estimate D2E/DX2                !
 ! A38   A(13,14,31)           107.0399         estimate D2E/DX2                !
 ! A39   A(13,14,32)           106.3668         estimate D2E/DX2                !
 ! A40   A(15,14,31)           108.6371         estimate D2E/DX2                !
 ! A41   A(15,14,32)           113.3971         estimate D2E/DX2                !
 ! A42   A(31,14,32)           107.9236         estimate D2E/DX2                !
 ! A43   A(14,15,16)           122.689          estimate D2E/DX2                !
 ! A44   A(14,15,24)           118.4834         estimate D2E/DX2                !
 ! A45   A(16,15,24)           118.5971         estimate D2E/DX2                !
 ! A46   A(15,16,17)           122.663          estimate D2E/DX2                !
 ! A47   A(15,16,21)           119.0365         estimate D2E/DX2                !
 ! A48   A(17,16,21)           118.2964         estimate D2E/DX2                !
 ! A49   A(16,17,18)           121.1101         estimate D2E/DX2                !
 ! A50   A(16,17,33)           120.8345         estimate D2E/DX2                !
 ! A51   A(18,17,33)           118.0369         estimate D2E/DX2                !
 ! A52   A(17,18,19)           120.6078         estimate D2E/DX2                !
 ! A53   A(17,18,34)           118.7752         estimate D2E/DX2                !
 ! A54   A(19,18,34)           120.617          estimate D2E/DX2                !
 ! A55   A(18,19,20)           119.7203         estimate D2E/DX2                !
 ! A56   A(18,19,35)           119.9395         estimate D2E/DX2                !
 ! A57   A(20,19,35)           120.3298         estimate D2E/DX2                !
 ! A58   A(19,20,21)           121.0109         estimate D2E/DX2                !
 ! A59   A(19,20,36)           120.5846         estimate D2E/DX2                !
 ! A60   A(21,20,36)           118.4021         estimate D2E/DX2                !
 ! A61   A(16,21,20)           119.0541         estimate D2E/DX2                !
 ! A62   A(16,21,22)           119.6856         estimate D2E/DX2                !
 ! A63   A(20,21,22)           121.2601         estimate D2E/DX2                !
 ! A64   A(21,22,23)           120.3486         estimate D2E/DX2                !
 ! A65   A(21,22,37)           118.8455         estimate D2E/DX2                !
 ! A66   A(23,22,37)           120.8009         estimate D2E/DX2                !
 ! A67   A(22,23,24)           119.9408         estimate D2E/DX2                !
 ! A68   A(22,23,38)           120.4753         estimate D2E/DX2                !
 ! A69   A(24,23,38)           119.5776         estimate D2E/DX2                !
 ! A70   A(15,24,23)           122.0544         estimate D2E/DX2                !
 ! A71   A(15,24,39)           119.143          estimate D2E/DX2                !
 ! A72   A(23,24,39)           118.7906         estimate D2E/DX2                !
 ! A73   A(13,25,26)           103.277          estimate D2E/DX2                !
 ! A74   A(13,25,40)           112.5797         estimate D2E/DX2                !
 ! A75   A(13,25,41)           114.9416         estimate D2E/DX2                !
 ! A76   A(26,25,40)           107.3143         estimate D2E/DX2                !
 ! A77   A(26,25,41)           107.1112         estimate D2E/DX2                !
 ! A78   A(40,25,41)           110.8956         estimate D2E/DX2                !
 ! A79   A(11,26,25)           104.5461         estimate D2E/DX2                !
 ! A80   A(1,42,12)             79.4955         estimate D2E/DX2                !
 ! A81   A(1,42,43)            101.7516         estimate D2E/DX2                !
 ! A82   A(1,42,44)            105.2953         estimate D2E/DX2                !
 ! A83   A(12,42,43)           115.5022         estimate D2E/DX2                !
 ! A84   A(12,42,44)            96.9746         estimate D2E/DX2                !
 ! A85   A(43,42,44)           140.8725         estimate D2E/DX2                !
 ! D1    D(10,1,2,3)             1.9741         estimate D2E/DX2                !
 ! D2    D(10,1,2,27)         -179.1464         estimate D2E/DX2                !
 ! D3    D(42,1,2,3)          -174.6669         estimate D2E/DX2                !
 ! D4    D(42,1,2,27)            4.2126         estimate D2E/DX2                !
 ! D5    D(2,1,10,9)            -0.8229         estimate D2E/DX2                !
 ! D6    D(2,1,10,11)         -176.4786         estimate D2E/DX2                !
 ! D7    D(42,1,10,9)          176.2739         estimate D2E/DX2                !
 ! D8    D(42,1,10,11)           0.6182         estimate D2E/DX2                !
 ! D9    D(2,1,42,12)          171.4086         estimate D2E/DX2                !
 ! D10   D(2,1,42,43)          -74.4691         estimate D2E/DX2                !
 ! D11   D(2,1,42,44)           76.9737         estimate D2E/DX2                !
 ! D12   D(10,1,42,12)          -5.3892         estimate D2E/DX2                !
 ! D13   D(10,1,42,43)         108.7332         estimate D2E/DX2                !
 ! D14   D(10,1,42,44)         -99.8241         estimate D2E/DX2                !
 ! D15   D(1,2,3,4)            174.9588         estimate D2E/DX2                !
 ! D16   D(1,2,3,8)             -1.5131         estimate D2E/DX2                !
 ! D17   D(27,2,3,4)            -3.8641         estimate D2E/DX2                !
 ! D18   D(27,2,3,8)           179.664          estimate D2E/DX2                !
 ! D19   D(2,3,4,5)             29.6867         estimate D2E/DX2                !
 ! D20   D(2,3,4,6)            150.5787         estimate D2E/DX2                !
 ! D21   D(2,3,4,7)            -90.0977         estimate D2E/DX2                !
 ! D22   D(8,3,4,5)           -153.8819         estimate D2E/DX2                !
 ! D23   D(8,3,4,6)            -32.9899         estimate D2E/DX2                !
 ! D24   D(8,3,4,7)             86.3337         estimate D2E/DX2                !
 ! D25   D(2,3,8,9)             -0.1374         estimate D2E/DX2                !
 ! D26   D(2,3,8,28)           179.8764         estimate D2E/DX2                !
 ! D27   D(4,3,8,9)           -176.5894         estimate D2E/DX2                !
 ! D28   D(4,3,8,28)             3.4244         estimate D2E/DX2                !
 ! D29   D(3,8,9,10)             1.2124         estimate D2E/DX2                !
 ! D30   D(3,8,9,29)           179.0998         estimate D2E/DX2                !
 ! D31   D(28,8,9,10)         -178.8015         estimate D2E/DX2                !
 ! D32   D(28,8,9,29)           -0.9141         estimate D2E/DX2                !
 ! D33   D(8,9,10,1)            -0.7799         estimate D2E/DX2                !
 ! D34   D(8,9,10,11)          174.421          estimate D2E/DX2                !
 ! D35   D(29,9,10,1)         -178.7139         estimate D2E/DX2                !
 ! D36   D(29,9,10,11)          -3.513          estimate D2E/DX2                !
 ! D37   D(1,10,11,12)           8.6322         estimate D2E/DX2                !
 ! D38   D(1,10,11,26)        -176.0211         estimate D2E/DX2                !
 ! D39   D(9,10,11,12)        -167.0141         estimate D2E/DX2                !
 ! D40   D(9,10,11,26)           8.3326         estimate D2E/DX2                !
 ! D41   D(10,11,12,13)        165.2965         estimate D2E/DX2                !
 ! D42   D(10,11,12,42)        -13.0964         estimate D2E/DX2                !
 ! D43   D(26,11,12,13)        -10.2051         estimate D2E/DX2                !
 ! D44   D(26,11,12,42)        171.4019         estimate D2E/DX2                !
 ! D45   D(10,11,26,25)        178.5228         estimate D2E/DX2                !
 ! D46   D(12,11,26,25)         -6.0016         estimate D2E/DX2                !
 ! D47   D(11,12,13,14)       -100.8502         estimate D2E/DX2                !
 ! D48   D(11,12,13,25)         20.5228         estimate D2E/DX2                !
 ! D49   D(11,12,13,30)        139.6381         estimate D2E/DX2                !
 ! D50   D(42,12,13,14)         76.7963         estimate D2E/DX2                !
 ! D51   D(42,12,13,25)       -161.8306         estimate D2E/DX2                !
 ! D52   D(42,12,13,30)        -42.7154         estimate D2E/DX2                !
 ! D53   D(11,12,42,1)           9.7797         estimate D2E/DX2                !
 ! D54   D(11,12,42,43)        -88.3291         estimate D2E/DX2                !
 ! D55   D(11,12,42,44)        114.1156         estimate D2E/DX2                !
 ! D56   D(13,12,42,1)        -167.7941         estimate D2E/DX2                !
 ! D57   D(13,12,42,43)         94.0971         estimate D2E/DX2                !
 ! D58   D(13,12,42,44)        -63.4582         estimate D2E/DX2                !
 ! D59   D(12,13,14,15)         76.9232         estimate D2E/DX2                !
 ! D60   D(12,13,14,31)       -163.4217         estimate D2E/DX2                !
 ! D61   D(12,13,14,32)        -48.2403         estimate D2E/DX2                !
 ! D62   D(25,13,14,15)        -35.885          estimate D2E/DX2                !
 ! D63   D(25,13,14,31)         83.7701         estimate D2E/DX2                !
 ! D64   D(25,13,14,32)       -161.0484         estimate D2E/DX2                !
 ! D65   D(30,13,14,15)       -163.0308         estimate D2E/DX2                !
 ! D66   D(30,13,14,31)        -43.3757         estimate D2E/DX2                !
 ! D67   D(30,13,14,32)         71.8057         estimate D2E/DX2                !
 ! D68   D(12,13,25,26)        -23.2335         estimate D2E/DX2                !
 ! D69   D(12,13,25,40)         92.1894         estimate D2E/DX2                !
 ! D70   D(12,13,25,41)       -139.5381         estimate D2E/DX2                !
 ! D71   D(14,13,25,26)         93.8919         estimate D2E/DX2                !
 ! D72   D(14,13,25,40)       -150.6851         estimate D2E/DX2                !
 ! D73   D(14,13,25,41)        -22.4127         estimate D2E/DX2                !
 ! D74   D(30,13,25,26)       -140.6331         estimate D2E/DX2                !
 ! D75   D(30,13,25,40)        -25.2101         estimate D2E/DX2                !
 ! D76   D(30,13,25,41)        103.0623         estimate D2E/DX2                !
 ! D77   D(13,14,15,16)        -82.429          estimate D2E/DX2                !
 ! D78   D(13,14,15,24)         91.9732         estimate D2E/DX2                !
 ! D79   D(31,14,15,16)        158.8358         estimate D2E/DX2                !
 ! D80   D(31,14,15,24)        -26.762          estimate D2E/DX2                !
 ! D81   D(32,14,15,16)         38.8489         estimate D2E/DX2                !
 ! D82   D(32,14,15,24)       -146.749          estimate D2E/DX2                !
 ! D83   D(14,15,16,17)        -11.4934         estimate D2E/DX2                !
 ! D84   D(14,15,16,21)        167.7598         estimate D2E/DX2                !
 ! D85   D(24,15,16,17)        174.1105         estimate D2E/DX2                !
 ! D86   D(24,15,16,21)         -6.6363         estimate D2E/DX2                !
 ! D87   D(14,15,24,23)       -171.3339         estimate D2E/DX2                !
 ! D88   D(14,15,24,39)          7.3907         estimate D2E/DX2                !
 ! D89   D(16,15,24,23)          3.301          estimate D2E/DX2                !
 ! D90   D(16,15,24,39)       -177.9744         estimate D2E/DX2                !
 ! D91   D(15,16,17,18)        174.7368         estimate D2E/DX2                !
 ! D92   D(15,16,17,33)         -3.6665         estimate D2E/DX2                !
 ! D93   D(21,16,17,18)         -4.5217         estimate D2E/DX2                !
 ! D94   D(21,16,17,33)        177.075          estimate D2E/DX2                !
 ! D95   D(15,16,21,20)       -174.4969         estimate D2E/DX2                !
 ! D96   D(15,16,21,22)          5.3279         estimate D2E/DX2                !
 ! D97   D(17,16,21,20)          4.7891         estimate D2E/DX2                !
 ! D98   D(17,16,21,22)       -175.3861         estimate D2E/DX2                !
 ! D99   D(16,17,18,19)          1.043          estimate D2E/DX2                !
 ! D100  D(16,17,18,34)       -178.8602         estimate D2E/DX2                !
 ! D101  D(33,17,18,19)        179.4897         estimate D2E/DX2                !
 ! D102  D(33,17,18,34)         -0.4135         estimate D2E/DX2                !
 ! D103  D(17,18,19,20)          2.2244         estimate D2E/DX2                !
 ! D104  D(17,18,19,35)       -178.9432         estimate D2E/DX2                !
 ! D105  D(34,18,19,20)       -177.8742         estimate D2E/DX2                !
 ! D106  D(34,18,19,35)          0.9581         estimate D2E/DX2                !
 ! D107  D(18,19,20,21)         -1.8597         estimate D2E/DX2                !
 ! D108  D(18,19,20,36)        177.5636         estimate D2E/DX2                !
 ! D109  D(35,19,20,21)        179.3126         estimate D2E/DX2                !
 ! D110  D(35,19,20,36)         -1.2641         estimate D2E/DX2                !
 ! D111  D(19,20,21,16)         -1.674          estimate D2E/DX2                !
 ! D112  D(19,20,21,22)        178.504          estimate D2E/DX2                !
 ! D113  D(36,20,21,16)        178.8904         estimate D2E/DX2                !
 ! D114  D(36,20,21,22)         -0.9316         estimate D2E/DX2                !
 ! D115  D(16,21,22,23)         -0.5158         estimate D2E/DX2                !
 ! D116  D(16,21,22,37)        178.6714         estimate D2E/DX2                !
 ! D117  D(20,21,22,23)        179.305          estimate D2E/DX2                !
 ! D118  D(20,21,22,37)         -1.5077         estimate D2E/DX2                !
 ! D119  D(21,22,23,24)         -2.9494         estimate D2E/DX2                !
 ! D120  D(21,22,23,38)        177.9699         estimate D2E/DX2                !
 ! D121  D(37,22,23,24)        177.8795         estimate D2E/DX2                !
 ! D122  D(37,22,23,38)         -1.2013         estimate D2E/DX2                !
 ! D123  D(22,23,24,15)          1.552          estimate D2E/DX2                !
 ! D124  D(22,23,24,39)       -177.1769         estimate D2E/DX2                !
 ! D125  D(38,23,24,15)       -179.359          estimate D2E/DX2                !
 ! D126  D(38,23,24,39)          1.9121         estimate D2E/DX2                !
 ! D127  D(13,25,26,11)         18.3186         estimate D2E/DX2                !
 ! D128  D(40,25,26,11)       -100.8118         estimate D2E/DX2                !
 ! D129  D(41,25,26,11)        140.0532         estimate D2E/DX2                !
 --------------------------------------------------------------------------------
 Trust Radius=3.00D-01 FncErr=1.00D-07 GrdErr=1.00D-06 EigMax=2.50D+02 EigMin=1.00D-04
 Number of steps in this run=    264 maximum allowed number of steps=    264.
 GradGradGradGradGradGradGradGradGradGradGradGradGradGradGradGradGradGrad

                          Input orientation:                          
 ---------------------------------------------------------------------
 Center     Atomic      Atomic             Coordinates (Angstroms)
 Number     Number       Type             X           Y           Z
 ---------------------------------------------------------------------
      1          7           0       -1.250582   -1.007547    0.275160
      2          6           0       -2.492003   -0.608010    0.016479
      3          6           0       -3.014963    0.567315    0.572721
      4          6           0       -4.384249    1.047316    0.167710
      5          9           0       -5.186337    0.022274   -0.171351
      6          9           0       -4.976429    1.732498    1.165409
      7          9           0       -4.303881    1.872739   -0.896703
      8          6           0       -2.230151    1.320130    1.441068
      9          6           0       -0.937219    0.880891    1.738852
     10          6           0       -0.493403   -0.281453    1.125242
     11          6           0        0.878184   -0.793584    1.252172
     12          7           0        1.304605   -1.722235    0.478345
     13          6           0        2.763688   -1.756913    0.607361
     14          6           0        3.396883   -1.018525   -0.618052
     15          6           0        3.316951    0.493608   -0.510897
     16          6           0        2.143555    1.234980   -0.873033
     17          6           0        1.058117    0.654047   -1.576417
     18          6           0       -0.096285    1.363684   -1.813963
     19          6           0       -0.220235    2.704319   -1.378877
     20          6           0        0.841570    3.320179   -0.751617
     21          6           0        2.049696    2.617338   -0.498385
     22          6           0        3.156261    3.254496    0.118154
     23          6           0        4.312604    2.551919    0.367588
     24          6           0        4.379106    1.172564    0.065665
     25          6           0        2.967157   -1.049604    1.965175
     26          8           0        1.748647   -0.246012    2.112396
     27          1           0       -3.071618   -1.225924   -0.659761
     28          1           0       -2.620400    2.232388    1.877361
     29          1           0       -0.277624    1.433214    2.395860
     30          1           0        3.112797   -2.791609    0.621248
     31          1           0        4.451724   -1.311301   -0.659272
     32          1           0        2.901617   -1.417775   -1.508145
     33          1           0        1.104847   -0.371156   -1.920018
     34          1           0       -0.911002    0.875484   -2.340032
     35          1           0       -1.143204    3.249108   -1.557096
     36          1           0        0.775622    4.361706   -0.446942
     37          1           0        3.078085    4.307256    0.376337
     38          1           0        5.172648    3.045910    0.809563
     39          1           0        5.284970    0.625803    0.312978
     40          1           0        2.997716   -1.751140    2.803724
     41          1           0        3.809550   -0.363202    2.002912
     42         28           0       -0.233328   -2.631514   -0.565312
     43          9           0       -1.015260   -4.022302    0.263823
     44          9           0        0.273968   -2.070541   -2.245107
 ---------------------------------------------------------------------
                    Distance matrix (angstroms):
                    1          2          3          4          5
     1  N    0.000000
     2  C    1.329538   0.000000
     3  C    2.383647   1.401528   0.000000
     4  C    3.748850   2.518644   1.506446   0.000000
     5  F    4.092685   2.773441   2.359148   1.344998   0.000000
     6  F    4.709812   3.601443   2.357176   1.347425   2.180792
     7  F    4.357975   3.204827   2.350457   1.349354   2.174646
     8  C    2.781542   2.411585   1.391649   2.517142   3.608789
     9  C    2.409728   2.756945   2.403167   3.791860   4.737204
    10  C    1.350249   2.308765   2.717343   4.221514   4.878220
    11  C    2.352016   3.594376   4.179748   5.679628   6.282552
    12  N    2.661023   3.983598   4.889746   6.334822   6.752610
    13  C    4.097105   5.412154   6.228647   7.690903   8.183813
    14  C    4.732534   5.937182   6.711527   8.088951   8.657625
    15  C    4.871726   5.935961   6.424391   7.750844   8.523107
    16  C    4.226990   5.067173   5.398730   6.612911   7.462595
    17  C    3.394013   4.090655   4.606115   5.728524   6.431684
    18  C    3.364457   3.602438   3.853459   4.734316   5.514180
    19  C    4.192303   4.251996   4.023186   4.740950   5.771798
    20  C    4.915342   5.208968   4.919855   5.772370   6.895546
    21  C    4.962862   5.594192   5.567821   6.656148   7.694250
    22  C    6.132693   6.843404   6.746227   7.857060   8.951537
    23  C    6.605103   7.510733   7.594338   8.828309   9.844767
    24  C    6.040708   7.098239   7.436107   8.764844   9.637274
    25  C    4.543924   5.813334   6.351308   7.853096   8.496654
    26  O    3.598715   4.744157   5.071891   6.562539   7.306263
    27  H    2.058625   1.084007   2.176678   2.752331   2.503713
    28  H    3.865311   3.398121   2.151798   2.727355   3.958012
    29  H    3.376586   3.838167   3.400977   4.688063   5.716361
    30  H    4.726704   6.045464   6.988145   8.434971   8.798964
    31  H    5.786339   7.011890   7.797334   9.182668   9.742110
    32  H    4.537535   5.663156   6.578488   7.872040   8.323206
    33  H    3.282049   4.091876   4.905844   6.041593   6.541530
    34  H    3.240424   3.202103   3.606349   4.287393   4.869254
    35  H    4.635494   4.378671   3.902770   4.281030   5.355340
    36  H    5.784100   5.965753   5.459455   6.163380   7.379131
    37  H    6.855270   7.437420   7.151990   8.145991   9.325326
    38  H    7.614065   8.528012   8.557833   9.784714  10.835734
    39  H    6.736668   7.879817   8.304202   9.679492  10.499862
    40  H    4.999460   6.261988   6.819451   8.323060   8.886776
    41  H    5.385652   6.611764   7.034578   8.514451   9.262937
    42  Ni   2.092479   3.087825   4.389205   5.594753   5.632947
    43  F    3.023947   3.728182   5.015856   6.087721   5.826307
    44  F    3.131446   3.860617   5.071046   6.102598   6.204456
                    6          7          8          9         10
     6  F    0.000000
     7  F    2.173544   0.000000
     8  C    2.790713   3.173469   0.000000
     9  C    4.167648   4.389114   1.397598   0.000000
    10  C    4.914787   4.821675   2.383507   1.387276   0.000000
    11  C    6.376920   6.211340   3.763670   2.517223   1.469571
    12  N    7.201293   6.802184   4.762071   3.659360   2.393149
    13  C    8.508632   8.086230   5.924668   4.683481   3.613008
    14  C    8.992286   8.230360   6.432169   5.286513   4.326277
    15  C    8.551316   7.754220   5.938320   4.827973   4.218586
    16  C    7.422731   6.478945   4.948901   4.054441   3.639536
    17  C    6.715386   5.540600   4.512382   3.876059   3.252897
    18  C    5.729615   4.336400   3.892365   3.682764   3.391623
    19  C    5.480804   4.195257   3.729320   3.682281   3.906414
    20  C    6.328099   5.347130   4.271245   3.913649   4.275103
    21  C    7.274447   6.409448   4.874558   4.116083   4.184078
    22  C    8.339896   7.654600   5.874122   5.001724   5.180464
    23  C    9.359172   8.735189   6.743686   5.677441   5.630252
    24  C    9.436578   8.764169   6.752465   5.581034   5.194056
    25  C    8.454601   8.342567   5.736056   4.361443   3.642941
    26  O    7.073750   7.083564   4.328316   2.936549   2.450004
    27  H    3.963813   3.343101   3.406456   3.840270   3.274974
    28  H    2.511501   3.264795   1.083910   2.163060   3.377750
    29  H    4.866451   5.219665   2.176414   1.082491   2.145021
    30  H    9.284354   8.891987   6.791583   5.580226   4.422620
    31  H   10.073939   9.319609   7.482200   6.292647   5.357178
    32  H    8.895826   7.944844   6.521428   5.528428   4.444335
    33  H    7.136325   5.944458   5.027878   4.373212   3.440357
    34  H    5.436018   3.819600   4.029216   4.078972   3.677093
    35  H    4.940218   3.510041   3.727116   4.063761   4.481299
    36  H    6.526753   5.674380   4.674445   4.452819   5.063705
    37  H    8.492774   7.876606   6.183360   5.451522   5.862818
    38  H   10.239895   9.700117   7.627486   6.548386   6.578384
    39  H   10.356048   9.744960   7.630971   6.388570   5.905293
    40  H    8.854761   8.952038   6.214509   4.852345   4.143090
    41  H    9.071207   8.901402   6.295019   4.914195   4.392311
    42  Ni   6.673605   6.080092   4.860900   4.259298   2.906613
    43  F    7.044249   6.849333   5.603878   5.120850   3.874058
    44  F    7.325394   6.190667   5.599567   5.103906   3.892165
                   11         12         13         14         15
    11  C    0.000000
    12  N    1.281810   0.000000
    13  C    2.213348   1.465186   0.000000
    14  C    3.145184   2.464736   1.564541   0.000000
    15  C    3.273051   3.152475   2.573217   1.518031   0.000000
    16  C    3.198864   3.357854   3.395225   2.591164   1.434445
    17  C    3.182598   3.151114   3.672953   3.030806   2.502679
    18  C    3.873574   4.091462   4.876513   4.394012   3.755688
    19  C    4.512679   5.036744   5.722895   5.246138   4.260554
    20  C    4.575976   5.210868   5.596269   5.037044   3.764965
    21  C    4.008900   4.510106   4.567990   3.879270   2.473120
    22  C    4.781483   5.322238   5.050511   4.342650   2.836200
    23  C    4.875461   5.227688   4.585048   3.815508   2.449430
    24  C    4.186883   4.242962   3.388930   2.496618   1.386210
    25  C    2.222100   2.329630   1.544456   2.618910   2.938502
    26  O    1.340719   2.246448   2.361834   3.281586   3.144564
    27  H    4.409460   4.548949   5.994860   6.471959   6.617610
    28  H    4.667704   5.744733   6.820251   7.280331   6.631687
    29  H    2.757271   4.017110   4.756597   5.347587   4.717315
    30  H    3.063277   2.105597   1.092092   2.181833   3.480816
    31  H    4.085564   3.371557   2.156941   1.095494   2.137153
    32  H    3.478972   2.566960   2.146952   1.094054   2.195539
    33  H    3.208210   2.759975   3.325616   2.714338   2.761674
    34  H    4.346367   4.427223   5.396294   5.011024   4.622462
    35  H    5.321781   5.903308   6.708869   6.301340   5.346054
    36  H    5.429044   6.176594   6.519314   5.987251   4.628674
    37  H    5.623631   6.285730   6.076707   5.427189   3.922774
    38  H    5.777546   6.148713   5.376903   4.659513   3.420741
    39  H    4.724035   4.624277   3.481503   2.671236   2.137602
    40  H    2.795826   2.876604   2.208803   3.522018   4.015908
    41  H    3.056427   3.232031   2.232447   2.732983   2.701113
    42  Ni   2.813662   2.069117   3.334995   3.972776   4.730098
    43  F    3.871251   3.273851   4.419327   5.409934   6.305687
    44  F    3.771824   2.932698   3.799163   3.675139   4.340748
                   16         17         18         19         20
    16  C    0.000000
    17  C    1.417889   0.000000
    18  C    2.432858   1.375739   0.000000
    19  C    2.828840   2.424216   1.414908   0.000000
    20  C    2.461293   2.799187   2.415786   1.378466   0.000000
    21  C    1.435299   2.449468   2.812051   2.436271   1.420451
    22  C    2.467077   3.746480   4.229338   3.734236   2.473582
    23  C    2.824578   4.239429   5.060570   4.860041   3.727052
    24  C    2.425436   3.740890   4.857844   5.058351   4.218336
    25  C    3.735381   4.369180   5.430517   5.952654   5.567233
    26  O    3.355902   3.859311   4.627223   4.976940   4.662947
    27  H    5.770577   4.629175   4.109849   4.908597   5.999044
    28  H    5.590595   5.286892   4.555401   4.072665   4.481077
    29  H    4.072722   4.262662   4.214300   3.983421   3.836645
    30  H    4.402922   4.574274   5.787480   6.731629   6.663121
    31  H    3.443383   4.027445   5.401226   6.202438   5.873019
    32  H    2.831101   2.774094   4.100909   5.172459   5.221526
    33  H    2.180542   1.082260   2.112732   3.392230   3.880777
    34  H    3.407586   2.123575   1.085749   2.178443   3.401633
    35  H    3.915027   3.403018   2.171830   1.086475   2.143169
    36  H    3.439362   3.886162   3.408387   2.146431   1.087177
    37  H    3.445744   4.608628   4.851665   4.065599   2.692323
    38  H    3.909732   5.323840   6.121636   5.830021   4.612022
    39  H    3.412654   4.630000   5.833203   6.122898   5.304416
    40  H    4.813008   5.360280   6.371656   6.906553   6.558025
    41  H    3.687924   4.627826   5.727671   6.089774   5.473905
    42  Ni   4.549070   3.672203   4.188021   5.397515   6.050848
    43  F    6.237753   5.436324   5.845559   6.969789   7.641398
    44  F    4.037872   2.912974   3.480930   4.877897   5.622504
                   21         22         23         24         25
    21  C    0.000000
    22  C    1.417948   0.000000
    23  C    2.423828   1.375849   0.000000
    24  C    2.798513   2.415066   1.413577   0.000000
    25  C    4.511909   4.687486   4.163350   3.246501   0.000000
    26  O    3.886590   4.267544   4.176919   3.622262   1.467038
    27  H    6.405042   7.711407   8.357887   7.860806   6.586971
    28  H    5.253775   6.124486   7.102680   7.307431   6.480739
    29  H    3.898105   4.505172   5.141554   5.213721   4.108343
    30  H    5.624986   6.067156   5.482442   4.198438   2.204979
    31  H    4.607584   4.809274   3.999783   2.588512   3.026573
    32  H    4.245883   4.953767   4.611695   3.371900   3.493393
    33  H    3.441639   4.637650   4.905835   4.128775   4.361561
    34  H    3.897621   5.314603   6.117818   5.819010   6.105808
    35  H    3.422662   4.614314   5.827205   6.118929   6.912336
    36  H    2.160725   2.685645   4.055740   4.839265   6.316915
    37  H    2.162995   1.086772   2.146001   3.408147   5.588619
    38  H    3.412804   2.141815   1.085838   2.166222   4.793002
    39  H    3.884780   3.388124   2.158333   1.086601   3.302878
    40  H    5.557541   5.682765   5.116640   4.237128   1.093733
    41  H    4.270502   4.131203   3.380130   2.536907   1.087289
    42  Ni   5.724258   6.826533   6.957282   6.011962   4.375947
    43  F    7.352533   8.388957   8.462700   7.491668   5.252730
    44  F    5.308527   6.499895   6.671124   5.719227   5.101182
                   26         27         28         29         30
    26  O    0.000000
    27  H    5.646241   0.000000
    28  H    5.028546   4.312831   0.000000
    29  H    2.646871   4.920796   2.529055   0.000000
    30  H    3.250306   6.506869   7.725795   5.700292   0.000000
    31  H    4.015421   7.523826   8.307056   6.263619   2.371449
    32  H    3.976265   6.036232   7.434918   5.785928   2.542898
    33  H    4.085401   4.445417   5.922499   4.877887   4.043326
    34  H    5.306185   3.450723   4.748645   4.810499   6.197395
    35  H    5.834710   4.954786   3.874445   4.435376   7.703830
    36  H    5.359856   6.787353   4.633502   4.215082   7.600877
    37  H    5.051095   8.337171   6.247470   4.857919   7.103173
    38  H    4.925232   9.400819   7.907819   5.901067   6.193148
    39  H    4.062456   8.614388   8.217255   5.994394   4.061043
    40  H    2.074492   7.007738   6.949091   4.586318   2.420541
    41  H    2.067134   7.428633   6.935208   4.481798   2.879517
    42  Ni   4.097434   3.168674   5.943257   5.029166   3.553886
    43  F    5.031577   3.591844   6.655909   5.903587   4.322408
    44  F    4.948880   3.797321   6.624750   5.841158   4.098156
                   31         32         33         34         35
    31  H    0.000000
    32  H    1.770524   0.000000
    33  H    3.697964   2.119772   0.000000
    34  H    6.030407   4.526272   2.407108   0.000000
    35  H    7.273695   6.175983   4.276886   2.510179   0.000000
    36  H    6.763270   6.248872   4.967728   4.310712   2.480365
    37  H    5.876015   6.029792   5.572652   5.921869   4.762050
    38  H    4.654299   5.518499   5.972768   7.186202   6.747766
    39  H    2.322055   3.629473   4.842894   6.744692   7.190294
    40  H    3.781526   4.325804   5.272670   6.973913   7.820898
    41  H    2.898017   3.776769   4.764962   6.532926   7.088880
    42  Ni   4.868419   3.491415   2.955530   3.988472   6.032680
    43  F    6.171673   5.026466   4.753407   5.547904   7.497034
    44  F    4.532655   2.806021   1.919362   3.176827   5.548009
                   36         37         38         39         40
    36  H    0.000000
    37  H    2.445831   0.000000
    38  H    4.758567   2.483118   0.000000
    39  H    5.904970   4.292721   2.473081   0.000000
    40  H    7.271273   6.527084   5.631935   4.133425   0.000000
    41  H    6.126276   4.999396   3.860591   2.451708   1.796315
    42  Ni   7.066620   7.745882   7.959146   6.467853   4.750274
    43  F    8.602560   9.281685   9.409977   7.829444   5.264338
    44  F    6.697675   7.443879   7.714023   6.238927   5.745565
                   41         42         43         44
    41  H    0.000000
    42  Ni   5.299611   0.000000
    43  F    6.300177   1.798103   0.000000
    44  F    5.784549   1.842214   3.430191   0.000000
 Stoichiometry    C20H15F5N2NiO(3)
 Framework group  C1[X(C20H15F5N2NiO)]
 Deg. of freedom   126
 Full point group                 C1      NOp   1
 Largest Abelian subgroup         C1      NOp   1
 Largest concise Abelian subgroup C1      NOp   1
                         Standard orientation:                         
 ---------------------------------------------------------------------
 Center     Atomic      Atomic             Coordinates (Angstroms)
 Number     Number       Type             X           Y           Z
 ---------------------------------------------------------------------
      1          7           0        1.250582    1.007547    0.275160
      2          6           0        2.492003    0.608010    0.016479
      3          6           0        3.014963   -0.567315    0.572721
      4          6           0        4.384249   -1.047316    0.167710
      5          9           0        5.186337   -0.022274   -0.171351
      6          9           0        4.976429   -1.732498    1.165409
      7          9           0        4.303881   -1.872739   -0.896703
      8          6           0        2.230151   -1.320130    1.441068
      9          6           0        0.937219   -0.880891    1.738852
     10          6           0        0.493403    0.281453    1.125242
     11          6           0       -0.878184    0.793584    1.252172
     12          7           0       -1.304605    1.722235    0.478345
     13          6           0       -2.763688    1.756913    0.607361
     14          6           0       -3.396883    1.018525   -0.618052
     15          6           0       -3.316951   -0.493608   -0.510897
     16          6           0       -2.143555   -1.234980   -0.873033
     17          6           0       -1.058117   -0.654047   -1.576417
     18          6           0        0.096285   -1.363684   -1.813963
     19          6           0        0.220235   -2.704319   -1.378877
     20          6           0       -0.841570   -3.320179   -0.751617
     21          6           0       -2.049696   -2.617338   -0.498385
     22          6           0       -3.156261   -3.254496    0.118154
     23          6           0       -4.312604   -2.551919    0.367588
     24          6           0       -4.379106   -1.172564    0.065665
     25          6           0       -2.967157    1.049604    1.965175
     26          8           0       -1.748647    0.246012    2.112396
     27          1           0        3.071618    1.225924   -0.659761
     28          1           0        2.620400   -2.232388    1.877361
     29          1           0        0.277624   -1.433214    2.395860
     30          1           0       -3.112797    2.791609    0.621248
     31          1           0       -4.451724    1.311301   -0.659272
     32          1           0       -2.901617    1.417775   -1.508145
     33          1           0       -1.104847    0.371156   -1.920018
     34          1           0        0.911002   -0.875484   -2.340032
     35          1           0        1.143204   -3.249108   -1.557096
     36          1           0       -0.775622   -4.361706   -0.446942
     37          1           0       -3.078085   -4.307256    0.376337
     38          1           0       -5.172648   -3.045910    0.809563
     39          1           0       -5.284970   -0.625803    0.312978
     40          1           0       -2.997716    1.751140    2.803724
     41          1           0       -3.809550    0.363202    2.002912
     42         28           0        0.233328    2.631514   -0.565312
     43          9           0        1.015260    4.022302    0.263823
     44          9           0       -0.273968    2.070541   -2.245107
 ---------------------------------------------------------------------
 Rotational constants (GHZ):           0.2208015           0.1329010           0.1008901
 General basis read from cards:  (6D, 7F)
 ======================================================================================================
                                       Pseudopotential Parameters
 ======================================================================================================
  Center     Atomic      Valence      Angular      Power
  Number     Number     Electrons     Momentum     of R      Exponent        Coefficient   SO-Coeffient
 ======================================================================================================
    1          7
                                   No pseudopotential on this center.
    2          6
                                   No pseudopotential on this center.
    3          6
                                   No pseudopotential on this center.
    4          6
                                   No pseudopotential on this center.
    5          9
                                   No pseudopotential on this center.
    6          9
                                   No pseudopotential on this center.
    7          9
                                   No pseudopotential on this center.
    8          6
                                   No pseudopotential on this center.
    9          6
                                   No pseudopotential on this center.
   10          6
                                   No pseudopotential on this center.
   11          6
                                   No pseudopotential on this center.
   12          7
                                   No pseudopotential on this center.
   13          6
                                   No pseudopotential on this center.
   14          6
                                   No pseudopotential on this center.
   15          6
                                   No pseudopotential on this center.
   16          6
                                   No pseudopotential on this center.
   17          6
                                   No pseudopotential on this center.
   18          6
                                   No pseudopotential on this center.
   19          6
                                   No pseudopotential on this center.
   20          6
                                   No pseudopotential on this center.
   21          6
                                   No pseudopotential on this center.
   22          6
                                   No pseudopotential on this center.
   23          6
                                   No pseudopotential on this center.
   24          6
                                   No pseudopotential on this center.
   25          6
                                   No pseudopotential on this center.
   26          8
                                   No pseudopotential on this center.
   27          1
                                   No pseudopotential on this center.
   28          1
                                   No pseudopotential on this center.
   29          1
                                   No pseudopotential on this center.
   30          1
                                   No pseudopotential on this center.
   31          1
                                   No pseudopotential on this center.
   32          1
                                   No pseudopotential on this center.
   33          1
                                   No pseudopotential on this center.
   34          1
                                   No pseudopotential on this center.
   35          1
                                   No pseudopotential on this center.
   36          1
                                   No pseudopotential on this center.
   37          1
                                   No pseudopotential on this center.
   38          1
                                   No pseudopotential on this center.
   39          1
                                   No pseudopotential on this center.
   40          1
                                   No pseudopotential on this center.
   41          1
                                   No pseudopotential on this center.
   42         28           18
                                      D and up 
                                                     1      469.9324331      -10.00000000    0.00000000
                                                     2       85.4236411      -69.40848050    0.00000000
                                                     2       21.2674984      -12.09510200    0.00000000
                                      S - D
                                                     0      162.1686097        3.00000000    0.00000000
                                                     1      176.5333232       22.02536180    0.00000000
                                                     2       68.9562010      443.01810880    0.00000000
                                                     2       13.5792838      145.56964110    0.00000000
                                      P - D
                                                     0       69.0181506        5.00000000    0.00000000
                                                     1      275.5955596        4.98828240    0.00000000
                                                     2       47.1315453      256.69458530    0.00000000
                                                     2       12.9874075       78.47544500    0.00000000
   43          9
                                   No pseudopotential on this center.
   44          9
                                   No pseudopotential on this center.
 ======================================================================================================
 There are   527 symmetry adapted cartesian basis functions of A   symmetry.
 There are   524 symmetry adapted basis functions of A   symmetry.
   524 basis functions,   998 primitive gaussians,   527 cartesian basis functions
   111 alpha electrons      109 beta electrons
       nuclear repulsion energy      3252.5981256315 Hartrees.
 NAtoms=   44 NActive=   44 NUniq=   44 SFac= 1.00D+00 NAtFMM=   60 NAOKFM=F Big=F
 Integral buffers will be    131072 words long.
 Raffenetti 2 integral format.
 Two-electron integral symmetry is turned on.
 Nuclear repulsion after empirical dispersion term =     3252.4767441360 Hartrees.
 One-electron integrals computed using PRISM.
 PrsmSu:  requested number of processors reduced to:  12 ShMem   1 Linda.
   1 Symmetry operations used in ECPInt.
 ECPInt:  NShTT=   13366 NPrTT=   84858 LenC2=   11521 LenP2D=   40428.
 LDataN:  DoStor=T MaxTD1= 6 Len=  172
 Number of processors reduced to  14 by ecpmxn.
 NBasis=   524 RedAO= T EigKep=  1.04D-06  NBF=   524
 NBsUse=   524 1.00D-06 EigRej= -1.00D+00 NBFU=   524
 ExpMin= 2.40D-02 ExpMax= 7.14D+04 ExpMxC= 1.07D+04 IAcc=3 IRadAn=         5 AccDes= 0.00D+00
 Harris functional with IExCor=  402 and IRadAn=       5 diagonalized for initial guess.
 HarFok:  IExCor=  402 AccDes= 0.00D+00 IRadAn=         5 IDoV= 1 UseB2=F ITyADJ=14
 ICtDFT=  3500011 ScaDFX=  1.000000  1.000000  1.000000  1.000000
 FoFCou: FMM=F IPFlag=           0 FMFlag=      100000 FMFlg1=           0
         NFxFlg=           0 DoJE=T BraDBF=F KetDBF=T FulRan=T
         wScrn=  0.000000 ICntrl=       500 IOpCl=  0 I1Cent=   200000004 NGrid=           0
         NMat0=    1 NMatS0=      1 NMatT0=    0 NMatD0=    1 NMtDS0=    0 NMtDT0=    0
 Petite list used in FoFCou.
 Initial guess <Sx>= 0.0000 <Sy>= 0.0000 <Sz>= 1.0000 <S**2>= 2.0000 S= 1.0000
 Requested convergence on RMS density matrix=1.00D-08 within  32 cycles.
 Requested convergence on MAX density matrix=1.00D-06.
 Requested convergence on             energy=1.00D-06.
 No special actions if energy rises.
 EnCoef did     9 forward-backward iterations
 EnCoef did   100 forward-backward iterations
 EnCoef did   100 forward-backward iterations
 Restarting incremental Fock formation.
 >>>>>>>>>> Convergence criterion not met.
 SCF Done:  E(UB3LYP) =  -1624.67767246     A.U. after   33 cycles
            NFock= 32  Conv=0.16D-06     -V/T= 2.0481
 <Sx>= 0.0000 <Sy>= 0.0000 <Sz>= 1.0000 <S**2>= 2.0070 S= 1.0023
 <L.S>=  0.00000000000    
 Annihilation of the first spin contaminant:
 S**2 before annihilation     2.0070,   after     2.0000
 SCF Done:  E(UB3LYP) =  -1624.67767246     a.u. after    1 cycles
            Convg  =    0.2419D-05                     1 Fock formations.
              S**2 =  2.0070                  -V/T =  2.0481
 <Sx>= 0.0000 <Sy>= 0.0000 <Sz>= 1.0000 <S**2>= 2.0070 S= 1.0023
 <L.S>=  0.00000000000    
 Annihilation of the first spin contaminant:
 S**2 before annihilation     2.0070,   after     2.0000

 **********************************************************************

            Population analysis using the SCF Density.

 **********************************************************************

 Orbital symmetries:
 Alpha Orbitals:
       Occupied  (A) (A) (A) (A) (A) (A) (A) (A) (A) (A) (A) (A)
                 (A) (A) (A) (A) (A) (A) (A) (A) (A) (A) (A) (A)
                 (A) (A) (A) (A) (A) (A) (A) (A) (A) (A) (A) (A)
                 (A) (A) (A) (A) (A) (A) (A) (A) (A) (A) (A) (A)
                 (A) (A) (A) (A) (A) (A) (A) (A) (A) (A) (A) (A)
                 (A) (A) (A) (A) (A) (A) (A) (A) (A) (A) (A) (A)
                 (A) (A) (A) (A) (A) (A) (A) (A) (A) (A) (A) (A)
                 (A) (A) (A) (A) (A) (A) (A) (A) (A) (A) (A) (A)
                 (A) (A) (A) (A) (A) (A) (A) (A) (A) (A) (A) (A)
                 (A) (A) (A)
       Virtual   (A) (A) (A) (A) (A) (A) (A) (A) (A) (A) (A) (A)
                 (A) (A) (A) (A) (A) (A) (A) (A) (A) (A) (A) (A)
                 (A) (A) (A) (A) (A) (A) (A) (A) (A) (A) (A) (A)
                 (A) (A) (A) (A) (A) (A) (A) (A) (A) (A) (A) (A)
                 (A) (A) (A) (A) (A) (A) (A) (A) (A) (A) (A) (A)
                 (A) (A) (A) (A) (A) (A) (A) (A) (A) (A) (A) (A)
                 (A) (A) (A) (A) (A) (A) (A) (A) (A) (A) (A) (A)
                 (A) (A) (A) (A) (A) (A) (A) (A) (A) (A) (A) (A)
                 (A) (A) (A) (A) (A) (A) (A) (A) (A) (A) (A) (A)
                 (A) (A) (A) (A) (A) (A) (A) (A) (A) (A) (A) (A)
                 (A) (A) (A) (A) (A) (A) (A) (A) (A) (A) (A) (A)
                 (A) (A) (A) (A) (A) (A) (A) (A) (A) (A) (A) (A)
                 (A) (A) (A) (A) (A) (A) (A) (A) (A) (A) (A) (A)
                 (A) (A) (A) (A) (A) (A) (A) (A) (A) (A) (A) (A)
                 (A) (A) (A) (A) (A) (A) (A) (A) (A) (A) (A) (A)
                 (A) (A) (A) (A) (A) (A) (A) (A) (A) (A) (A) (A)
                 (A) (A) (A) (A) (A) (A) (A) (A) (A) (A) (A) (A)
                 (A) (A) (A) (A) (A) (A) (A) (A) (A) (A) (A) (A)
                 (A) (A) (A) (A) (A) (A) (A) (A) (A) (A) (A) (A)
                 (A) (A) (A) (A) (A) (A) (A) (A) (A) (A) (A) (A)
                 (A) (A) (A) (A) (A) (A) (A) (A) (A) (A) (A) (A)
                 (A) (A) (A) (A) (A) (A) (A) (A) (A) (A) (A) (A)
                 (A) (A) (A) (A) (A) (A) (A) (A) (A) (A) (A) (A)
                 (A) (A) (A) (A) (A) (A) (A) (A) (A) (A) (A) (A)
                 (A) (A) (A) (A) (A) (A) (A) (A) (A) (A) (A) (A)
                 (A) (A) (A) (A) (A) (A) (A) (A) (A) (A) (A) (A)
                 (A) (A) (A) (A) (A) (A) (A) (A) (A) (A) (A) (A)
                 (A) (A) (A) (A) (A) (A) (A) (A) (A) (A) (A) (A)
                 (A) (A) (A) (A) (A) (A) (A) (A) (A) (A) (A) (A)
                 (A) (A) (A) (A) (A) (A) (A) (A) (A) (A) (A) (A)
                 (A) (A) (A) (A) (A) (A) (A) (A) (A) (A) (A) (A)
                 (A) (A) (A) (A) (A) (A) (A) (A) (A) (A) (A) (A)
                 (A) (A) (A) (A) (A) (A) (A) (A) (A) (A) (A) (A)
                 (A) (A) (A) (A) (A) (A) (A) (A) (A) (A) (A) (A)
                 (A) (A) (A) (A) (A)
 Beta  Orbitals:
       Occupied  (A) (A) (A) (A) (A) (A) (A) (A) (A) (A) (A) (A)
                 (A) (A) (A) (A) (A) (A) (A) (A) (A) (A) (A) (A)
                 (A) (A) (A) (A) (A) (A) (A) (A) (A) (A) (A) (A)
                 (A) (A) (A) (A) (A) (A) (A) (A) (A) (A) (A) (A)
                 (A) (A) (A) (A) (A) (A) (A) (A) (A) (A) (A) (A)
                 (A) (A) (A) (A) (A) (A) (A) (A) (A) (A) (A) (A)
                 (A) (A) (A) (A) (A) (A) (A) (A) (A) (A) (A) (A)
                 (A) (A) (A) (A) (A) (A) (A) (A) (A) (A) (A) (A)
                 (A) (A) (A) (A) (A) (A) (A) (A) (A) (A) (A) (A)
                 (A)
       Virtual   (A) (A) (A) (A) (A) (A) (A) (A) (A) (A) (A) (A)
                 (A) (A) (A) (A) (A) (A) (A) (A) (A) (A) (A) (A)
                 (A) (A) (A) (A) (A) (A) (A) (A) (A) (A) (A) (A)
                 (A) (A) (A) (A) (A) (A) (A) (A) (A) (A) (A) (A)
                 (A) (A) (A) (A) (A) (A) (A) (A) (A) (A) (A) (A)
                 (A) (A) (A) (A) (A) (A) (A) (A) (A) (A) (A) (A)
                 (A) (A) (A) (A) (A) (A) (A) (A) (A) (A) (A) (A)
                 (A) (A) (A) (A) (A) (A) (A) (A) (A) (A) (A) (A)
                 (A) (A) (A) (A) (A) (A) (A) (A) (A) (A) (A) (A)
                 (A) (A) (A) (A) (A) (A) (A) (A) (A) (A) (A) (A)
                 (A) (A) (A) (A) (A) (A) (A) (A) (A) (A) (A) (A)
                 (A) (A) (A) (A) (A) (A) (A) (A) (A) (A) (A) (A)
                 (A) (A) (A) (A) (A) (A) (A) (A) (A) (A) (A) (A)
                 (A) (A) (A) (A) (A) (A) (A) (A) (A) (A) (A) (A)
                 (A) (A) (A) (A) (A) (A) (A) (A) (A) (A) (A) (A)
                 (A) (A) (A) (A) (A) (A) (A) (A) (A) (A) (A) (A)
                 (A) (A) (A) (A) (A) (A) (A) (A) (A) (A) (A) (A)
                 (A) (A) (A) (A) (A) (A) (A) (A) (A) (A) (A) (A)
                 (A) (A) (A) (A) (A) (A) (A) (A) (A) (A) (A) (A)
                 (A) (A) (A) (A) (A) (A) (A) (A) (A) (A) (A) (A)
                 (A) (A) (A) (A) (A) (A) (A) (A) (A) (A) (A) (A)
                 (A) (A) (A) (A) (A) (A) (A) (A) (A) (A) (A) (A)
                 (A) (A) (A) (A) (A) (A) (A) (A) (A) (A) (A) (A)
                 (A) (A) (A) (A) (A) (A) (A) (A) (A) (A) (A) (A)
                 (A) (A) (A) (A) (A) (A) (A) (A) (A) (A) (A) (A)
                 (A) (A) (A) (A) (A) (A) (A) (A) (A) (A) (A) (A)
                 (A) (A) (A) (A) (A) (A) (A) (A) (A) (A) (A) (A)
                 (A) (A) (A) (A) (A) (A) (A) (A) (A) (A) (A) (A)
                 (A) (A) (A) (A) (A) (A) (A) (A) (A) (A) (A) (A)
                 (A) (A) (A) (A) (A) (A) (A) (A) (A) (A) (A) (A)
                 (A) (A) (A) (A) (A) (A) (A) (A) (A) (A) (A) (A)
                 (A) (A) (A) (A) (A) (A) (A) (A) (A) (A) (A) (A)
                 (A) (A) (A) (A) (A) (A) (A) (A) (A) (A) (A) (A)
                 (A) (A) (A) (A) (A) (A) (A) (A) (A) (A) (A) (A)
                 (A) (A) (A) (A) (A) (A) (A)
 The electronic state is 3-A.
 Alpha  occ. eigenvalues --  -24.75256 -24.75255 -24.74727 -24.56349 -24.56226
 Alpha  occ. eigenvalues --  -19.23067 -14.40978 -14.37571 -10.46379 -10.32797
 Alpha  occ. eigenvalues --  -10.29218 -10.28289 -10.27631 -10.26339 -10.26239
 Alpha  occ. eigenvalues --  -10.26044 -10.25426 -10.20946 -10.20907 -10.20329
 Alpha  occ. eigenvalues --  -10.20196 -10.19947 -10.19882 -10.19760 -10.19537
 Alpha  occ. eigenvalues --  -10.19456 -10.18715 -10.17605  -4.10454  -2.71697
 Alpha  occ. eigenvalues --   -2.70980  -2.69431  -1.32992  -1.24429  -1.23952
 Alpha  occ. eigenvalues --   -1.13735  -1.02440  -1.01943  -1.01500  -0.95753
 Alpha  occ. eigenvalues --   -0.87984  -0.87245  -0.85204  -0.82845  -0.81089
 Alpha  occ. eigenvalues --   -0.78408  -0.74681  -0.74449  -0.73587  -0.71099
 Alpha  occ. eigenvalues --   -0.69223  -0.68596  -0.64702  -0.62544  -0.62168
 Alpha  occ. eigenvalues --   -0.61643  -0.60868  -0.60754  -0.60604  -0.58233
 Alpha  occ. eigenvalues --   -0.56476  -0.54363  -0.53832  -0.51931  -0.51247
 Alpha  occ. eigenvalues --   -0.50744  -0.49998  -0.49338  -0.48658  -0.48200
 Alpha  occ. eigenvalues --   -0.48055  -0.47042  -0.46955  -0.45745  -0.44641
 Alpha  occ. eigenvalues --   -0.44442  -0.44289  -0.43764  -0.42780  -0.42377
 Alpha  occ. eigenvalues --   -0.42303  -0.41681  -0.41426  -0.41025  -0.40882
 Alpha  occ. eigenvalues --   -0.40647  -0.40418  -0.39447  -0.38941  -0.38625
 Alpha  occ. eigenvalues --   -0.38077  -0.37349  -0.36669  -0.35890  -0.34292
 Alpha  occ. eigenvalues --   -0.34049  -0.33945  -0.33279  -0.32909  -0.31813
 Alpha  occ. eigenvalues --   -0.31721  -0.30406  -0.29497  -0.28789  -0.28034
 Alpha  occ. eigenvalues --   -0.27150  -0.25591  -0.24880  -0.24659  -0.24491
 Alpha  occ. eigenvalues --   -0.21605
 Alpha virt. eigenvalues --   -0.10560  -0.07341  -0.04506  -0.01683   0.00118
 Alpha virt. eigenvalues --    0.00792   0.01636   0.02571   0.02810   0.04437
 Alpha virt. eigenvalues --    0.06619   0.07770   0.08720   0.08993   0.09377
 Alpha virt. eigenvalues --    0.09813   0.10203   0.10986   0.11352   0.12525
 Alpha virt. eigenvalues --    0.12869   0.12978   0.13641   0.14341   0.14930
 Alpha virt. eigenvalues --    0.15458   0.15960   0.16064   0.17044   0.17623
 Alpha virt. eigenvalues --    0.18028   0.18562   0.19030   0.19216   0.19451
 Alpha virt. eigenvalues --    0.19893   0.20585   0.21583   0.22139   0.23123
 Alpha virt. eigenvalues --    0.24816   0.25286   0.25576   0.26199   0.27276
 Alpha virt. eigenvalues --    0.27490   0.27775   0.28920   0.30719   0.31223
 Alpha virt. eigenvalues --    0.31559   0.32285   0.32464   0.33297   0.34602
 Alpha virt. eigenvalues --    0.35390   0.36153   0.37849   0.39310   0.39593
 Alpha virt. eigenvalues --    0.42324   0.43503   0.44595   0.45732   0.46746
 Alpha virt. eigenvalues --    0.47792   0.48031   0.48451   0.50098   0.50270
 Alpha virt. eigenvalues --    0.51316   0.51686   0.51949   0.52915   0.53651
 Alpha virt. eigenvalues --    0.53969   0.54087   0.54573   0.54742   0.55379
 Alpha virt. eigenvalues --    0.56686   0.57212   0.57710   0.58116   0.58621
 Alpha virt. eigenvalues --    0.58946   0.59325   0.59831   0.60386   0.61225
 Alpha virt. eigenvalues --    0.61736   0.61990   0.62470   0.62819   0.63777
 Alpha virt. eigenvalues --    0.64269   0.64640   0.65050   0.65547   0.66981
 Alpha virt. eigenvalues --    0.67822   0.69187   0.70328   0.70803   0.71144
 Alpha virt. eigenvalues --    0.72296   0.73440   0.74502   0.74751   0.77194
 Alpha virt. eigenvalues --    0.77401   0.77976   0.78617   0.79826   0.80163
 Alpha virt. eigenvalues --    0.80853   0.81419   0.81685   0.81859   0.82867
 Alpha virt. eigenvalues --    0.83141   0.83844   0.85020   0.85587   0.86242
 Alpha virt. eigenvalues --    0.87119   0.88350   0.88541   0.88883   0.90281
 Alpha virt. eigenvalues --    0.90999   0.91136   0.91845   0.92808   0.94062
 Alpha virt. eigenvalues --    0.94584   0.95137   0.97252   0.97458   0.98190
 Alpha virt. eigenvalues --    0.98544   0.99652   1.00250   1.01383   1.01652
 Alpha virt. eigenvalues --    1.03614   1.04141   1.05128   1.05762   1.06723
 Alpha virt. eigenvalues --    1.07678   1.08385   1.09984   1.10287   1.11737
 Alpha virt. eigenvalues --    1.12769   1.13286   1.14760   1.15049   1.15933
 Alpha virt. eigenvalues --    1.17163   1.18227   1.19011   1.19763   1.20581
 Alpha virt. eigenvalues --    1.22335   1.23224   1.25030   1.26561   1.27441
 Alpha virt. eigenvalues --    1.27591   1.29379   1.30275   1.30823   1.32532
 Alpha virt. eigenvalues --    1.32674   1.33380   1.33775   1.35515   1.35822
 Alpha virt. eigenvalues --    1.36286   1.36993   1.37943   1.38843   1.39531
 Alpha virt. eigenvalues --    1.39621   1.40449   1.41207   1.42359   1.42966
 Alpha virt. eigenvalues --    1.43740   1.45024   1.45961   1.46138   1.46358
 Alpha virt. eigenvalues --    1.47426   1.47950   1.49080   1.49542   1.49951
 Alpha virt. eigenvalues --    1.50422   1.51976   1.52211   1.54188   1.56334
 Alpha virt. eigenvalues --    1.58227   1.59341   1.60735   1.62197   1.62949
 Alpha virt. eigenvalues --    1.64166   1.64942   1.66630   1.68749   1.68992
 Alpha virt. eigenvalues --    1.71097   1.72083   1.73593   1.73736   1.75213
 Alpha virt. eigenvalues --    1.76039   1.77260   1.77990   1.79577   1.80567
 Alpha virt. eigenvalues --    1.81188   1.81271   1.82927   1.83194   1.85144
 Alpha virt. eigenvalues --    1.86531   1.87193   1.88390   1.88639   1.89456
 Alpha virt. eigenvalues --    1.90373   1.90609   1.91170   1.91599   1.91963
 Alpha virt. eigenvalues --    1.92848   1.94192   1.94565   1.94849   1.95171
 Alpha virt. eigenvalues --    1.95522   1.96404   1.96860   1.97367   1.97897
 Alpha virt. eigenvalues --    1.99000   1.99593   1.99928   2.00558   2.02346
 Alpha virt. eigenvalues --    2.03012   2.03353   2.03839   2.04285   2.04657
 Alpha virt. eigenvalues --    2.05763   2.06149   2.06636   2.08406   2.09480
 Alpha virt. eigenvalues --    2.10862   2.11154   2.12061   2.13088   2.13868
 Alpha virt. eigenvalues --    2.14563   2.14745   2.16089   2.17743   2.17969
 Alpha virt. eigenvalues --    2.19243   2.19660   2.20666   2.21087   2.22430
 Alpha virt. eigenvalues --    2.22746   2.24923   2.26718   2.27259   2.27510
 Alpha virt. eigenvalues --    2.28329   2.28580   2.29462   2.30849   2.31452
 Alpha virt. eigenvalues --    2.31897   2.33743   2.34408   2.35220   2.35982
 Alpha virt. eigenvalues --    2.37642   2.38294   2.39454   2.41510   2.42360
 Alpha virt. eigenvalues --    2.45888   2.46284   2.47725   2.49621   2.50581
 Alpha virt. eigenvalues --    2.51457   2.52908   2.54113   2.55280   2.56796
 Alpha virt. eigenvalues --    2.57463   2.60025   2.61093   2.61770   2.62414
 Alpha virt. eigenvalues --    2.63658   2.64683   2.65582   2.66608   2.67152
 Alpha virt. eigenvalues --    2.67737   2.67899   2.68467   2.69400   2.70632
 Alpha virt. eigenvalues --    2.72046   2.72569   2.74930   2.75614   2.76724
 Alpha virt. eigenvalues --    2.77952   2.79013   2.80614   2.81220   2.84014
 Alpha virt. eigenvalues --    2.85800   2.86154   2.87777   2.89522   2.92812
 Alpha virt. eigenvalues --    2.93661   2.95414   2.97161   3.01122   3.02122
 Alpha virt. eigenvalues --    3.04284   3.06899   3.09841   3.12774   3.22576
 Alpha virt. eigenvalues --    3.36129   3.38079   3.40813   3.46404   3.52914
 Alpha virt. eigenvalues --    3.58010   3.69380   3.94526   4.04434   4.07314
 Alpha virt. eigenvalues --    4.08289   4.10315   4.11765   4.13026   4.16601
 Alpha virt. eigenvalues --    4.17185   4.19588   4.22883   4.25716   4.28796
 Alpha virt. eigenvalues --    4.31995   4.35170   4.38394   4.39817   4.43017
 Alpha virt. eigenvalues --    4.45921   4.49079   4.54125   4.56533   4.59337
 Alpha virt. eigenvalues --    4.61339   4.68528   4.72999   4.79243   4.87071
 Alpha virt. eigenvalues --    5.10715   5.47483   5.88217   5.95238   6.00259
 Alpha virt. eigenvalues --    6.05180   6.30102  11.31625  17.39088  17.57583
 Alpha virt. eigenvalues --   17.76063  17.97907  18.86067  22.80473  22.85943
 Alpha virt. eigenvalues --   23.12395  26.28117  56.99565 118.87269 118.92575
 Alpha virt. eigenvalues --  119.06360 134.96181 381.82842 926.93581 927.34119
 Alpha virt. eigenvalues --  928.045671467.65735**********
  Beta  occ. eigenvalues --  -24.75255 -24.75255 -24.74726 -24.56049 -24.56009
  Beta  occ. eigenvalues --  -19.23069 -14.40785 -14.37388 -10.46377 -10.32814
  Beta  occ. eigenvalues --  -10.29227 -10.28300 -10.27624 -10.26348 -10.26230
  Beta  occ. eigenvalues --  -10.26037 -10.25419 -10.20945 -10.20907 -10.20329
  Beta  occ. eigenvalues --  -10.20196 -10.19947 -10.19882 -10.19760 -10.19537
  Beta  occ. eigenvalues --  -10.19456 -10.18715 -10.17605  -3.99513  -2.59531
  Beta  occ. eigenvalues --   -2.59380  -2.58530  -1.32991  -1.24428  -1.23951
  Beta  occ. eigenvalues --   -1.13716  -1.01818  -1.01317  -1.01269  -0.95566
  Beta  occ. eigenvalues --   -0.87982  -0.87199  -0.85180  -0.82839  -0.81074
  Beta  occ. eigenvalues --   -0.78403  -0.74665  -0.74448  -0.73577  -0.71084
  Beta  occ. eigenvalues --   -0.69183  -0.68569  -0.64669  -0.62513  -0.62124
  Beta  occ. eigenvalues --   -0.61636  -0.60833  -0.60746  -0.60567  -0.58189
  Beta  occ. eigenvalues --   -0.56337  -0.54265  -0.53823  -0.51925  -0.51226
  Beta  occ. eigenvalues --   -0.50712  -0.49987  -0.49266  -0.48574  -0.48184
  Beta  occ. eigenvalues --   -0.48045  -0.46908  -0.46513  -0.45690  -0.44628
  Beta  occ. eigenvalues --   -0.44423  -0.44279  -0.43657  -0.42769  -0.42365
  Beta  occ. eigenvalues --   -0.42258  -0.41551  -0.41230  -0.40674  -0.40419
  Beta  occ. eigenvalues --   -0.39465  -0.38906  -0.38545  -0.37826  -0.36964
  Beta  occ. eigenvalues --   -0.35434  -0.35183  -0.34681  -0.34002  -0.33924
  Beta  occ. eigenvalues --   -0.33166  -0.32901  -0.32263  -0.31746  -0.30364
  Beta  occ. eigenvalues --   -0.29395  -0.29024  -0.28465  -0.27866  -0.27363
  Beta  occ. eigenvalues --   -0.24866  -0.23373  -0.22490  -0.21585
  Beta virt. eigenvalues --   -0.10440  -0.07316  -0.04651  -0.04507  -0.03223
  Beta virt. eigenvalues --   -0.01678   0.00110   0.01057   0.01885   0.02581
  Beta virt. eigenvalues --    0.02995   0.04445   0.06697   0.07880   0.08734
  Beta virt. eigenvalues --    0.09028   0.09499   0.10254   0.10627   0.11255
  Beta virt. eigenvalues --    0.11510   0.12639   0.12908   0.13016   0.13680
  Beta virt. eigenvalues --    0.14396   0.14948   0.15507   0.16001   0.16094
  Beta virt. eigenvalues --    0.17123   0.17659   0.18048   0.18604   0.19052
  Beta virt. eigenvalues --    0.19327   0.19535   0.19938   0.20628   0.21651
  Beta virt. eigenvalues --    0.22155   0.23236   0.24884   0.25442   0.25952
  Beta virt. eigenvalues --    0.26715   0.27476   0.27771   0.27844   0.29006
  Beta virt. eigenvalues --    0.30762   0.31426   0.31762   0.32342   0.32513
  Beta virt. eigenvalues --    0.33500   0.34735   0.35567   0.36340   0.38022
  Beta virt. eigenvalues --    0.39356   0.39612   0.42425   0.43523   0.44727
  Beta virt. eigenvalues --    0.45765   0.46802   0.47837   0.48056   0.48510
  Beta virt. eigenvalues --    0.50202   0.50303   0.51382   0.51805   0.51972
  Beta virt. eigenvalues --    0.52956   0.53673   0.54058   0.54170   0.54649
  Beta virt. eigenvalues --    0.54770   0.55464   0.56734   0.57264   0.57827
  Beta virt. eigenvalues --    0.58212   0.58639   0.59064   0.59492   0.59860
  Beta virt. eigenvalues --    0.60672   0.61326   0.61785   0.62233   0.62687
  Beta virt. eigenvalues --    0.62954   0.63886   0.64413   0.64975   0.65279
  Beta virt. eigenvalues --    0.65594   0.67237   0.68059   0.69196   0.70494
  Beta virt. eigenvalues --    0.70927   0.71447   0.72398   0.73523   0.74528
  Beta virt. eigenvalues --    0.74863   0.77398   0.77569   0.78058   0.78820
  Beta virt. eigenvalues --    0.80059   0.80305   0.80975   0.81535   0.81703
  Beta virt. eigenvalues --    0.81928   0.82904   0.83292   0.83881   0.85145
  Beta virt. eigenvalues --    0.85752   0.86481   0.87455   0.88410   0.88641
  Beta virt. eigenvalues --    0.88967   0.90432   0.91264   0.91835   0.91945
  Beta virt. eigenvalues --    0.93202   0.94220   0.94652   0.95709   0.97324
  Beta virt. eigenvalues --    0.97653   0.98407   0.98616   0.99698   1.00468
  Beta virt. eigenvalues --    1.01431   1.02102   1.03706   1.04190   1.05528
  Beta virt. eigenvalues --    1.05835   1.06805   1.07759   1.08504   1.10067
  Beta virt. eigenvalues --    1.10554   1.11840   1.12828   1.13675   1.14780
  Beta virt. eigenvalues --    1.15461   1.16028   1.17205   1.18255   1.19049
  Beta virt. eigenvalues --    1.20092   1.20666   1.22434   1.23308   1.25052
  Beta virt. eigenvalues --    1.26601   1.27474   1.27757   1.29398   1.30452
  Beta virt. eigenvalues --    1.30830   1.32643   1.32802   1.33496   1.34205
  Beta virt. eigenvalues --    1.35594   1.35842   1.36374   1.37131   1.37983
  Beta virt. eigenvalues --    1.39006   1.39579   1.39839   1.40653   1.41406
  Beta virt. eigenvalues --    1.42439   1.43028   1.43798   1.45132   1.46030
  Beta virt. eigenvalues --    1.46250   1.46490   1.47525   1.48089   1.49169
  Beta virt. eigenvalues --    1.49612   1.50052   1.50495   1.52086   1.52279
  Beta virt. eigenvalues --    1.54266   1.56373   1.58379   1.59648   1.60885
  Beta virt. eigenvalues --    1.62233   1.63132   1.64296   1.65260   1.66787
  Beta virt. eigenvalues --    1.68936   1.69083   1.71270   1.72172   1.73642
  Beta virt. eigenvalues --    1.73991   1.75347   1.76141   1.77327   1.78053
  Beta virt. eigenvalues --    1.79779   1.80647   1.81358   1.81531   1.83083
  Beta virt. eigenvalues --    1.83230   1.85209   1.86754   1.87435   1.88530
  Beta virt. eigenvalues --    1.88891   1.89563   1.90434   1.90668   1.91327
  Beta virt. eigenvalues --    1.91904   1.92293   1.92992   1.94318   1.94662
  Beta virt. eigenvalues --    1.94863   1.95306   1.95571   1.96498   1.97015
  Beta virt. eigenvalues --    1.97591   1.98230   1.99121   1.99723   2.00148
  Beta virt. eigenvalues --    2.00921   2.02648   2.03103   2.03462   2.03862
  Beta virt. eigenvalues --    2.04668   2.04791   2.05809   2.06240   2.06715
  Beta virt. eigenvalues --    2.08451   2.09660   2.10973   2.11231   2.12267
  Beta virt. eigenvalues --    2.13184   2.14092   2.14802   2.15021   2.16357
  Beta virt. eigenvalues --    2.17798   2.18108   2.19283   2.19809   2.20735
  Beta virt. eigenvalues --    2.21252   2.22615   2.22873   2.25083   2.26901
  Beta virt. eigenvalues --    2.27425   2.27634   2.28586   2.28657   2.29708
  Beta virt. eigenvalues --    2.31128   2.31709   2.32293   2.34256   2.34743
  Beta virt. eigenvalues --    2.35528   2.36224   2.37718   2.38919   2.40417
  Beta virt. eigenvalues --    2.41948   2.43049   2.46234   2.46566   2.48293
  Beta virt. eigenvalues --    2.50481   2.50976   2.52801   2.53954   2.54649
  Beta virt. eigenvalues --    2.56249   2.57506   2.58470   2.60359   2.61550
  Beta virt. eigenvalues --    2.62530   2.62914   2.63765   2.65251   2.66583
  Beta virt. eigenvalues --    2.66781   2.67433   2.67886   2.68365   2.69448
  Beta virt. eigenvalues --    2.69996   2.71432   2.72408   2.73554   2.75284
  Beta virt. eigenvalues --    2.75870   2.78474   2.79160   2.79886   2.80804
  Beta virt. eigenvalues --    2.81508   2.84438   2.85905   2.87041   2.89288
  Beta virt. eigenvalues --    2.89724   2.92988   2.94330   2.95618   2.97543
  Beta virt. eigenvalues --    3.01140   3.02156   3.04630   3.06954   3.10305
  Beta virt. eigenvalues --    3.12870   3.22743   3.36146   3.39958   3.42258
  Beta virt. eigenvalues --    3.46467   3.55577   3.61975   3.73987   3.97169
  Beta virt. eigenvalues --    4.04462   4.07546   4.08653   4.10532   4.12065
  Beta virt. eigenvalues --    4.13466   4.16747   4.17259   4.19748   4.23044
  Beta virt. eigenvalues --    4.25776   4.28965   4.32162   4.35193   4.38529
  Beta virt. eigenvalues --    4.39825   4.43151   4.46009   4.49396   4.54206
  Beta virt. eigenvalues --    4.56547   4.59426   4.61391   4.68637   4.73149
  Beta virt. eigenvalues --    4.79417   4.87259   5.13904   5.47497   5.91047
  Beta virt. eigenvalues --    5.98533   6.03886   6.15965   6.40611  11.37330
  Beta virt. eigenvalues --   17.40549  17.59443  17.78206  18.03482  18.91265
  Beta virt. eigenvalues --   22.91664  22.98724  23.24637  26.37079  57.09619
  Beta virt. eigenvalues --  118.92225 118.99923 119.13489 135.03488 381.26371
  Beta virt. eigenvalues --  923.66824 923.96216 924.622561458.24987**********
          Condensed to atoms (all electrons):
               1          2          3          4          5          6
     1  N    6.929451   0.403655  -0.003956   0.003454   0.000278  -0.000014
     2  C    0.403655   4.889935   0.416345  -0.020189   0.005726   0.002787
     3  C   -0.003956   0.416345   5.179711   0.290284  -0.049480  -0.048881
     4  C    0.003454  -0.020189   0.290284   4.085259   0.285533   0.284307
     5  F    0.000278   0.005726  -0.049480   0.285533   9.074859  -0.036251
     6  F   -0.000014   0.002787  -0.048881   0.284307  -0.036251   9.087168
     7  F   -0.000006  -0.000712  -0.054205   0.294645  -0.039254  -0.039568
     8  C   -0.035925  -0.049542   0.465033  -0.024887   0.003257   0.004174
     9  C   -0.062827  -0.045296  -0.010892   0.004742  -0.000046   0.000580
    10  C    0.351997  -0.039858  -0.034877   0.000117   0.000007  -0.000018
    11  C   -0.038224   0.007029   0.000292   0.000003   0.000000  -0.000000
    12  N   -0.033742   0.000092  -0.000017   0.000000   0.000000   0.000000
    13  C    0.000476   0.000014  -0.000000  -0.000000   0.000000   0.000000
    14  C   -0.000007  -0.000001  -0.000000   0.000000  -0.000000  -0.000000
    15  C    0.000019  -0.000001   0.000000   0.000000   0.000000  -0.000000
    16  C   -0.000282  -0.000040   0.000007   0.000000  -0.000000  -0.000000
    17  C   -0.003168   0.000003  -0.000081  -0.000001  -0.000000   0.000000
    18  C   -0.002799   0.001674  -0.001127  -0.000154   0.000000   0.000000
    19  C   -0.000212   0.000089  -0.000321  -0.000096  -0.000000   0.000000
    20  C    0.000031   0.000002  -0.000025   0.000001   0.000000   0.000000
    21  C    0.000002  -0.000006   0.000006   0.000000   0.000000  -0.000000
    22  C    0.000000   0.000000   0.000000   0.000000   0.000000   0.000000
    23  C   -0.000000   0.000000  -0.000000  -0.000000  -0.000000   0.000000
    24  C    0.000000   0.000000  -0.000000  -0.000000   0.000000   0.000000
    25  C   -0.000161   0.000006  -0.000000  -0.000000  -0.000000  -0.000000
    26  O    0.002157  -0.000070   0.000001   0.000000   0.000000  -0.000000
    27  H   -0.044486   0.374015  -0.056744  -0.002383   0.006666   0.000073
    28  H    0.000051   0.004378  -0.044763  -0.004672   0.000105   0.006827
    29  H    0.003751   0.000368   0.003614  -0.000065   0.000000   0.000001
    30  H    0.000005   0.000000   0.000000  -0.000000   0.000000   0.000000
    31  H   -0.000000   0.000000   0.000000   0.000000   0.000000   0.000000
    32  H    0.000001   0.000003  -0.000000  -0.000000  -0.000000   0.000000
    33  H   -0.000307   0.000116   0.000001  -0.000000   0.000000   0.000000
    34  H   -0.000122   0.002205  -0.000143   0.000013  -0.000001   0.000000
    35  H   -0.000012  -0.000027   0.000102   0.000063   0.000000   0.000000
    36  H    0.000000  -0.000000   0.000001  -0.000000  -0.000000   0.000000
    37  H   -0.000000   0.000000  -0.000000   0.000000   0.000000  -0.000000
    38  H   -0.000000  -0.000000   0.000000   0.000000  -0.000000  -0.000000
    39  H   -0.000000  -0.000000   0.000000   0.000000  -0.000000  -0.000000
    40  H    0.000003  -0.000000  -0.000000  -0.000000  -0.000000  -0.000000
    41  H    0.000003  -0.000000  -0.000000  -0.000000  -0.000000  -0.000000
    42  Ni   0.087836  -0.025279   0.004070  -0.001342   0.002767   0.000902
    43  F   -0.003941  -0.000532   0.000003   0.000000  -0.000000  -0.000000
    44  F   -0.002211  -0.000352  -0.000009   0.000000  -0.000000  -0.000000
               7          8          9         10         11         12
     1  N   -0.000006  -0.035925  -0.062827   0.351997  -0.038224  -0.033742
     2  C   -0.000712  -0.049542  -0.045296  -0.039858   0.007029   0.000092
     3  C   -0.054205   0.465033  -0.010892  -0.034877   0.000292  -0.000017
     4  C    0.294645  -0.024887   0.004742   0.000117   0.000003   0.000000
     5  F   -0.039254   0.003257  -0.000046   0.000007   0.000000   0.000000
     6  F   -0.039568   0.004174   0.000580  -0.000018  -0.000000   0.000000
     7  F    9.084162  -0.000157   0.000006  -0.000005  -0.000000  -0.000000
     8  C   -0.000157   5.003202   0.430333  -0.006101   0.006047  -0.000199
     9  C    0.000006   0.430333   5.093952   0.479088  -0.077817   0.007431
    10  C   -0.000005  -0.006101   0.479088   4.698828   0.342850  -0.046977
    11  C   -0.000000   0.006047  -0.077817   0.342850   4.667823   0.367323
    12  N   -0.000000  -0.000199   0.007431  -0.046977   0.367323   7.045798
    13  C   -0.000000   0.000005  -0.000092   0.006636  -0.058065   0.305868
    14  C    0.000000   0.000000   0.000029  -0.000284  -0.004452  -0.066686
    15  C   -0.000000  -0.000001  -0.000004  -0.000671   0.006779  -0.005862
    16  C   -0.000000  -0.000014   0.000398   0.000014   0.005431  -0.002457
    17  C    0.000001   0.000058  -0.000597   0.004475  -0.002163   0.001947
    18  C   -0.000018   0.000849  -0.001275   0.004189  -0.002436  -0.000558
    19  C   -0.000117   0.001210   0.000881  -0.000327   0.000040   0.000023
    20  C    0.000001  -0.000126   0.001007  -0.000270  -0.000068  -0.000002
    21  C    0.000000  -0.000077   0.000285  -0.000108   0.000279   0.000042
    22  C   -0.000000  -0.000002  -0.000032  -0.000008  -0.000034   0.000002
    23  C    0.000000   0.000000  -0.000001   0.000001  -0.000028   0.000010
    24  C    0.000000   0.000000  -0.000004  -0.000048  -0.000114   0.000444
    25  C    0.000000   0.000001  -0.000423   0.004668  -0.061594  -0.054207
    26  O    0.000000   0.000294   0.000436  -0.063395   0.275300  -0.089649
    27  H    0.000030   0.003713   0.000113   0.006051  -0.000218   0.000007
    28  H    0.000220   0.362704  -0.031557   0.002365  -0.000157   0.000001
    29  H    0.000000  -0.036214   0.360187  -0.029768  -0.006273   0.000181
    30  H   -0.000000  -0.000000  -0.000003  -0.000290   0.005978  -0.038904
    31  H   -0.000000   0.000000  -0.000000   0.000010   0.000130   0.004363
    32  H   -0.000000   0.000000   0.000001  -0.000020  -0.000488  -0.003044
    33  H   -0.000000   0.000004   0.000026   0.000079   0.000289  -0.002958
    34  H    0.000040   0.000049  -0.000144  -0.000326   0.000059  -0.000012
    35  H    0.000588   0.000322  -0.000118   0.000008   0.000001   0.000000
    36  H   -0.000000  -0.000002  -0.000009   0.000002  -0.000001  -0.000000
    37  H    0.000000  -0.000000  -0.000001   0.000000  -0.000000   0.000000
    38  H    0.000000   0.000000   0.000000  -0.000000  -0.000001   0.000000
    39  H    0.000000  -0.000000   0.000000   0.000000   0.000018   0.000011
    40  H   -0.000000   0.000000   0.000008  -0.000159   0.001974   0.001276
    41  H    0.000000  -0.000000  -0.000007  -0.000047   0.003976   0.003578
    42  Ni   0.003162  -0.005011   0.003941  -0.038769  -0.052870   0.113462
    43  F   -0.000000  -0.000001  -0.000002  -0.000771  -0.000648  -0.001801
    44  F   -0.000000   0.000000  -0.000005  -0.000213  -0.000651  -0.005570
              13         14         15         16         17         18
     1  N    0.000476  -0.000007   0.000019  -0.000282  -0.003168  -0.002799
     2  C    0.000014  -0.000001  -0.000001  -0.000040   0.000003   0.001674
     3  C   -0.000000  -0.000000   0.000000   0.000007  -0.000081  -0.001127
     4  C   -0.000000   0.000000   0.000000   0.000000  -0.000001  -0.000154
     5  F    0.000000  -0.000000   0.000000  -0.000000  -0.000000   0.000000
     6  F    0.000000  -0.000000  -0.000000  -0.000000   0.000000   0.000000
     7  F   -0.000000   0.000000  -0.000000  -0.000000   0.000001  -0.000018
     8  C    0.000005   0.000000  -0.000001  -0.000014   0.000058   0.000849
     9  C   -0.000092   0.000029  -0.000004   0.000398  -0.000597  -0.001275
    10  C    0.006636  -0.000284  -0.000671   0.000014   0.004475   0.004189
    11  C   -0.058065  -0.004452   0.006779   0.005431  -0.002163  -0.002436
    12  N    0.305868  -0.066686  -0.005862  -0.002457   0.001947  -0.000558
    13  C    4.966354   0.323838  -0.036749  -0.002570  -0.002264   0.000043
    14  C    0.323838   5.273112   0.350898  -0.053146  -0.010867   0.000594
    15  C   -0.036749   0.350898   4.955316   0.414242  -0.097520   0.009812
    16  C   -0.002570  -0.053146   0.414242   4.932422   0.357921   0.000680
    17  C   -0.002264  -0.010867  -0.097520   0.357921   5.360082   0.513420
    18  C    0.000043   0.000594   0.009812   0.000680   0.513420   4.959827
    19  C   -0.000003  -0.000008  -0.000854  -0.045008  -0.016604   0.473599
    20  C   -0.000002  -0.000139   0.014553  -0.019237  -0.075212  -0.012917
    21  C    0.000003   0.007477  -0.022388   0.447746  -0.040408  -0.042780
    22  C    0.000068  -0.000006  -0.065412  -0.033298   0.015791  -0.001067
    23  C    0.000023   0.006713  -0.008220  -0.046832  -0.001361   0.000087
    24  C   -0.007744  -0.069374   0.496636  -0.001707   0.011989  -0.000398
    25  C    0.331389  -0.033623  -0.010732  -0.000693   0.000216  -0.000007
    26  O   -0.036201  -0.001144   0.001692  -0.000671  -0.001096   0.000048
    27  H   -0.000000  -0.000000  -0.000000  -0.000000  -0.000023   0.000013
    28  H   -0.000000   0.000000  -0.000000  -0.000000   0.000000   0.000022
    29  H    0.000019   0.000000  -0.000004   0.000136  -0.000047  -0.000043
    30  H    0.373908  -0.038665   0.004096  -0.000031  -0.000047  -0.000000
    31  H   -0.032880   0.350151  -0.035401   0.003449   0.000223  -0.000003
    32  H   -0.035826   0.340071  -0.019328  -0.005986   0.002254   0.000043
    33  H   -0.000404  -0.000357  -0.013694  -0.028074   0.259482  -0.046043
    34  H   -0.000001   0.000006  -0.000192   0.004322  -0.031834   0.351675
    35  H    0.000000  -0.000000   0.000012   0.000918   0.004884  -0.042048
    36  H   -0.000000   0.000002  -0.000153   0.004842   0.000224   0.004640
    37  H    0.000000   0.000011   0.000657   0.004697  -0.000193   0.000021
    38  H   -0.000002  -0.000186   0.003397   0.001209   0.000015  -0.000000
    39  H    0.000503  -0.008852  -0.044008   0.004124  -0.000186   0.000003
    40  H   -0.030295   0.004414   0.000718  -0.000005  -0.000007   0.000000
    41  H   -0.031517  -0.006566   0.000368  -0.000140  -0.000029   0.000001
    42  Ni  -0.010952   0.005360  -0.002088   0.001575   0.014685   0.003549
    43  F   -0.000061  -0.000000  -0.000000  -0.000000  -0.000001  -0.000000
    44  F    0.000253  -0.001867  -0.000102   0.001210  -0.029880  -0.002052
              19         20         21         22         23         24
     1  N   -0.000212   0.000031   0.000002   0.000000  -0.000000   0.000000
     2  C    0.000089   0.000002  -0.000006   0.000000   0.000000   0.000000
     3  C   -0.000321  -0.000025   0.000006   0.000000  -0.000000  -0.000000
     4  C   -0.000096   0.000001   0.000000   0.000000  -0.000000  -0.000000
     5  F   -0.000000   0.000000   0.000000   0.000000  -0.000000   0.000000
     6  F    0.000000   0.000000  -0.000000   0.000000   0.000000   0.000000
     7  F   -0.000117   0.000001   0.000000  -0.000000   0.000000   0.000000
     8  C    0.001210  -0.000126  -0.000077  -0.000002   0.000000   0.000000
     9  C    0.000881   0.001007   0.000285  -0.000032  -0.000001  -0.000004
    10  C   -0.000327  -0.000270  -0.000108  -0.000008   0.000001  -0.000048
    11  C    0.000040  -0.000068   0.000279  -0.000034  -0.000028  -0.000114
    12  N    0.000023  -0.000002   0.000042   0.000002   0.000010   0.000444
    13  C   -0.000003  -0.000002   0.000003   0.000068   0.000023  -0.007744
    14  C   -0.000008  -0.000139   0.007477  -0.000006   0.006713  -0.069374
    15  C   -0.000854   0.014553  -0.022388  -0.065412  -0.008220   0.496636
    16  C   -0.045008  -0.019237   0.447746  -0.033298  -0.046832  -0.001707
    17  C   -0.016604  -0.075212  -0.040408   0.015791  -0.001361   0.011989
    18  C    0.473599  -0.012917  -0.042780  -0.001067   0.000087  -0.000398
    19  C    4.948751   0.502540  -0.002212   0.009026  -0.000388   0.000059
    20  C    0.502540   5.126329   0.441493  -0.090284   0.008173  -0.000272
    21  C   -0.002212   0.441493   4.738354   0.444180   0.004492  -0.052959
    22  C    0.009026  -0.090284   0.444180   5.109242   0.513978  -0.021011
    23  C   -0.000388   0.008173   0.004492   0.513978   4.917567   0.465459
    24  C    0.000059  -0.000272  -0.052959  -0.021011   0.465459   5.065859
    25  C    0.000001   0.000002  -0.000065  -0.000019  -0.000712  -0.001967
    26  O   -0.000000  -0.000015  -0.000288   0.000099  -0.000012  -0.000678
    27  H   -0.000003   0.000000  -0.000000  -0.000000  -0.000000  -0.000000
    28  H    0.000036  -0.000006  -0.000003  -0.000000   0.000000   0.000000
    29  H   -0.000128   0.000229   0.000341   0.000042  -0.000002  -0.000006
    30  H    0.000000  -0.000000   0.000002  -0.000000   0.000003   0.000085
    31  H    0.000000   0.000002  -0.000099  -0.000012   0.000274  -0.004743
    32  H    0.000005  -0.000006  -0.000192   0.000018  -0.000187   0.003243
    33  H    0.005856  -0.000303   0.005320  -0.000073  -0.000000  -0.000055
    34  H   -0.045665   0.004248   0.000801   0.000008  -0.000000   0.000003
    35  H    0.354854  -0.039024   0.002890  -0.000186   0.000003  -0.000000
    36  H   -0.047025   0.355809  -0.042616  -0.009296   0.000270   0.000001
    37  H    0.000186  -0.008412  -0.041689   0.353814  -0.045002   0.004507
    38  H    0.000003  -0.000213   0.002465  -0.035406   0.354802  -0.038454
    39  H   -0.000000   0.000009   0.000812   0.004452  -0.041834   0.351693
    40  H    0.000000  -0.000000  -0.000003  -0.000002   0.000001   0.000152
    41  H    0.000000   0.000001  -0.000085  -0.000047   0.000953   0.012815
    42  Ni   0.000329   0.000614   0.000716  -0.000328  -0.000146   0.000577
    43  F   -0.000000   0.000000  -0.000000  -0.000000   0.000000   0.000000
    44  F    0.000016  -0.000001   0.000004   0.000000  -0.000000  -0.000001
              25         26         27         28         29         30
     1  N   -0.000161   0.002157  -0.044486   0.000051   0.003751   0.000005
     2  C    0.000006  -0.000070   0.374015   0.004378   0.000368   0.000000
     3  C   -0.000000   0.000001  -0.056744  -0.044763   0.003614   0.000000
     4  C   -0.000000   0.000000  -0.002383  -0.004672  -0.000065  -0.000000
     5  F   -0.000000   0.000000   0.006666   0.000105   0.000000   0.000000
     6  F   -0.000000  -0.000000   0.000073   0.006827   0.000001   0.000000
     7  F    0.000000   0.000000   0.000030   0.000220   0.000000  -0.000000
     8  C    0.000001   0.000294   0.003713   0.362704  -0.036214  -0.000000
     9  C   -0.000423   0.000436   0.000113  -0.031557   0.360187  -0.000003
    10  C    0.004668  -0.063395   0.006051   0.002365  -0.029768  -0.000290
    11  C   -0.061594   0.275300  -0.000218  -0.000157  -0.006273   0.005978
    12  N   -0.054207  -0.089649   0.000007   0.000001   0.000181  -0.038904
    13  C    0.331389  -0.036201  -0.000000  -0.000000   0.000019   0.373908
    14  C   -0.033623  -0.001144  -0.000000   0.000000   0.000000  -0.038665
    15  C   -0.010732   0.001692  -0.000000  -0.000000  -0.000004   0.004096
    16  C   -0.000693  -0.000671  -0.000000  -0.000000   0.000136  -0.000031
    17  C    0.000216  -0.001096  -0.000023   0.000000  -0.000047  -0.000047
    18  C   -0.000007   0.000048   0.000013   0.000022  -0.000043  -0.000000
    19  C    0.000001  -0.000000  -0.000003   0.000036  -0.000128   0.000000
    20  C    0.000002  -0.000015   0.000000  -0.000006   0.000229  -0.000000
    21  C   -0.000065  -0.000288  -0.000000  -0.000003   0.000341   0.000002
    22  C   -0.000019   0.000099  -0.000000  -0.000000   0.000042  -0.000000
    23  C   -0.000712  -0.000012  -0.000000   0.000000  -0.000002   0.000003
    24  C   -0.001967  -0.000678  -0.000000   0.000000  -0.000006   0.000085
    25  C    4.996342   0.220845  -0.000000  -0.000000  -0.000103  -0.039428
    26  O    0.220845   8.252899   0.000000  -0.000001   0.004918   0.002682
    27  H   -0.000000   0.000000   0.504778  -0.000135   0.000018   0.000000
    28  H   -0.000000  -0.000001  -0.000135   0.522820  -0.003864   0.000000
    29  H   -0.000103   0.004918   0.000018  -0.003864   0.505264  -0.000000
    30  H   -0.039428   0.002682   0.000000   0.000000  -0.000000   0.558387
    31  H   -0.001088  -0.000078   0.000000  -0.000000  -0.000000  -0.003928
    32  H    0.004738  -0.000117   0.000000   0.000000  -0.000000  -0.001329
    33  H   -0.000014   0.000005   0.000009  -0.000000  -0.000001   0.000013
    34  H    0.000000   0.000000   0.000083  -0.000000  -0.000001   0.000000
    35  H   -0.000000  -0.000000  -0.000002   0.000026  -0.000007   0.000000
    36  H    0.000000   0.000000   0.000000   0.000001   0.000007   0.000000
    37  H    0.000001  -0.000000   0.000000  -0.000000  -0.000000   0.000000
    38  H    0.000000  -0.000000  -0.000000  -0.000000   0.000000  -0.000000
    39  H   -0.001231   0.000027   0.000000  -0.000000   0.000000  -0.000064
    40  H    0.362131  -0.037080   0.000000  -0.000000   0.000002  -0.005015
    41  H    0.365674  -0.028981   0.000000   0.000000  -0.000009   0.003168
    42  Ni   0.000010   0.010615  -0.009660  -0.000039   0.001626  -0.004520
    43  F   -0.000003   0.000000  -0.000214  -0.000000   0.000000  -0.000024
    44  F   -0.000001  -0.000001  -0.000105   0.000000   0.000000  -0.000008
              31         32         33         34         35         36
     1  N   -0.000000   0.000001  -0.000307  -0.000122  -0.000012   0.000000
     2  C    0.000000   0.000003   0.000116   0.002205  -0.000027  -0.000000
     3  C    0.000000  -0.000000   0.000001  -0.000143   0.000102   0.000001
     4  C    0.000000  -0.000000  -0.000000   0.000013   0.000063  -0.000000
     5  F    0.000000  -0.000000   0.000000  -0.000001   0.000000  -0.000000
     6  F    0.000000   0.000000   0.000000   0.000000   0.000000   0.000000
     7  F   -0.000000  -0.000000  -0.000000   0.000040   0.000588  -0.000000
     8  C    0.000000   0.000000   0.000004   0.000049   0.000322  -0.000002
     9  C   -0.000000   0.000001   0.000026  -0.000144  -0.000118  -0.000009
    10  C    0.000010  -0.000020   0.000079  -0.000326   0.000008   0.000002
    11  C    0.000130  -0.000488   0.000289   0.000059   0.000001  -0.000001
    12  N    0.004363  -0.003044  -0.002958  -0.000012   0.000000  -0.000000
    13  C   -0.032880  -0.035826  -0.000404  -0.000001   0.000000  -0.000000
    14  C    0.350151   0.340071  -0.000357   0.000006  -0.000000   0.000002
    15  C   -0.035401  -0.019328  -0.013694  -0.000192   0.000012  -0.000153
    16  C    0.003449  -0.005986  -0.028074   0.004322   0.000918   0.004842
    17  C    0.000223   0.002254   0.259482  -0.031834   0.004884   0.000224
    18  C   -0.000003   0.000043  -0.046043   0.351675  -0.042048   0.004640
    19  C    0.000000   0.000005   0.005856  -0.045665   0.354854  -0.047025
    20  C    0.000002  -0.000006  -0.000303   0.004248  -0.039024   0.355809
    21  C   -0.000099  -0.000192   0.005320   0.000801   0.002890  -0.042616
    22  C   -0.000012   0.000018  -0.000073   0.000008  -0.000186  -0.009296
    23  C    0.000274  -0.000187  -0.000000  -0.000000   0.000003   0.000270
    24  C   -0.004743   0.003243  -0.000055   0.000003  -0.000000   0.000001
    25  C   -0.001088   0.004738  -0.000014   0.000000  -0.000000   0.000000
    26  O   -0.000078  -0.000117   0.000005   0.000000  -0.000000   0.000000
    27  H    0.000000   0.000000   0.000009   0.000083  -0.000002   0.000000
    28  H   -0.000000   0.000000  -0.000000  -0.000000   0.000026   0.000001
    29  H   -0.000000  -0.000000  -0.000001  -0.000001  -0.000007   0.000007
    30  H   -0.003928  -0.001329   0.000013   0.000000   0.000000   0.000000
    31  H    0.576971  -0.023266  -0.000006  -0.000000  -0.000000  -0.000000
    32  H   -0.023266   0.511231   0.007945  -0.000012   0.000000  -0.000000
    33  H   -0.000006   0.007945   0.541216  -0.005082  -0.000141   0.000012
    34  H   -0.000000  -0.000012  -0.005082   0.572535  -0.004493  -0.000175
    35  H   -0.000000   0.000000  -0.000141  -0.004493   0.596696  -0.005556
    36  H   -0.000000  -0.000000   0.000012  -0.000175  -0.005556   0.605918
    37  H   -0.000000  -0.000000   0.000001  -0.000000  -0.000014   0.006738
    38  H   -0.000010   0.000002   0.000000  -0.000000  -0.000000  -0.000011
    39  H    0.006673   0.000124  -0.000007  -0.000000   0.000000  -0.000000
    40  H   -0.000178  -0.000110   0.000000   0.000000  -0.000000   0.000000
    41  H    0.000851   0.000223  -0.000002  -0.000000   0.000000  -0.000000
    42  Ni   0.000740  -0.001491  -0.013359   0.000125   0.000360   0.000030
    43  F   -0.000000  -0.000004  -0.000002  -0.000000   0.000000   0.000000
    44  F    0.000012   0.006623   0.070233   0.001602   0.000000  -0.000000
              37         38         39         40         41         42
     1  N   -0.000000  -0.000000  -0.000000   0.000003   0.000003   0.087836
     2  C    0.000000  -0.000000  -0.000000  -0.000000  -0.000000  -0.025279
     3  C   -0.000000   0.000000   0.000000  -0.000000  -0.000000   0.004070
     4  C    0.000000   0.000000   0.000000  -0.000000  -0.000000  -0.001342
     5  F    0.000000  -0.000000  -0.000000  -0.000000  -0.000000   0.002767
     6  F   -0.000000  -0.000000  -0.000000  -0.000000  -0.000000   0.000902
     7  F    0.000000   0.000000   0.000000  -0.000000   0.000000   0.003162
     8  C   -0.000000   0.000000  -0.000000   0.000000  -0.000000  -0.005011
     9  C   -0.000001   0.000000   0.000000   0.000008  -0.000007   0.003941
    10  C    0.000000  -0.000000   0.000000  -0.000159  -0.000047  -0.038769
    11  C   -0.000000  -0.000001   0.000018   0.001974   0.003976  -0.052870
    12  N    0.000000   0.000000   0.000011   0.001276   0.003578   0.113462
    13  C    0.000000  -0.000002   0.000503  -0.030295  -0.031517  -0.010952
    14  C    0.000011  -0.000186  -0.008852   0.004414  -0.006566   0.005360
    15  C    0.000657   0.003397  -0.044008   0.000718   0.000368  -0.002088
    16  C    0.004697   0.001209   0.004124  -0.000005  -0.000140   0.001575
    17  C   -0.000193   0.000015  -0.000186  -0.000007  -0.000029   0.014685
    18  C    0.000021  -0.000000   0.000003   0.000000   0.000001   0.003549
    19  C    0.000186   0.000003  -0.000000   0.000000   0.000000   0.000329
    20  C   -0.008412  -0.000213   0.000009  -0.000000   0.000001   0.000614
    21  C   -0.041689   0.002465   0.000812  -0.000003  -0.000085   0.000716
    22  C    0.353814  -0.035406   0.004452  -0.000002  -0.000047  -0.000328
    23  C   -0.045002   0.354802  -0.041834   0.000001   0.000953  -0.000146
    24  C    0.004507  -0.038454   0.351693   0.000152   0.012815   0.000577
    25  C    0.000001   0.000000  -0.001231   0.362131   0.365674   0.000010
    26  O   -0.000000  -0.000000   0.000027  -0.037080  -0.028981   0.010615
    27  H    0.000000  -0.000000   0.000000   0.000000   0.000000  -0.009660
    28  H   -0.000000  -0.000000  -0.000000  -0.000000   0.000000  -0.000039
    29  H   -0.000000   0.000000   0.000000   0.000002  -0.000009   0.001626
    30  H    0.000000  -0.000000  -0.000064  -0.005015   0.003168  -0.004520
    31  H   -0.000000  -0.000010   0.006673  -0.000178   0.000851   0.000740
    32  H   -0.000000   0.000002   0.000124  -0.000110   0.000223  -0.001491
    33  H    0.000001   0.000000  -0.000007   0.000000  -0.000002  -0.013359
    34  H   -0.000000  -0.000000  -0.000000   0.000000  -0.000000   0.000125
    35  H   -0.000014  -0.000000   0.000000  -0.000000   0.000000   0.000360
    36  H    0.006738  -0.000011  -0.000000   0.000000  -0.000000   0.000030
    37  H    0.599719  -0.005033  -0.000198  -0.000000  -0.000001   0.000047
    38  H   -0.005033   0.590642  -0.004834   0.000000  -0.000018   0.000021
    39  H   -0.000198  -0.004834   0.608980  -0.000000   0.002113   0.000189
    40  H   -0.000000   0.000000  -0.000000   0.553751  -0.035432   0.000957
    41  H   -0.000001  -0.000018   0.002113  -0.035432   0.520755   0.000072
    42  Ni   0.000047   0.000021   0.000189   0.000957   0.000072  16.783629
    43  F   -0.000000   0.000000   0.000000  -0.000000   0.000000   0.250104
    44  F   -0.000000  -0.000000   0.000000   0.000000   0.000000   0.214506
              43         44
     1  N   -0.003941  -0.002211
     2  C   -0.000532  -0.000352
     3  C    0.000003  -0.000009
     4  C    0.000000   0.000000
     5  F   -0.000000  -0.000000
     6  F   -0.000000  -0.000000
     7  F   -0.000000  -0.000000
     8  C   -0.000001   0.000000
     9  C   -0.000002  -0.000005
    10  C   -0.000771  -0.000213
    11  C   -0.000648  -0.000651
    12  N   -0.001801  -0.005570
    13  C   -0.000061   0.000253
    14  C   -0.000000  -0.001867
    15  C   -0.000000  -0.000102
    16  C   -0.000000   0.001210
    17  C   -0.000001  -0.029880
    18  C   -0.000000  -0.002052
    19  C   -0.000000   0.000016
    20  C    0.000000  -0.000001
    21  C   -0.000000   0.000004
    22  C   -0.000000   0.000000
    23  C    0.000000  -0.000000
    24  C    0.000000  -0.000001
    25  C   -0.000003  -0.000001
    26  O    0.000000  -0.000001
    27  H   -0.000214  -0.000105
    28  H   -0.000000   0.000000
    29  H    0.000000   0.000000
    30  H   -0.000024  -0.000008
    31  H   -0.000000   0.000012
    32  H   -0.000004   0.006623
    33  H   -0.000002   0.070233
    34  H   -0.000000   0.001602
    35  H    0.000000   0.000000
    36  H    0.000000  -0.000000
    37  H   -0.000000  -0.000000
    38  H    0.000000  -0.000000
    39  H    0.000000   0.000000
    40  H   -0.000000   0.000000
    41  H    0.000000   0.000000
    42  Ni   0.250104   0.214506
    43  F    9.234920  -0.000252
    44  F   -0.000252   9.218549
          Atomic-Atomic Spin Densities.
               1          2          3          4          5          6
     1  N    0.120456  -0.005919   0.000727   0.000019   0.000000  -0.000000
     2  C   -0.005919  -0.008310  -0.000508   0.000131   0.000021  -0.000002
     3  C    0.000727  -0.000508   0.007923  -0.001186   0.000020   0.000022
     4  C    0.000019   0.000131  -0.001186   0.001847   0.000007  -0.000274
     5  F    0.000000   0.000021   0.000020   0.000007  -0.000034  -0.000001
     6  F   -0.000000  -0.000002   0.000022  -0.000274  -0.000001   0.000372
     7  F   -0.000000  -0.000009   0.000040  -0.000180  -0.000000   0.000017
     8  C   -0.000099   0.000231   0.000900  -0.000117  -0.000001   0.000012
     9  C    0.000110  -0.001281   0.000668  -0.000050   0.000000  -0.000000
    10  C   -0.000163   0.002683  -0.001331   0.000081  -0.000000  -0.000001
    11  C   -0.004199   0.000265  -0.000083   0.000001  -0.000000  -0.000000
    12  N   -0.000590  -0.000060  -0.000003   0.000000  -0.000000  -0.000000
    13  C   -0.000001   0.000002   0.000000  -0.000000   0.000000   0.000000
    14  C    0.000001  -0.000000   0.000000   0.000000   0.000000   0.000000
    15  C   -0.000003   0.000000  -0.000000   0.000000  -0.000000  -0.000000
    16  C   -0.000034   0.000005  -0.000000   0.000000  -0.000000  -0.000000
    17  C   -0.000070  -0.000002  -0.000000  -0.000000  -0.000000  -0.000000
    18  C   -0.000007   0.000003   0.000021  -0.000002   0.000000   0.000000
    19  C    0.000005  -0.000003  -0.000001   0.000000  -0.000000  -0.000000
    20  C   -0.000000   0.000001   0.000000   0.000000  -0.000000  -0.000000
    21  C    0.000001  -0.000001  -0.000000  -0.000000   0.000000   0.000000
    22  C    0.000000  -0.000000  -0.000000  -0.000000   0.000000   0.000000
    23  C   -0.000000   0.000000   0.000000   0.000000  -0.000000  -0.000000
    24  C    0.000000   0.000000  -0.000000  -0.000000  -0.000000   0.000000
    25  C   -0.000014  -0.000000  -0.000000   0.000000  -0.000000  -0.000000
    26  O   -0.000006  -0.000002   0.000000  -0.000000  -0.000000   0.000000
    27  H   -0.002862   0.000871  -0.001707   0.000262  -0.000023  -0.000003
    28  H    0.000004  -0.000022   0.000024  -0.000029  -0.000000   0.000003
    29  H    0.000009   0.000041  -0.000009   0.000002  -0.000000  -0.000000
    30  H   -0.000001   0.000000  -0.000000   0.000000  -0.000000  -0.000000
    31  H    0.000000  -0.000000   0.000000  -0.000000  -0.000000   0.000000
    32  H    0.000001  -0.000000   0.000000   0.000000  -0.000000   0.000000
    33  H    0.000163  -0.000020   0.000000  -0.000000   0.000000   0.000000
    34  H   -0.000084   0.000007  -0.000009   0.000003  -0.000000  -0.000000
    35  H    0.000000  -0.000000  -0.000001  -0.000000  -0.000000   0.000000
    36  H   -0.000000   0.000000   0.000000   0.000000   0.000000  -0.000000
    37  H   -0.000000  -0.000000  -0.000000  -0.000000   0.000000   0.000000
    38  H   -0.000000   0.000000   0.000000   0.000000   0.000000  -0.000000
    39  H    0.000000  -0.000000  -0.000000  -0.000000   0.000000   0.000000
    40  H    0.000000  -0.000000  -0.000000  -0.000000   0.000000   0.000000
    41  H    0.000000   0.000000   0.000000  -0.000000   0.000000   0.000000
    42  Ni  -0.045872   0.001992  -0.000132  -0.000010  -0.000000  -0.000006
    43  F   -0.001639   0.000063  -0.000001   0.000000  -0.000000  -0.000000
    44  F   -0.001023   0.000045  -0.000000   0.000000  -0.000000  -0.000000
               7          8          9         10         11         12
     1  N   -0.000000  -0.000099   0.000110  -0.000163  -0.004199  -0.000590
     2  C   -0.000009   0.000231  -0.001281   0.002683   0.000265  -0.000060
     3  C    0.000040   0.000900   0.000668  -0.001331  -0.000083  -0.000003
     4  C   -0.000180  -0.000117  -0.000050   0.000081   0.000001   0.000000
     5  F   -0.000000  -0.000001   0.000000  -0.000000  -0.000000  -0.000000
     6  F    0.000017   0.000012  -0.000000  -0.000001  -0.000000  -0.000000
     7  F    0.000225   0.000008   0.000000  -0.000001  -0.000000  -0.000000
     8  C    0.000008  -0.009317   0.000311  -0.000334  -0.000048   0.000000
     9  C    0.000000   0.000311   0.009552  -0.001512  -0.002885  -0.000016
    10  C   -0.000001  -0.000334  -0.001512   0.000907  -0.004572  -0.002502
    11  C   -0.000000  -0.000048  -0.002885  -0.004572  -0.003642   0.001077
    12  N   -0.000000   0.000000  -0.000016  -0.002502   0.001077   0.113776
    13  C    0.000000  -0.000000  -0.000007   0.000461   0.003668  -0.008123
    14  C   -0.000000  -0.000000  -0.000000  -0.000027  -0.000059  -0.000172
    15  C   -0.000000  -0.000000  -0.000006   0.000009   0.000164  -0.000143
    16  C   -0.000000  -0.000002  -0.000061  -0.000049   0.000136   0.000176
    17  C    0.000000   0.000002   0.000064   0.000178  -0.000011  -0.000514
    18  C    0.000000  -0.000004  -0.000020   0.000043   0.000024  -0.000043
    19  C   -0.000000   0.000003   0.000020  -0.000013  -0.000008   0.000001
    20  C   -0.000000  -0.000001  -0.000010   0.000003   0.000006  -0.000000
    21  C    0.000000   0.000001   0.000017  -0.000019  -0.000034   0.000005
    22  C    0.000000   0.000000   0.000001   0.000001  -0.000001   0.000000
    23  C   -0.000000   0.000000  -0.000000  -0.000000  -0.000001  -0.000000
    24  C    0.000000   0.000000   0.000000   0.000001  -0.000002   0.000002
    25  C   -0.000000  -0.000000  -0.000015  -0.000286  -0.002238   0.000336
    26  O   -0.000000  -0.000000   0.000031  -0.000897  -0.000675  -0.000571
    27  H   -0.000007  -0.000052  -0.000067   0.000245   0.000022  -0.000004
    28  H    0.000001   0.000090   0.000018  -0.000033  -0.000002   0.000000
    29  H   -0.000000  -0.000096  -0.000785   0.000246   0.000322  -0.000003
    30  H    0.000000  -0.000000  -0.000000   0.000006   0.000058  -0.000718
    31  H    0.000000  -0.000000   0.000000   0.000000  -0.000001   0.000013
    32  H    0.000000  -0.000000   0.000000   0.000001  -0.000038   0.000021
    33  H    0.000000   0.000001   0.000005  -0.000051  -0.000136   0.000450
    34  H   -0.000001  -0.000004  -0.000012   0.000016   0.000007  -0.000003
    35  H    0.000000   0.000001   0.000001  -0.000001  -0.000000   0.000000
    36  H   -0.000000  -0.000000  -0.000000   0.000000   0.000000  -0.000000
    37  H    0.000000  -0.000000   0.000000   0.000000   0.000000   0.000000
    38  H   -0.000000  -0.000000  -0.000000  -0.000000   0.000000  -0.000000
    39  H    0.000000   0.000000   0.000000   0.000000   0.000000   0.000000
    40  H   -0.000000   0.000000   0.000000   0.000003  -0.000041   0.000003
    41  H    0.000000  -0.000000  -0.000000   0.000014   0.000214   0.000040
    42  Ni  -0.000001   0.000152  -0.000140   0.002013   0.002867  -0.041010
    43  F   -0.000000  -0.000000  -0.000002   0.000013   0.000015  -0.000636
    44  F   -0.000000  -0.000000  -0.000002   0.000005  -0.000011  -0.001785
              13         14         15         16         17         18
     1  N   -0.000001   0.000001  -0.000003  -0.000034  -0.000070  -0.000007
     2  C    0.000002  -0.000000   0.000000   0.000005  -0.000002   0.000003
     3  C    0.000000   0.000000  -0.000000  -0.000000  -0.000000   0.000021
     4  C   -0.000000   0.000000   0.000000   0.000000  -0.000000  -0.000002
     5  F    0.000000   0.000000  -0.000000  -0.000000  -0.000000   0.000000
     6  F    0.000000   0.000000  -0.000000  -0.000000  -0.000000   0.000000
     7  F    0.000000  -0.000000  -0.000000  -0.000000   0.000000   0.000000
     8  C   -0.000000  -0.000000  -0.000000  -0.000002   0.000002  -0.000004
     9  C   -0.000007  -0.000000  -0.000006  -0.000061   0.000064  -0.000020
    10  C    0.000461  -0.000027   0.000009  -0.000049   0.000178   0.000043
    11  C    0.003668  -0.000059   0.000164   0.000136  -0.000011   0.000024
    12  N   -0.008123  -0.000172  -0.000143   0.000176  -0.000514  -0.000043
    13  C    0.007059   0.000017   0.000390  -0.000132   0.000130   0.000008
    14  C    0.000017   0.000479  -0.000349   0.000056  -0.000106  -0.000009
    15  C    0.000390  -0.000349   0.000384  -0.000039  -0.000266   0.000017
    16  C   -0.000132   0.000056  -0.000039   0.000312  -0.000112   0.000225
    17  C    0.000130  -0.000106  -0.000266  -0.000112  -0.001073  -0.000265
    18  C    0.000008  -0.000009   0.000017   0.000225  -0.000265  -0.000261
    19  C   -0.000000   0.000001  -0.000004  -0.000132   0.000124  -0.000047
    20  C    0.000000  -0.000001   0.000014   0.000136  -0.000084   0.000084
    21  C   -0.000013   0.000026   0.000044  -0.000323   0.000203  -0.000105
    22  C    0.000000  -0.000003  -0.000037   0.000011   0.000012  -0.000003
    23  C   -0.000001   0.000007   0.000033  -0.000036  -0.000002  -0.000000
    24  C    0.000009  -0.000047   0.000053   0.000065  -0.000003   0.000001
    25  C   -0.004045   0.000274  -0.000206   0.000023  -0.000033  -0.000001
    26  O   -0.001812   0.000070  -0.000066   0.000005  -0.000012  -0.000003
    27  H    0.000000  -0.000000   0.000000   0.000000   0.000001  -0.000013
    28  H   -0.000000   0.000000  -0.000000  -0.000000   0.000000  -0.000000
    29  H    0.000001  -0.000000   0.000001   0.000006  -0.000007   0.000003
    30  H    0.000903  -0.000043   0.000020  -0.000002   0.000001   0.000000
    31  H    0.000000  -0.000063   0.000023   0.000005  -0.000003  -0.000000
    32  H    0.000046   0.000323  -0.000077   0.000023  -0.000005  -0.000002
    33  H   -0.000108   0.000067   0.000020  -0.000415   0.001560   0.000134
    34  H    0.000000  -0.000000   0.000002   0.000015  -0.000019   0.000100
    35  H   -0.000000   0.000000  -0.000000  -0.000002   0.000002  -0.000004
    36  H    0.000000  -0.000000  -0.000000   0.000002  -0.000000   0.000000
    37  H    0.000000  -0.000000  -0.000001  -0.000000   0.000000  -0.000000
    38  H   -0.000000   0.000000  -0.000000  -0.000000   0.000000   0.000000
    39  H   -0.000001  -0.000001   0.000001   0.000000   0.000000   0.000000
    40  H    0.000133  -0.000009  -0.000001   0.000000  -0.000000  -0.000000
    41  H    0.000256  -0.000067   0.000014   0.000002   0.000003   0.000000
    42  Ni   0.001938   0.000063  -0.000025   0.000106  -0.000183  -0.000022
    43  F    0.000018  -0.000000   0.000000   0.000000   0.000000  -0.000000
    44  F    0.000078   0.000002   0.000005   0.000000   0.000397   0.000009
              19         20         21         22         23         24
     1  N    0.000005  -0.000000   0.000001   0.000000  -0.000000   0.000000
     2  C   -0.000003   0.000001  -0.000001  -0.000000   0.000000   0.000000
     3  C   -0.000001   0.000000  -0.000000  -0.000000   0.000000  -0.000000
     4  C    0.000000   0.000000  -0.000000  -0.000000   0.000000  -0.000000
     5  F   -0.000000  -0.000000   0.000000   0.000000  -0.000000  -0.000000
     6  F   -0.000000  -0.000000   0.000000   0.000000  -0.000000   0.000000
     7  F   -0.000000  -0.000000   0.000000   0.000000  -0.000000   0.000000
     8  C    0.000003  -0.000001   0.000001   0.000000   0.000000   0.000000
     9  C    0.000020  -0.000010   0.000017   0.000001  -0.000000   0.000000
    10  C   -0.000013   0.000003  -0.000019   0.000001  -0.000000   0.000001
    11  C   -0.000008   0.000006  -0.000034  -0.000001  -0.000001  -0.000002
    12  N    0.000001  -0.000000   0.000005   0.000000  -0.000000   0.000002
    13  C   -0.000000   0.000000  -0.000013   0.000000  -0.000001   0.000009
    14  C    0.000001  -0.000001   0.000026  -0.000003   0.000007  -0.000047
    15  C   -0.000004   0.000014   0.000044  -0.000037   0.000033   0.000053
    16  C   -0.000132   0.000136  -0.000323   0.000011  -0.000036   0.000065
    17  C    0.000124  -0.000084   0.000203   0.000012  -0.000002  -0.000003
    18  C   -0.000047   0.000084  -0.000105  -0.000003  -0.000000   0.000001
    19  C    0.000128  -0.000107   0.000104   0.000004   0.000000  -0.000000
    20  C   -0.000107  -0.000055  -0.000133  -0.000018   0.000001  -0.000000
    21  C    0.000104  -0.000133   0.000260  -0.000007   0.000016  -0.000038
    22  C    0.000004  -0.000018  -0.000007   0.000049  -0.000009   0.000015
    23  C    0.000000   0.000001   0.000016  -0.000009   0.000003  -0.000031
    24  C   -0.000000  -0.000000  -0.000038   0.000015  -0.000031   0.000031
    25  C    0.000000   0.000000   0.000007  -0.000001   0.000003  -0.000022
    26  O    0.000000  -0.000000   0.000006   0.000000   0.000000   0.000006
    27  H   -0.000000   0.000000  -0.000000  -0.000000   0.000000  -0.000000
    28  H    0.000000  -0.000000   0.000000   0.000000  -0.000000   0.000000
    29  H   -0.000003   0.000006  -0.000006  -0.000001   0.000000  -0.000000
    30  H   -0.000000   0.000000  -0.000000  -0.000000   0.000000   0.000000
    31  H    0.000000  -0.000000   0.000000  -0.000000  -0.000000  -0.000007
    32  H   -0.000000   0.000000   0.000002  -0.000000   0.000001  -0.000003
    33  H   -0.000005   0.000001  -0.000005   0.000000  -0.000000   0.000002
    34  H   -0.000074   0.000008  -0.000006  -0.000000  -0.000000   0.000000
    35  H    0.000008  -0.000006   0.000002   0.000000   0.000000  -0.000000
    36  H   -0.000003   0.000002  -0.000001  -0.000001  -0.000000   0.000000
    37  H    0.000000  -0.000001  -0.000004   0.000005  -0.000000   0.000001
    38  H   -0.000000   0.000000   0.000000   0.000001   0.000001  -0.000000
    39  H   -0.000000  -0.000000  -0.000000   0.000000   0.000001   0.000002
    40  H    0.000000   0.000000  -0.000000   0.000000  -0.000000   0.000001
    41  H   -0.000000  -0.000000  -0.000004   0.000002  -0.000006   0.000009
    42  Ni   0.000041  -0.000002   0.000000  -0.000002  -0.000003  -0.000008
    43  F   -0.000000   0.000000  -0.000000  -0.000000   0.000000   0.000000
    44  F   -0.000000   0.000000  -0.000000  -0.000000   0.000000   0.000000
              25         26         27         28         29         30
     1  N   -0.000014  -0.000006  -0.002862   0.000004   0.000009  -0.000001
     2  C   -0.000000  -0.000002   0.000871  -0.000022   0.000041   0.000000
     3  C   -0.000000   0.000000  -0.001707   0.000024  -0.000009  -0.000000
     4  C    0.000000  -0.000000   0.000262  -0.000029   0.000002   0.000000
     5  F   -0.000000  -0.000000  -0.000023  -0.000000  -0.000000  -0.000000
     6  F   -0.000000   0.000000  -0.000003   0.000003  -0.000000  -0.000000
     7  F   -0.000000  -0.000000  -0.000007   0.000001  -0.000000   0.000000
     8  C   -0.000000  -0.000000  -0.000052   0.000090  -0.000096  -0.000000
     9  C   -0.000015   0.000031  -0.000067   0.000018  -0.000785  -0.000000
    10  C   -0.000286  -0.000897   0.000245  -0.000033   0.000246   0.000006
    11  C   -0.002238  -0.000675   0.000022  -0.000002   0.000322   0.000058
    12  N    0.000336  -0.000571  -0.000004   0.000000  -0.000003  -0.000718
    13  C   -0.004045  -0.001812   0.000000  -0.000000   0.000001   0.000903
    14  C    0.000274   0.000070  -0.000000   0.000000  -0.000000  -0.000043
    15  C   -0.000206  -0.000066   0.000000  -0.000000   0.000001   0.000020
    16  C    0.000023   0.000005   0.000000  -0.000000   0.000006  -0.000002
    17  C   -0.000033  -0.000012   0.000001   0.000000  -0.000007   0.000001
    18  C   -0.000001  -0.000003  -0.000013  -0.000000   0.000003   0.000000
    19  C    0.000000   0.000000  -0.000000   0.000000  -0.000003  -0.000000
    20  C    0.000000  -0.000000   0.000000  -0.000000   0.000006   0.000000
    21  C    0.000007   0.000006  -0.000000   0.000000  -0.000006  -0.000000
    22  C   -0.000001   0.000000  -0.000000   0.000000  -0.000001  -0.000000
    23  C    0.000003   0.000000   0.000000  -0.000000   0.000000   0.000000
    24  C   -0.000022   0.000006  -0.000000   0.000000  -0.000000   0.000000
    25  C    0.009350   0.001789   0.000000  -0.000000   0.000003  -0.000604
    26  O    0.001789   0.000881  -0.000000   0.000000  -0.000033  -0.000041
    27  H    0.000000  -0.000000   0.005247  -0.000002   0.000001   0.000000
    28  H   -0.000000   0.000000  -0.000002   0.000280  -0.000015  -0.000000
    29  H    0.000003  -0.000033   0.000001  -0.000015   0.000825   0.000000
    30  H   -0.000604  -0.000041   0.000000  -0.000000   0.000000   0.000568
    31  H    0.000006   0.000000  -0.000000   0.000000  -0.000000   0.000027
    32  H   -0.000009   0.000001  -0.000000   0.000000  -0.000000  -0.000040
    33  H    0.000007   0.000005  -0.000002   0.000000  -0.000000  -0.000003
    34  H   -0.000000  -0.000000   0.000027  -0.000000   0.000000   0.000000
    35  H    0.000000   0.000000  -0.000000   0.000000  -0.000000  -0.000000
    36  H   -0.000000  -0.000000   0.000000  -0.000000   0.000000   0.000000
    37  H   -0.000000   0.000000  -0.000000   0.000000  -0.000000   0.000000
    38  H    0.000000  -0.000000   0.000000  -0.000000   0.000000   0.000000
    39  H   -0.000001   0.000000  -0.000000   0.000000  -0.000000  -0.000000
    40  H   -0.000146   0.000060  -0.000000  -0.000000  -0.000000   0.000027
    41  H   -0.000773  -0.000190   0.000000  -0.000000  -0.000000   0.000034
    42  Ni   0.000134  -0.000031   0.000824  -0.000002  -0.000022   0.000258
    43  F   -0.000001  -0.000000   0.000066  -0.000000   0.000000   0.000004
    44  F   -0.000001  -0.000000   0.000040  -0.000000   0.000000   0.000004
              31         32         33         34         35         36
     1  N    0.000000   0.000001   0.000163  -0.000084   0.000000  -0.000000
     2  C   -0.000000  -0.000000  -0.000020   0.000007  -0.000000   0.000000
     3  C    0.000000   0.000000   0.000000  -0.000009  -0.000001   0.000000
     4  C   -0.000000   0.000000  -0.000000   0.000003  -0.000000   0.000000
     5  F   -0.000000  -0.000000   0.000000  -0.000000  -0.000000   0.000000
     6  F    0.000000   0.000000   0.000000  -0.000000   0.000000  -0.000000
     7  F    0.000000   0.000000   0.000000  -0.000001   0.000000  -0.000000
     8  C   -0.000000  -0.000000   0.000001  -0.000004   0.000001  -0.000000
     9  C    0.000000   0.000000   0.000005  -0.000012   0.000001  -0.000000
    10  C    0.000000   0.000001  -0.000051   0.000016  -0.000001   0.000000
    11  C   -0.000001  -0.000038  -0.000136   0.000007  -0.000000   0.000000
    12  N    0.000013   0.000021   0.000450  -0.000003   0.000000  -0.000000
    13  C    0.000000   0.000046  -0.000108   0.000000  -0.000000   0.000000
    14  C   -0.000063   0.000323   0.000067  -0.000000   0.000000  -0.000000
    15  C    0.000023  -0.000077   0.000020   0.000002  -0.000000  -0.000000
    16  C    0.000005   0.000023  -0.000415   0.000015  -0.000002   0.000002
    17  C   -0.000003  -0.000005   0.001560  -0.000019   0.000002  -0.000000
    18  C   -0.000000  -0.000002   0.000134   0.000100  -0.000004   0.000000
    19  C    0.000000  -0.000000  -0.000005  -0.000074   0.000008  -0.000003
    20  C   -0.000000   0.000000   0.000001   0.000008  -0.000006   0.000002
    21  C    0.000000   0.000002  -0.000005  -0.000006   0.000002  -0.000001
    22  C   -0.000000  -0.000000   0.000000  -0.000000   0.000000  -0.000001
    23  C   -0.000000   0.000001  -0.000000  -0.000000   0.000000  -0.000000
    24  C   -0.000007  -0.000003   0.000002   0.000000  -0.000000   0.000000
    25  C    0.000006  -0.000009   0.000007  -0.000000   0.000000  -0.000000
    26  O    0.000000   0.000001   0.000005  -0.000000   0.000000  -0.000000
    27  H   -0.000000  -0.000000  -0.000002   0.000027  -0.000000   0.000000
    28  H    0.000000   0.000000   0.000000  -0.000000   0.000000  -0.000000
    29  H   -0.000000  -0.000000  -0.000000   0.000000  -0.000000   0.000000
    30  H    0.000027  -0.000040  -0.000003   0.000000  -0.000000   0.000000
    31  H    0.000016   0.000001   0.000001  -0.000000   0.000000  -0.000000
    32  H    0.000001  -0.000509  -0.000060  -0.000000  -0.000000   0.000000
    33  H    0.000001  -0.000060  -0.001608  -0.000084  -0.000000   0.000000
    34  H   -0.000000  -0.000000  -0.000084  -0.000002  -0.000005   0.000000
    35  H    0.000000  -0.000000  -0.000000  -0.000005   0.000004  -0.000000
    36  H   -0.000000   0.000000   0.000000   0.000000  -0.000000   0.000008
    37  H   -0.000000  -0.000000   0.000000  -0.000000   0.000000  -0.000000
    38  H   -0.000000   0.000000  -0.000000  -0.000000   0.000000   0.000000
    39  H   -0.000000  -0.000000  -0.000000  -0.000000  -0.000000   0.000000
    40  H   -0.000000   0.000000   0.000000  -0.000000   0.000000  -0.000000
    41  H   -0.000001   0.000000  -0.000001   0.000000  -0.000000   0.000000
    42  Ni   0.000025   0.000225   0.000644   0.000104  -0.000001   0.000001
    43  F    0.000000   0.000000  -0.000000   0.000000  -0.000000   0.000000
    44  F    0.000000  -0.000045  -0.001043   0.000015  -0.000000   0.000000
              37         38         39         40         41         42
     1  N   -0.000000  -0.000000   0.000000   0.000000   0.000000  -0.045872
     2  C   -0.000000   0.000000  -0.000000  -0.000000   0.000000   0.001992
     3  C   -0.000000   0.000000  -0.000000  -0.000000   0.000000  -0.000132
     4  C   -0.000000   0.000000  -0.000000  -0.000000  -0.000000  -0.000010
     5  F    0.000000   0.000000   0.000000   0.000000   0.000000  -0.000000
     6  F    0.000000  -0.000000   0.000000   0.000000   0.000000  -0.000006
     7  F    0.000000  -0.000000   0.000000  -0.000000   0.000000  -0.000001
     8  C   -0.000000  -0.000000   0.000000   0.000000  -0.000000   0.000152
     9  C    0.000000  -0.000000   0.000000   0.000000  -0.000000  -0.000140
    10  C    0.000000  -0.000000   0.000000   0.000003   0.000014   0.002013
    11  C    0.000000   0.000000   0.000000  -0.000041   0.000214   0.002867
    12  N    0.000000  -0.000000   0.000000   0.000003   0.000040  -0.041010
    13  C    0.000000  -0.000000  -0.000001   0.000133   0.000256   0.001938
    14  C   -0.000000   0.000000  -0.000001  -0.000009  -0.000067   0.000063
    15  C   -0.000001  -0.000000   0.000001  -0.000001   0.000014  -0.000025
    16  C   -0.000000  -0.000000   0.000000   0.000000   0.000002   0.000106
    17  C    0.000000   0.000000   0.000000  -0.000000   0.000003  -0.000183
    18  C   -0.000000   0.000000   0.000000  -0.000000   0.000000  -0.000022
    19  C    0.000000  -0.000000  -0.000000   0.000000  -0.000000   0.000041
    20  C   -0.000001   0.000000  -0.000000   0.000000  -0.000000  -0.000002
    21  C   -0.000004   0.000000  -0.000000  -0.000000  -0.000004   0.000000
    22  C    0.000005   0.000001   0.000000   0.000000   0.000002  -0.000002
    23  C   -0.000000   0.000001   0.000001  -0.000000  -0.000006  -0.000003
    24  C    0.000001  -0.000000   0.000002   0.000001   0.000009  -0.000008
    25  C   -0.000000   0.000000  -0.000001  -0.000146  -0.000773   0.000134
    26  O    0.000000  -0.000000   0.000000   0.000060  -0.000190  -0.000031
    27  H   -0.000000   0.000000  -0.000000  -0.000000   0.000000   0.000824
    28  H    0.000000  -0.000000   0.000000  -0.000000  -0.000000  -0.000002
    29  H   -0.000000   0.000000  -0.000000  -0.000000  -0.000000  -0.000022
    30  H    0.000000   0.000000  -0.000000   0.000027   0.000034   0.000258
    31  H   -0.000000  -0.000000  -0.000000  -0.000000  -0.000001   0.000025
    32  H   -0.000000   0.000000  -0.000000   0.000000   0.000000   0.000225
    33  H    0.000000  -0.000000  -0.000000   0.000000  -0.000001   0.000644
    34  H   -0.000000  -0.000000  -0.000000  -0.000000   0.000000   0.000104
    35  H    0.000000   0.000000  -0.000000   0.000000  -0.000000  -0.000001
    36  H   -0.000000   0.000000   0.000000  -0.000000   0.000000   0.000001
    37  H   -0.000002   0.000000   0.000000  -0.000000   0.000000   0.000000
    38  H    0.000000  -0.000000  -0.000000  -0.000000  -0.000000  -0.000000
    39  H    0.000000  -0.000000  -0.000004   0.000000   0.000002   0.000000
    40  H   -0.000000  -0.000000   0.000000  -0.000334   0.000047   0.000011
    41  H    0.000000  -0.000000   0.000002   0.000047   0.000738   0.000026
    42  Ni   0.000000  -0.000000   0.000000   0.000011   0.000026   1.874934
    43  F   -0.000000   0.000000   0.000000   0.000000   0.000000  -0.025131
    44  F    0.000000   0.000000  -0.000000   0.000000   0.000000  -0.017941
              43         44
     1  N   -0.001639  -0.001023
     2  C    0.000063   0.000045
     3  C   -0.000001  -0.000000
     4  C    0.000000   0.000000
     5  F   -0.000000  -0.000000
     6  F   -0.000000  -0.000000
     7  F   -0.000000  -0.000000
     8  C   -0.000000  -0.000000
     9  C   -0.000002  -0.000002
    10  C    0.000013   0.000005
    11  C    0.000015  -0.000011
    12  N   -0.000636  -0.001785
    13  C    0.000018   0.000078
    14  C   -0.000000   0.000002
    15  C    0.000000   0.000005
    16  C    0.000000   0.000000
    17  C    0.000000   0.000397
    18  C   -0.000000   0.000009
    19  C   -0.000000  -0.000000
    20  C    0.000000   0.000000
    21  C   -0.000000  -0.000000
    22  C   -0.000000  -0.000000
    23  C    0.000000   0.000000
    24  C    0.000000   0.000000
    25  C   -0.000001  -0.000001
    26  O   -0.000000  -0.000000
    27  H    0.000066   0.000040
    28  H   -0.000000  -0.000000
    29  H    0.000000   0.000000
    30  H    0.000004   0.000004
    31  H    0.000000   0.000000
    32  H    0.000000  -0.000045
    33  H   -0.000000  -0.001043
    34  H    0.000000   0.000015
    35  H   -0.000000  -0.000000
    36  H    0.000000   0.000000
    37  H   -0.000000   0.000000
    38  H    0.000000   0.000000
    39  H    0.000000  -0.000000
    40  H    0.000000   0.000000
    41  H    0.000000   0.000000
    42  Ni  -0.025131  -0.017941
    43  F    0.109677   0.000021
    44  F    0.000021   0.081205
 Mulliken charges and spin densities:
               1          2
     1  N   -0.550767   0.058911
     2  C    0.073463  -0.009780
     3  C   -0.053949   0.005374
     4  C    0.805367   0.000507
     5  F   -0.254167  -0.000011
     6  F   -0.262088   0.000140
     7  F   -0.248812   0.000095
     8  C   -0.122997  -0.008362
     9  C   -0.152291   0.003927
    10  C    0.361922  -0.004863
    11  C    0.614681  -0.009840
    12  N   -0.499217   0.059002
    13  C   -0.023774   0.000875
    14  C   -0.366444   0.000429
    15  C    0.104188  -0.000031
    16  C    0.054852  -0.000030
    17  C   -0.234082  -0.000093
    18  C   -0.169067  -0.000134
    19  C   -0.138534   0.000038
    20  C   -0.208512  -0.000155
    21  C    0.148266  -0.000003
    22  C   -0.194197   0.000021
    23  C   -0.128085  -0.000024
    24  C   -0.213984   0.000036
    25  C   -0.079953   0.003539
    26  O   -0.512542  -0.001485
    27  H    0.218402   0.002865
    28  H    0.185642   0.000317
    29  H    0.195832   0.000489
    30  H    0.183930   0.000458
    31  H    0.157843   0.000042
    32  H    0.214882  -0.000145
    33  H    0.220272  -0.000483
    34  H    0.150431   0.000004
    35  H    0.129898  -0.000003
    36  H    0.126348   0.000007
    37  H    0.130144  -0.000002
    38  H    0.131611   0.000001
    39  H    0.121483  -0.000002
    40  H    0.182899  -0.000244
    41  H    0.188331   0.000359
    42  Ni   0.659276   1.755815
    43  F   -0.476770   0.082467
    44  F   -0.469729   0.059973
 Sum of Mulliken charges =  -0.00000   2.00000
 Mulliken charges and spin densities with hydrogens summed into heavy atoms:
               1          2
     1  N   -0.550767   0.058911
     2  C    0.291865  -0.006915
     3  C   -0.053949   0.005374
     4  C    0.805367   0.000507
     5  F   -0.254167  -0.000011
     6  F   -0.262088   0.000140
     7  F   -0.248812   0.000095
     8  C    0.062645  -0.008045
     9  C    0.043541   0.004416
    10  C    0.361922  -0.004863
    11  C    0.614681  -0.009840
    12  N   -0.499217   0.059002
    13  C    0.160156   0.001333
    14  C    0.006281   0.000326
    15  C    0.104188  -0.000031
    16  C    0.054852  -0.000030
    17  C   -0.013810  -0.000576
    18  C   -0.018636  -0.000130
    19  C   -0.008636   0.000036
    20  C   -0.082164  -0.000148
    21  C    0.148266  -0.000003
    22  C   -0.064053   0.000019
    23  C    0.003526  -0.000023
    24  C   -0.092501   0.000034
    25  C    0.291277   0.003654
    26  O   -0.512542  -0.001485
    42  Ni   0.659276   1.755815
    43  F   -0.476770   0.082467
    44  F   -0.469729   0.059973
 Electronic spatial extent (au):  <R**2>=          10293.5024
 Charge=             -0.0000 electrons
 Dipole moment (field-independent basis, Debye):
    X=             -3.0455    Y=             -5.9022    Z=              5.4603  Tot=              8.5980
 Quadrupole moment (field-independent basis, Debye-Ang):
   XX=           -151.2092   YY=           -185.6501   ZZ=           -173.5959
   XY=            -12.8814   XZ=             -8.1035   YZ=             -0.1707
 Traceless Quadrupole moment (field-independent basis, Debye-Ang):
   XX=             18.9425   YY=            -15.4983   ZZ=             -3.4442
   XY=            -12.8814   XZ=             -8.1035   YZ=             -0.1707
 Octapole moment (field-independent basis, Debye-Ang**2):
  XXX=             10.4238  YYY=            -34.3787  ZZZ=             18.2793  XYY=            -10.2844
  XXY=             59.3100  XXZ=             20.9748  XZZ=             43.6917  YZZ=             24.2677
  YYZ=             10.5153  XYZ=            -10.8384
 Hexadecapole moment (field-independent basis, Debye-Ang**3):
 XXXX=          -7160.3560 YYYY=          -4085.8451 ZZZZ=          -1461.7522 XXXY=            -86.2185
 XXXZ=           -157.2783 YYYX=           -220.8100 YYYZ=           -142.0663 ZZZX=            -47.3712
 ZZZY=            -36.4081 XXYY=          -1799.7113 XXZZ=          -1439.2148 YYZZ=           -902.0767
 XXYZ=            -57.7804 YYXZ=            -63.2406 ZZXY=            -74.6060
 N-N= 3.252476744136D+03 E-N=-1.032264864844D+04  KE= 1.550141027711D+03
                          Isotropic Fermi Contact Couplings
        Atom                 a.u.       MegaHertz       Gauss      10(-4) cm-1
     1  N(14)              0.10598      17.12100       6.10920       5.71095
     2  C(13)             -0.00062      -0.35111      -0.12529      -0.11712
     3  C(13)              0.00347       1.94812       0.69514       0.64982
     4  C(13)              0.00079       0.44422       0.15851       0.14818
     5  F(19)             -0.00002      -0.04301      -0.01535      -0.01435
     6  F(19)              0.00023       0.47613       0.16990       0.15882
     7  F(19)              0.00011       0.23247       0.08295       0.07754
     8  C(13)             -0.00071      -0.40120      -0.14316      -0.13383
     9  C(13)              0.00219       1.22921       0.43861       0.41002
    10  C(13)             -0.00140      -0.78633      -0.28058      -0.26229
    11  C(13)              0.00013       0.07111       0.02538       0.02372
    12  N(14)              0.10227      16.52239       5.89560       5.51128
    13  C(13)              0.00326       1.83214       0.65375       0.61114
    14  C(13)              0.00034       0.19222       0.06859       0.06412
    15  C(13)             -0.00003      -0.01413      -0.00504      -0.00471
    16  C(13)             -0.00003      -0.01751      -0.00625      -0.00584
    17  C(13)             -0.00014      -0.07855      -0.02803      -0.02620
    18  C(13)             -0.00004      -0.02222      -0.00793      -0.00741
    19  C(13)              0.00000       0.00199       0.00071       0.00066
    20  C(13)             -0.00002      -0.00932      -0.00333      -0.00311
    21  C(13)             -0.00000      -0.00202      -0.00072      -0.00067
    22  C(13)              0.00000       0.00034       0.00012       0.00011
    23  C(13)             -0.00000      -0.00104      -0.00037      -0.00035
    24  C(13)              0.00000       0.00038       0.00013       0.00013
    25  C(13)              0.00270       1.51710       0.54134       0.50605
    26  O(17)              0.00243      -0.73532      -0.26238      -0.24528
    27  H(1)               0.00101       2.25811       0.80575       0.75323
    28  H(1)               0.00011       0.24636       0.08791       0.08218
    29  H(1)               0.00022       0.49475       0.17654       0.16503
    30  H(1)               0.00031       0.68595       0.24476       0.22881
    31  H(1)               0.00001       0.02839       0.01013       0.00947
    32  H(1)              -0.00002      -0.03710      -0.01324      -0.01238
    33  H(1)               0.00001       0.01365       0.00487       0.00455
    34  H(1)              -0.00000      -0.00530      -0.00189      -0.00177
    35  H(1)              -0.00000      -0.00402      -0.00143      -0.00134
    36  H(1)               0.00000       0.00502       0.00179       0.00168
    37  H(1)              -0.00000      -0.00118      -0.00042      -0.00039
    38  H(1)               0.00000       0.00054       0.00019       0.00018
    39  H(1)               0.00000       0.00003       0.00001       0.00001
    40  H(1)              -0.00009      -0.20504      -0.07316      -0.06840
    41  H(1)               0.00013       0.28440       0.10148       0.09486
    42  Ni(61)             0.00000      -0.00031      -0.00011      -0.00010
    43  F(19)              0.02419      50.88363      18.15654      16.97295
    44  F(19)              0.02627      55.25799      19.71743      18.43208
 --------------------------------------------------------
       Center         ----  Spin Dipole Couplings  ----
                      3XX-RR        3YY-RR        3ZZ-RR
 --------------------------------------------------------
     1   Atom       -0.046459      0.080048     -0.033589
     2   Atom        0.013792      0.000984     -0.014776
     3   Atom       -0.001157      0.004881     -0.003724
     4   Atom        0.001881      0.000003     -0.001884
     5   Atom        0.002103     -0.000499     -0.001604
     6   Atom        0.001527     -0.000051     -0.001476
     7   Atom        0.000697      0.000410     -0.001107
     8   Atom        0.001243      0.003440     -0.004683
     9   Atom       -0.004744      0.004546      0.000198
    10   Atom       -0.006605      0.009114     -0.002509
    11   Atom        0.002894     -0.000001     -0.002894
    12   Atom       -0.005947     -0.017411      0.023358
    13   Atom        0.018008     -0.009440     -0.008568
    14   Atom        0.007123     -0.002692     -0.004431
    15   Atom        0.001791      0.000971     -0.002761
    16   Atom       -0.000656      0.003732     -0.003076
    17   Atom       -0.003662      0.008041     -0.004379
    18   Atom       -0.003861      0.006757     -0.002895
    19   Atom       -0.001848      0.003566     -0.001717
    20   Atom       -0.001142      0.002565     -0.001423
    21   Atom       -0.000831      0.002374     -0.001543
    22   Atom       -0.000268      0.001147     -0.000879
    23   Atom        0.000227      0.000621     -0.000848
    24   Atom        0.000980      0.000299     -0.001279
    25   Atom        0.000030     -0.002717      0.002687
    26   Atom       -0.001169      0.000886      0.000284
    27   Atom        0.012932     -0.003908     -0.009024
    28   Atom       -0.000436      0.001089     -0.000653
    29   Atom       -0.002307      0.002174      0.000133
    30   Atom        0.010899     -0.006068     -0.004831
    31   Atom        0.004618     -0.002111     -0.002507
    32   Atom        0.009424     -0.004664     -0.004760
    33   Atom       -0.004632      0.009049     -0.004417
    34   Atom       -0.004141      0.005947     -0.001806
    35   Atom       -0.001235      0.002464     -0.001229
    36   Atom       -0.000771      0.001597     -0.000826
    37   Atom       -0.000295      0.000900     -0.000605
    38   Atom        0.000212      0.000324     -0.000537
    39   Atom        0.001298     -0.000253     -0.001044
    40   Atom        0.000675     -0.002556      0.001881
    41   Atom        0.001478     -0.000898     -0.000580
    42   Atom        0.001021      0.141826     -0.142847
    43   Atom       -0.066488      0.176900     -0.110411
    44   Atom       -0.197968     -0.141602      0.339570
 --------------------------------------------------------
                        XY            XZ            YZ
 --------------------------------------------------------
     1   Atom       -0.080894      0.051210     -0.079059
     2   Atom       -0.018051     -0.002543     -0.007930
     3   Atom       -0.005667      0.002752     -0.001933
     4   Atom       -0.002505     -0.000078     -0.000360
     5   Atom       -0.002051      0.000288     -0.000227
     6   Atom       -0.002126      0.001033     -0.000667
     7   Atom       -0.002276     -0.000938      0.000536
     8   Atom       -0.005067     -0.002140     -0.007889
     9   Atom       -0.001883      0.002368     -0.005670
    10   Atom       -0.002614     -0.005047     -0.022737
    11   Atom       -0.000281     -0.012832     -0.028289
    12   Atom        0.067703     -0.079114     -0.050598
    13   Atom        0.005205     -0.007897     -0.001776
    14   Atom        0.005604      0.000961      0.000542
    15   Atom        0.004203     -0.000052      0.000049
    16   Atom        0.004009      0.000240      0.000540
    17   Atom        0.005284      0.001592      0.004098
    18   Atom        0.000295      0.000130      0.003221
    19   Atom        0.000016      0.000010      0.000836
    20   Atom        0.000654     -0.000061      0.000057
    21   Atom        0.001686     -0.000019     -0.000031
    22   Atom        0.001175     -0.000128     -0.000227
    23   Atom        0.001279     -0.000236     -0.000260
    24   Atom        0.002012     -0.000300     -0.000248
    25   Atom        0.003007     -0.004988     -0.004965
    26   Atom       -0.000527     -0.011373     -0.025881
    27   Atom       -0.010599     -0.001308      0.000465
    28   Atom       -0.001150      0.000391     -0.001341
    29   Atom        0.000165     -0.000096     -0.003433
    30   Atom       -0.001825     -0.006039      0.000262
    31   Atom        0.001991      0.000273      0.000059
    32   Atom        0.006345      0.004944      0.001880
    33   Atom        0.011768      0.006024      0.010620
    34   Atom       -0.002125     -0.000925      0.005194
    35   Atom       -0.000583     -0.000097      0.000639
    36   Atom        0.000344     -0.000011     -0.000038
    37   Atom        0.000718     -0.000097     -0.000205
    38   Atom        0.000855     -0.000204     -0.000214
    39   Atom        0.001453     -0.000362     -0.000207
    40   Atom        0.001080     -0.004033     -0.000915
    41   Atom        0.002268     -0.002204     -0.001407
    42   Atom        0.851486      0.706828      0.040216
    43   Atom        0.159718     -0.226162     -0.097045
    44   Atom       -0.068621      0.109534     -0.091807
 --------------------------------------------------------


 ---------------------------------------------------------------------------------
              Anisotropic Spin Dipole Couplings in Principal Axis System
 ---------------------------------------------------------------------------------

       Atom             a.u.   MegaHertz   Gauss  10(-4) cm-1        Axes

              Baa    -0.0930    -3.587    -1.280    -1.196  0.8422  0.1582 -0.5154
     1 N(14)  Bbb    -0.0709    -2.734    -0.975    -0.912  0.3462  0.5742  0.7419
              Bcc     0.1639     6.320     2.255     2.108 -0.4133  0.8033 -0.4288
 
              Baa    -0.0214    -2.876    -1.026    -0.959  0.3331  0.5413  0.7720
     2 C(13)  Bbb    -0.0053    -0.706    -0.252    -0.236 -0.4865 -0.6027  0.6325
              Bcc     0.0267     3.583     1.278     1.195  0.8077 -0.5863  0.0626
 
              Baa    -0.0058    -0.784    -0.280    -0.262  0.6935  0.2444 -0.6777
     3 C(13)  Bbb    -0.0032    -0.428    -0.153    -0.143  0.4983  0.5167  0.6962
              Bcc     0.0090     1.212     0.432     0.404 -0.5203  0.8206 -0.2366
 
              Baa    -0.0022    -0.290    -0.103    -0.097  0.3398  0.5237  0.7812
     4 C(13)  Bbb    -0.0015    -0.196    -0.070    -0.065  0.4593  0.6324 -0.6238
              Bcc     0.0036     0.486     0.173     0.162  0.8207 -0.5708  0.0257
 
              Baa    -0.0017    -0.848    -0.303    -0.283  0.2885  0.6340  0.7175
     5 F(19)  Bbb    -0.0016    -0.788    -0.281    -0.263 -0.3925 -0.6052  0.6926
              Bcc     0.0033     1.636     0.584     0.546  0.8734 -0.4814  0.0743
 
              Baa    -0.0018    -0.903    -0.322    -0.301 -0.2879  0.0153  0.9575
     6 F(19)  Bbb    -0.0015    -0.765    -0.273    -0.255  0.5317  0.8342  0.1466
              Bcc     0.0033     1.668     0.595     0.556  0.7965 -0.5513  0.2483
 
              Baa    -0.0019    -0.930    -0.332    -0.310  0.6827  0.5825  0.4412
     7 F(19)  Bbb    -0.0012    -0.626    -0.223    -0.209 -0.1472 -0.4818  0.8638
              Bcc     0.0031     1.555     0.555     0.519  0.7157 -0.6547 -0.2431
 
              Baa    -0.0112    -1.499    -0.535    -0.500  0.3512  0.5362  0.7676
     8 C(13)  Bbb     0.0015     0.204     0.073     0.068  0.8476  0.1664 -0.5039
              Bcc     0.0097     1.295     0.462     0.432 -0.3979  0.8276 -0.3960
 
              Baa    -0.0057    -0.768    -0.274    -0.256  0.9005 -0.0716 -0.4288
     9 C(13)  Bbb    -0.0033    -0.447    -0.160    -0.149  0.3828  0.5982  0.7040
              Bcc     0.0091     1.215     0.434     0.405 -0.2061  0.7981 -0.5661
 
              Baa    -0.0222    -2.976    -1.062    -0.993  0.3383  0.5715  0.7476
    10 C(13)  Bbb    -0.0046    -0.621    -0.222    -0.207  0.9405 -0.2319 -0.2483
              Bcc     0.0268     3.597     1.283     1.200  0.0315  0.7871 -0.6160
 
              Baa    -0.0324    -4.351    -1.552    -1.451  0.2684  0.6347  0.7247
    11 C(13)  Bbb     0.0026     0.350     0.125     0.117  0.9081 -0.4177  0.0295
              Bcc     0.0298     4.001     1.428     1.335 -0.3214 -0.6502  0.6884
 
              Baa    -0.0851    -3.284    -1.172    -1.095  0.7784 -0.5434  0.3142
    12 N(14)  Bbb    -0.0491    -1.895    -0.676    -0.632  0.1989  0.6883  0.6976
              Bcc     0.1343     5.178     1.848     1.727 -0.5954 -0.4805  0.6439
 
              Baa    -0.0109    -1.469    -0.524    -0.490  0.1343  0.5264  0.8396
    13 C(13)  Bbb    -0.0102    -1.371    -0.489    -0.457 -0.2865  0.8317 -0.4756
              Bcc     0.0212     2.840     1.013     0.947  0.9486  0.1766 -0.2625
 
              Baa    -0.0052    -0.704    -0.251    -0.235 -0.4007  0.9068 -0.1308
    14 C(13)  Bbb    -0.0045    -0.604    -0.216    -0.202 -0.1240  0.0877  0.9884
              Bcc     0.0098     1.308     0.467     0.436  0.9078  0.4122  0.0773
 
              Baa    -0.0029    -0.387    -0.138    -0.129 -0.5813  0.6402 -0.5022
    15 C(13)  Bbb    -0.0027    -0.365    -0.130    -0.122 -0.3370  0.3724  0.8647
              Bcc     0.0056     0.752     0.268     0.251  0.7406  0.6719 -0.0007
 
              Baa    -0.0032    -0.423    -0.151    -0.141  0.3972 -0.2993  0.8675
    16 C(13)  Bbb    -0.0030    -0.402    -0.143    -0.134  0.7640 -0.4159 -0.4933
              Bcc     0.0061     0.825     0.294     0.275  0.5084  0.8588  0.0635
 
              Baa    -0.0057    -0.764    -0.273    -0.255  0.9366 -0.3134 -0.1569
    17 C(13)  Bbb    -0.0056    -0.753    -0.269    -0.251  0.0564 -0.3070  0.9500
              Bcc     0.0113     1.517     0.541     0.506  0.3459  0.8986  0.2699
 
              Baa    -0.0039    -0.525    -0.187    -0.175  0.7001  0.1886 -0.6887
    18 C(13)  Bbb    -0.0038    -0.514    -0.183    -0.172  0.7135 -0.2220  0.6645
              Bcc     0.0077     1.039     0.371     0.347  0.0276  0.9566  0.2900
 
              Baa    -0.0019    -0.249    -0.089    -0.083  0.7565  0.0975 -0.6467
    19 C(13)  Bbb    -0.0018    -0.247    -0.088    -0.082  0.6540 -0.1175  0.7473
              Bcc     0.0037     0.496     0.177     0.165  0.0031  0.9883  0.1526
 
              Baa    -0.0014    -0.194    -0.069    -0.065  0.3306 -0.0673  0.9414
    20 C(13)  Bbb    -0.0012    -0.165    -0.059    -0.055  0.9286 -0.1551 -0.3372
              Bcc     0.0027     0.359     0.128     0.120  0.1687  0.9856  0.0112
 
              Baa    -0.0016    -0.209    -0.075    -0.070  0.8556 -0.3640  0.3679
    21 C(13)  Bbb    -0.0015    -0.207    -0.074    -0.069 -0.3352  0.1518  0.9298
              Bcc     0.0031     0.416     0.148     0.139  0.3943  0.9189 -0.0079
 
              Baa    -0.0009    -0.125    -0.045    -0.042  0.8701 -0.4928 -0.0095
    22 C(13)  Bbb    -0.0009    -0.121    -0.043    -0.040  0.0553  0.0783  0.9954
              Bcc     0.0018     0.246     0.088     0.082  0.4898  0.8666 -0.0954
 
              Baa    -0.0009    -0.121    -0.043    -0.040  0.3185 -0.1068  0.9419
    23 C(13)  Bbb    -0.0009    -0.116    -0.042    -0.039  0.6941 -0.6505 -0.3085
              Bcc     0.0018     0.237     0.085     0.079  0.6456  0.7520 -0.1331
 
              Baa    -0.0014    -0.188    -0.067    -0.063 -0.6483  0.7598 -0.0494
    24 C(13)  Bbb    -0.0013    -0.177    -0.063    -0.059  0.0419  0.1004  0.9941
              Bcc     0.0027     0.365     0.130     0.122  0.7603  0.6423 -0.0969
 
              Baa    -0.0057    -0.761    -0.271    -0.254 -0.0138  0.8632  0.5047
    25 C(13)  Bbb    -0.0036    -0.487    -0.174    -0.162  0.8466 -0.2585  0.4653
              Bcc     0.0093     1.248     0.445     0.416 -0.5321 -0.4337  0.7272
 
              Baa    -0.0281     2.031     0.725     0.677  0.3109  0.6366  0.7058
    26 O(17)  Bbb    -0.0004     0.032     0.012     0.011  0.9144 -0.4029 -0.0394
              Bcc     0.0285    -2.063    -0.736    -0.688 -0.2593 -0.6576  0.7073
 
              Baa    -0.0092    -4.915    -1.754    -1.640  0.3061  0.5430  0.7819
    27 H(1)   Bbb    -0.0089    -4.752    -1.696    -1.585  0.3117  0.7189 -0.6213
              Bcc     0.0181     9.667     3.449     3.225  0.8995 -0.4339 -0.0508
 
              Baa    -0.0015    -0.775    -0.277    -0.259  0.3316  0.5530  0.7644
    28 H(1)   Bbb    -0.0009    -0.471    -0.168    -0.157  0.8555  0.1654 -0.4908
              Bcc     0.0023     1.246     0.445     0.416 -0.3978  0.8166 -0.4182
 
              Baa    -0.0024    -1.297    -0.463    -0.433 -0.1789  0.5921  0.7858
    29 H(1)   Bbb    -0.0023    -1.232    -0.439    -0.411  0.9835  0.0857  0.1593
              Bcc     0.0047     2.529     0.902     0.844  0.0270  0.8013 -0.5977
 
              Baa    -0.0070    -3.749    -1.338    -1.250  0.3293  0.3918  0.8591
    30 H(1)   Bbb    -0.0061    -3.252    -1.160    -1.085 -0.0441  0.9153 -0.4005
              Bcc     0.0131     7.001     2.498     2.335  0.9432 -0.0940 -0.3187
 
              Baa    -0.0027    -1.418    -0.506    -0.473 -0.2662  0.9581  0.1056
    31 H(1)   Bbb    -0.0025    -1.342    -0.479    -0.448 -0.0069 -0.1114  0.9937
              Bcc     0.0052     2.760     0.985     0.921  0.9639  0.2638  0.0363
 
              Baa    -0.0071    -3.789    -1.352    -1.264 -0.3634  0.9314  0.0194
    32 H(1)   Bbb    -0.0063    -3.361    -1.199    -1.121 -0.2538 -0.1190  0.9599
              Bcc     0.0134     7.150     2.551     2.385  0.8964  0.3439  0.2796
 
              Baa    -0.0114    -6.086    -2.172    -2.030  0.8544 -0.5173  0.0497
    33 H(1)   Bbb    -0.0102    -5.416    -1.933    -1.807 -0.2591 -0.3410  0.9037
              Bcc     0.0216    11.503     4.105     3.837  0.4505  0.7849  0.4254
 
              Baa    -0.0046    -2.466    -0.880    -0.823  0.8499  0.3600 -0.3848
    34 H(1)   Bbb    -0.0043    -2.315    -0.826    -0.772  0.4974 -0.3070  0.8114
              Bcc     0.0090     4.781     1.706     1.595 -0.1740  0.8810  0.4400
 
              Baa    -0.0013    -0.713    -0.254    -0.238 -0.0505 -0.1731  0.9836
    35 H(1)   Bbb    -0.0013    -0.707    -0.252    -0.236  0.9874  0.1392  0.0752
              Bcc     0.0027     1.420     0.507     0.474 -0.1499  0.9750  0.1639
 
              Baa    -0.0008    -0.443    -0.158    -0.148  0.5007 -0.0576  0.8637
    36 H(1)   Bbb    -0.0008    -0.436    -0.155    -0.145  0.8541 -0.1296 -0.5038
              Bcc     0.0016     0.878     0.313     0.293  0.1410  0.9899 -0.0157
 
              Baa    -0.0006    -0.338    -0.120    -0.113  0.6393 -0.2003  0.7424
    37 H(1)   Bbb    -0.0006    -0.337    -0.120    -0.112 -0.6431  0.3900  0.6590
              Bcc     0.0013     0.675     0.241     0.225  0.4215  0.8988 -0.1205
 
              Baa    -0.0006    -0.315    -0.112    -0.105  0.6265 -0.4341  0.6473
    38 H(1)   Bbb    -0.0006    -0.312    -0.111    -0.104 -0.3916  0.5427  0.7430
              Bcc     0.0012     0.628     0.224     0.209  0.6739  0.7190 -0.1700
 
              Baa    -0.0011    -0.602    -0.215    -0.201 -0.5240  0.8059 -0.2756
    39 H(1)   Bbb    -0.0011    -0.584    -0.209    -0.195 -0.0385  0.3008  0.9529
              Bcc     0.0022     1.186     0.423     0.396  0.8508  0.5100 -0.1266
 
              Baa    -0.0030    -1.609    -0.574    -0.537 -0.6140  0.6940 -0.3760
    40 H(1)   Bbb    -0.0026    -1.376    -0.491    -0.459  0.4525  0.6999  0.5526
              Bcc     0.0056     2.986     1.065     0.996 -0.6467 -0.1692  0.7438
 
              Baa    -0.0023    -1.217    -0.434    -0.406 -0.4364  0.8843  0.1658
    41 H(1)   Bbb    -0.0020    -1.057    -0.377    -0.353  0.4964  0.0829  0.8641
              Bcc     0.0043     2.274     0.811     0.759  0.7504  0.4594 -0.4752
 
              Baa    -1.0824    51.697    18.447    17.244  0.7116 -0.4780 -0.5149
    42 Ni(61) Bbb    -0.0653     3.118     1.113     1.040  0.1197 -0.6396  0.7593
              Bcc     1.1477   -54.815   -19.560   -18.284  0.6923  0.6020  0.3979
 
              Baa    -0.3187  -160.039   -57.106   -53.383  0.6942 -0.0837  0.7149
    43 F(19)  Bbb    -0.0247   -12.411    -4.429    -4.140 -0.4967  0.6631  0.5600
              Bcc     0.3434   172.450    61.534    57.523  0.5209  0.7439 -0.4187
 
              Baa    -0.2474  -124.251   -44.336   -41.446  0.8682  0.4889 -0.0855
    44 F(19)  Bbb    -0.1342   -67.391   -24.047   -22.479 -0.4522  0.8503  0.2693
              Bcc     0.3816   191.642    68.383    63.925  0.2044 -0.1951  0.9592
 

 ---------------------------------------------------------------------------------

 PrsmSu:  requested number of processors reduced to:  12 ShMem   1 Linda.
   1 Symmetry operations used in ECPInt.
 ECPInt:  NShTT=   13366 NPrTT=   84858 LenC2=   11521 LenP2D=   40428.
 LDataN:  DoStor=T MaxTD1= 7 Len=  274
 Calling FoFJK, ICntrl=      2127 FMM=F ISym2X=0 I1Cent= 0 IOpClX= 1 NMat=1 NMatS=1 NMatT=0.
 ***** Axes restored to original set *****
 -------------------------------------------------------------------
 Center     Atomic                   Forces (Hartrees/Bohr)
 Number     Number              X              Y              Z
 -------------------------------------------------------------------
      1        7          -0.001314678   -0.000932238    0.001663003
      2        6           0.000198627    0.003363909    0.000290201
      3        6           0.000173391   -0.002203017   -0.001243988
      4        6           0.002118685   -0.000887610    0.000693450
      5        9          -0.000749296   -0.000485981   -0.000394374
      6        9          -0.000600538    0.000527655    0.000423512
      7        9          -0.000205316    0.000782609   -0.000899122
      8        6           0.003623488   -0.001038305    0.001195365
      9        6          -0.004482165    0.001105395   -0.001340925
     10        6           0.003845501   -0.002098711    0.000994087
     11        6          -0.001022626    0.001725523    0.001209006
     12        7          -0.004994941   -0.002606558   -0.000574796
     13        6           0.003220237    0.001950786   -0.000850150
     14        6           0.000163832    0.000766514    0.001488030
     15        6           0.001937610    0.000217531   -0.000010287
     16        6           0.000137643   -0.000035965    0.000988361
     17        6           0.000065521   -0.001317699   -0.000087838
     18        6          -0.000336901    0.002660548   -0.000033922
     19        6           0.001157686   -0.000216936    0.000209852
     20        6          -0.001610282   -0.000575649   -0.001165364
     21        6          -0.000499868    0.000488979    0.000214741
     22        6           0.001777489   -0.001134488    0.000441643
     23        6          -0.001511829    0.000410796   -0.001000585
     24        6          -0.001870518   -0.000455238   -0.000574615
     25        6           0.000664940   -0.001072180   -0.000082801
     26        8          -0.001552388    0.000311330   -0.000471507
     27        1          -0.000169759   -0.000148285    0.000028416
     28        1           0.000014545    0.000174413    0.000168500
     29        1          -0.000091611    0.000155522    0.000413362
     30        1          -0.000168490   -0.000166038    0.000394822
     31        1          -0.000008187   -0.000518988   -0.000643019
     32        1           0.000060630    0.000587673   -0.000237247
     33        1          -0.001910021   -0.002433255    0.000003415
     34        1          -0.000129861    0.000052351   -0.000193707
     35        1          -0.000185875    0.000188833   -0.000047246
     36        1          -0.000114680    0.000099891    0.000124014
     37        1           0.000103063    0.000153728    0.000163053
     38        1           0.000046518   -0.000020424    0.000442085
     39        1           0.000893968   -0.000495168   -0.000183159
     40        1          -0.000276597    0.000072205    0.000158335
     41        1           0.000140446    0.000202930    0.000016064
     42       28           0.002742209    0.005031321   -0.001707192
     43        9          -0.000174143   -0.000395018    0.000690845
     44        9           0.000894545   -0.001792692   -0.000672318
 -------------------------------------------------------------------
 Cartesian Forces:  Max     0.005031321 RMS     0.001338879

 GradGradGradGradGradGradGradGradGradGradGradGradGradGradGradGradGradGrad
 Berny optimization.
 FormGI is forming the generalized inverse of G from B-inverse, IUseBI=4.
 Internal  Forces:  Max     0.003745909 RMS     0.000893603
 Search for a local minimum.
 Step number   1 out of a maximum of  264
 All quantities printed in internal units (Hartrees-Bohrs-Radians)
 Mixed Optimization -- En-DIIS/RFO-DIIS
 Second derivative matrix not updated -- first step.
 ITU=  0
     Eigenvalues ---    0.00230   0.00527   0.00604   0.00681   0.01246
     Eigenvalues ---    0.01390   0.01428   0.01557   0.01715   0.01725
     Eigenvalues ---    0.01750   0.01790   0.01843   0.01960   0.02014
     Eigenvalues ---    0.02025   0.02027   0.02050   0.02114   0.02127
     Eigenvalues ---    0.02136   0.02143   0.02146   0.02153   0.02160
     Eigenvalues ---    0.02181   0.02200   0.02237   0.02259   0.02295
     Eigenvalues ---    0.02373   0.03799   0.04006   0.04727   0.05023
     Eigenvalues ---    0.05490   0.05505   0.06470   0.07272   0.08352
     Eigenvalues ---    0.09212   0.10286   0.10856   0.11069   0.11145
     Eigenvalues ---    0.12145   0.12823   0.12876   0.13193   0.13750
     Eigenvalues ---    0.15880   0.15989   0.15994   0.15996   0.15997
     Eigenvalues ---    0.15997   0.15998   0.15999   0.15999   0.16000
     Eigenvalues ---    0.16000   0.19284   0.21392   0.21993   0.22002
     Eigenvalues ---    0.22076   0.22476   0.22526   0.23447   0.23471
     Eigenvalues ---    0.24098   0.24292   0.24442   0.24498   0.24694
     Eigenvalues ---    0.24839   0.24851   0.24904   0.24951   0.25000
     Eigenvalues ---    0.25000   0.25000   0.26451   0.27134   0.30557
     Eigenvalues ---    0.31710   0.33762   0.34185   0.34348   0.34385
     Eigenvalues ---    0.34572   0.34968   0.35128   0.35141   0.35188
     Eigenvalues ---    0.35208   0.35223   0.35298   0.35309   0.35514
     Eigenvalues ---    0.35526   0.35666   0.35695   0.35723   0.36276
     Eigenvalues ---    0.38943   0.40188   0.41197   0.41866   0.42272
     Eigenvalues ---    0.42788   0.42878   0.43235   0.46103   0.46805
     Eigenvalues ---    0.47259   0.47830   0.48808   0.49104   0.50432
     Eigenvalues ---    0.52878   0.55159   0.55573   0.56100   0.57913
     Eigenvalues ---    0.63690
 RFO step:  Lambda=-2.71729165D-03 EMin= 2.30000000D-03
 Linear search not attempted -- first point.
 Iteration  1 RMS(Cart)=  0.20219603 RMS(Int)=  0.00380805
 Iteration  2 RMS(Cart)=  0.01092207 RMS(Int)=  0.00007828
 Iteration  3 RMS(Cart)=  0.00003703 RMS(Int)=  0.00007749
 Iteration  4 RMS(Cart)=  0.00000000 RMS(Int)=  0.00007749
 Variable       Old X    -DE/DX   Delta X   Delta X   Delta X     New X
                                 (Linear)    (Quad)   (Total)
    R1        2.51246  -0.00041   0.00000  -0.00061  -0.00062   2.51185
    R2        2.55160   0.00007   0.00000  -0.00032  -0.00040   2.55120
    R3        3.95421   0.00045   0.00000   0.00098   0.00090   3.95511
    R4        2.64850  -0.00260   0.00000  -0.00583  -0.00584   2.64266
    R5        2.04848   0.00016   0.00000   0.00044   0.00044   2.04892
    R6        2.84677  -0.00049   0.00000  -0.00154  -0.00154   2.84523
    R7        2.62984   0.00034   0.00000   0.00051   0.00050   2.63034
    R8        2.54168   0.00092   0.00000   0.00163   0.00163   2.54331
    R9        2.54626   0.00085   0.00000   0.00151   0.00151   2.54778
   R10        2.54991   0.00117   0.00000   0.00211   0.00211   2.55202
   R11        2.64108  -0.00375   0.00000  -0.00817  -0.00817   2.63291
   R12        2.04829   0.00021   0.00000   0.00058   0.00058   2.04887
   R13        2.62157   0.00065   0.00000   0.00148   0.00149   2.62306
   R14        2.04561   0.00027   0.00000   0.00076   0.00076   2.04637
   R15        2.77709  -0.00308   0.00000  -0.00837  -0.00835   2.76874
   R16        2.42227   0.00044   0.00000   0.00140   0.00160   2.42387
   R17        2.53359  -0.00087   0.00000  -0.00185  -0.00180   2.53179
   R18        2.76880   0.00075   0.00000   0.00250   0.00252   2.77132
   R19        3.91006  -0.00327   0.00000  -0.02417  -0.02409   3.88597
   R20        2.95655  -0.00140   0.00000  -0.00523  -0.00523   2.95132
   R21        2.91860  -0.00004   0.00000   0.00095   0.00089   2.91949
   R22        2.06376   0.00011   0.00000   0.00031   0.00031   2.06406
   R23        2.86866  -0.00232   0.00000  -0.00752  -0.00752   2.86114
   R24        2.07018   0.00016   0.00000   0.00045   0.00045   2.07063
   R25        2.06746  -0.00005   0.00000  -0.00014  -0.00014   2.06732
   R26        2.71071   0.00158   0.00000   0.00427   0.00424   2.71495
   R27        2.61956  -0.00211   0.00000  -0.00452  -0.00451   2.61504
   R28        2.67942   0.00325   0.00000   0.00817   0.00813   2.68756
   R29        2.71232   0.00087   0.00000   0.00320   0.00312   2.71544
   R30        2.59977   0.00178   0.00000   0.00367   0.00368   2.60345
   R31        2.04517   0.00222   0.00000   0.00617   0.00617   2.05134
   R32        2.67379  -0.00096   0.00000  -0.00268  -0.00264   2.67115
   R33        2.05177   0.00017   0.00000   0.00047   0.00047   2.05224
   R34        2.60492  -0.00172   0.00000  -0.00402  -0.00399   2.60094
   R35        2.05314   0.00026   0.00000   0.00074   0.00074   2.05388
   R36        2.68426   0.00058   0.00000   0.00120   0.00120   2.68546
   R37        2.05447   0.00014   0.00000   0.00039   0.00039   2.05486
   R38        2.67953   0.00065   0.00000   0.00166   0.00165   2.68119
   R39        2.59998  -0.00154   0.00000  -0.00338  -0.00335   2.59663
   R40        2.05370   0.00018   0.00000   0.00051   0.00051   2.05422
   R41        2.67127  -0.00056   0.00000  -0.00180  -0.00176   2.66951
   R42        2.05194   0.00021   0.00000   0.00058   0.00058   2.05252
   R43        2.05338   0.00095   0.00000   0.00268   0.00268   2.05606
   R44        2.77230   0.00125   0.00000   0.00198   0.00188   2.77418
   R45        2.06686   0.00007   0.00000   0.00019   0.00019   2.06704
   R46        2.05468   0.00024   0.00000   0.00068   0.00068   2.05536
   R47        3.39792   0.00070   0.00000   0.00284   0.00284   3.40077
   R48        3.48128   0.00031   0.00000   0.00145   0.00145   3.48273
    A1        2.07659  -0.00029   0.00000  -0.00021  -0.00020   2.07638
    A2        2.22560   0.00022   0.00000   0.00121   0.00126   2.22685
    A3        1.97970   0.00006   0.00000  -0.00162  -0.00175   1.97795
    A4        2.12139   0.00033   0.00000   0.00144   0.00141   2.12280
    A5        2.03682  -0.00013   0.00000  -0.00046  -0.00045   2.03637
    A6        2.12481  -0.00020   0.00000  -0.00091  -0.00089   2.12391
    A7        2.09401  -0.00019   0.00000  -0.00048  -0.00047   2.09354
    A8        2.08387   0.00010   0.00000  -0.00032  -0.00035   2.08352
    A9        2.10364   0.00008   0.00000   0.00057   0.00058   2.10422
   A10        1.94657   0.00041   0.00000   0.00173   0.00173   1.94830
   A11        1.94167   0.00040   0.00000   0.00167   0.00167   1.94334
   A12        1.93142   0.00029   0.00000   0.00092   0.00092   1.93233
   A13        1.88821  -0.00034   0.00000  -0.00094  -0.00094   1.88727
   A14        1.87849  -0.00041   0.00000  -0.00177  -0.00177   1.87672
   A15        1.87465  -0.00042   0.00000  -0.00188  -0.00188   1.87277
   A16        2.07676   0.00011   0.00000  -0.00013  -0.00016   2.07660
   A17        2.09833   0.00006   0.00000   0.00081   0.00080   2.09913
   A18        2.10810  -0.00018   0.00000  -0.00068  -0.00069   2.10741
   A19        2.05448   0.00058   0.00000   0.00267   0.00267   2.05715
   A20        2.13254  -0.00053   0.00000  -0.00291  -0.00291   2.12963
   A21        2.09558  -0.00005   0.00000   0.00013   0.00013   2.09571
   A22        2.15271  -0.00083   0.00000  -0.00314  -0.00320   2.14951
   A23        1.97182  -0.00004   0.00000  -0.00082  -0.00091   1.97091
   A24        2.15600   0.00086   0.00000   0.00245   0.00238   2.15839
   A25        2.10694  -0.00058   0.00000  -0.00204  -0.00206   2.10488
   A26        2.11654   0.00023   0.00000  -0.00237  -0.00261   2.11393
   A27        2.05697   0.00036   0.00000   0.00289   0.00292   2.05989
   A28        1.87054  -0.00039   0.00000  -0.00085  -0.00113   1.86941
   A29        1.95585   0.00148   0.00000   0.00758   0.00738   1.96323
   A30        2.45624  -0.00110   0.00000  -0.00814  -0.00858   2.44766
   A31        1.89958  -0.00345   0.00000  -0.03236  -0.03229   1.86729
   A32        1.76988   0.00043   0.00000   0.00316   0.00332   1.77319
   A33        1.91972   0.00109   0.00000   0.00588   0.00580   1.92552
   A34        2.00329   0.00269   0.00000   0.02017   0.02021   2.02350
   A35        1.90470  -0.00001   0.00000   0.00257   0.00240   1.90710
   A36        1.96125  -0.00088   0.00000  -0.00130  -0.00147   1.95977
   A37        1.97525   0.00015   0.00000   0.00109   0.00081   1.97607
   A38        1.86820   0.00077   0.00000   0.01793   0.01773   1.88593
   A39        1.85645  -0.00034   0.00000  -0.01289  -0.01306   1.84339
   A40        1.89608   0.00083   0.00000   0.01937   0.01919   1.91526
   A41        1.97915  -0.00112   0.00000  -0.02101  -0.02112   1.95803
   A42        1.88362  -0.00022   0.00000  -0.00302  -0.00282   1.88080
   A43        2.14133  -0.00102   0.00000  -0.00438  -0.00435   2.13698
   A44        2.06793  -0.00000   0.00000  -0.00026  -0.00023   2.06770
   A45        2.06991   0.00104   0.00000   0.00540   0.00530   2.07521
   A46        2.14087   0.00196   0.00000   0.00538   0.00555   2.14642
   A47        2.07758  -0.00123   0.00000  -0.00403  -0.00409   2.07349
   A48        2.06466  -0.00073   0.00000  -0.00134  -0.00145   2.06321
   A49        2.11377  -0.00141   0.00000  -0.00407  -0.00421   2.10956
   A50        2.10896   0.00229   0.00000   0.01173   0.01180   2.12076
   A51        2.06013  -0.00088   0.00000  -0.00776  -0.00770   2.05243
   A52        2.10500   0.00105   0.00000   0.00485   0.00478   2.10978
   A53        2.07302  -0.00042   0.00000  -0.00178  -0.00177   2.07125
   A54        2.10516  -0.00063   0.00000  -0.00307  -0.00305   2.10211
   A55        2.08951   0.00029   0.00000  -0.00010  -0.00014   2.08938
   A56        2.09334  -0.00008   0.00000   0.00052   0.00051   2.09385
   A57        2.10015  -0.00020   0.00000  -0.00022  -0.00023   2.09992
   A58        2.11204   0.00036   0.00000   0.00082   0.00076   2.11280
   A59        2.10460  -0.00025   0.00000  -0.00084  -0.00081   2.10378
   A60        2.06651  -0.00011   0.00000   0.00002   0.00005   2.06655
   A61        2.07789   0.00049   0.00000   0.00230   0.00223   2.08011
   A62        2.08891  -0.00044   0.00000  -0.00057  -0.00063   2.08828
   A63        2.11639  -0.00005   0.00000  -0.00173  -0.00159   2.11479
   A64        2.10048   0.00049   0.00000   0.00252   0.00246   2.10294
   A65        2.07424  -0.00009   0.00000  -0.00029  -0.00026   2.07398
   A66        2.10837  -0.00040   0.00000  -0.00221  -0.00218   2.10619
   A67        2.09336   0.00035   0.00000   0.00065   0.00064   2.09400
   A68        2.10269  -0.00015   0.00000  -0.00012  -0.00012   2.10257
   A69        2.08702  -0.00021   0.00000  -0.00049  -0.00048   2.08654
   A70        2.13025  -0.00016   0.00000  -0.00118  -0.00124   2.12901
   A71        2.07944  -0.00004   0.00000  -0.00003  -0.00004   2.07939
   A72        2.07329   0.00020   0.00000   0.00147   0.00146   2.07475
   A73        1.80252  -0.00040   0.00000   0.00210   0.00194   1.80447
   A74        1.96489  -0.00012   0.00000  -0.00087  -0.00087   1.96402
   A75        2.00611   0.00043   0.00000   0.00178   0.00183   2.00794
   A76        1.87299   0.00039   0.00000  -0.00432  -0.00426   1.86872
   A77        1.86944  -0.00032   0.00000   0.00043   0.00048   1.86992
   A78        1.93549  -0.00002   0.00000   0.00053   0.00051   1.93601
   A79        1.82467   0.00031   0.00000   0.00158   0.00158   1.82625
   A80        1.38746  -0.00082   0.00000  -0.00123  -0.00116   1.38630
   A81        1.77590  -0.00018   0.00000  -0.00131  -0.00143   1.77447
   A82        1.83775   0.00230   0.00000   0.02073   0.02072   1.85847
   A83        2.01589  -0.00041   0.00000  -0.00583  -0.00591   2.00998
   A84        1.69253   0.00034   0.00000  -0.00240  -0.00242   1.69010
   A85        2.45869  -0.00088   0.00000  -0.00423  -0.00443   2.45426
    D1        0.03445  -0.00027   0.00000  -0.01290  -0.01292   0.02153
    D2       -3.12669  -0.00022   0.00000  -0.00856  -0.00857  -3.13527
    D3       -3.04851   0.00015   0.00000   0.00113   0.00111  -3.04740
    D4        0.07352   0.00020   0.00000   0.00546   0.00546   0.07899
    D5       -0.01436   0.00039   0.00000   0.01703   0.01704   0.00268
    D6       -3.08013   0.00061   0.00000   0.03839   0.03839  -3.04175
    D7        3.07656   0.00003   0.00000   0.00500   0.00502   3.08158
    D8        0.01079   0.00026   0.00000   0.02635   0.02637   0.03716
    D9        2.99164  -0.00046   0.00000  -0.02893  -0.02890   2.96275
   D10       -1.29973  -0.00098   0.00000  -0.03495  -0.03498  -1.33471
   D11        1.34344  -0.00023   0.00000  -0.02267  -0.02260   1.32084
   D12       -0.09406  -0.00005   0.00000  -0.01559  -0.01556  -0.10962
   D13        1.89775  -0.00057   0.00000  -0.02161  -0.02165   1.87611
   D14       -1.74226   0.00018   0.00000  -0.00934  -0.00927  -1.75153
   D15        3.05361  -0.00014   0.00000  -0.00540  -0.00539   3.04821
   D16       -0.02641  -0.00006   0.00000  -0.00113  -0.00113  -0.02754
   D17       -0.06744  -0.00019   0.00000  -0.00997  -0.00997  -0.07741
   D18        3.13573  -0.00011   0.00000  -0.00570  -0.00571   3.13002
   D19        0.51813  -0.00006   0.00000  -0.00211  -0.00211   0.51602
   D20        2.62809   0.00007   0.00000  -0.00097  -0.00097   2.62713
   D21       -1.57250  -0.00000   0.00000  -0.00163  -0.00164  -1.57414
   D22       -2.68575  -0.00014   0.00000  -0.00646  -0.00646  -2.69221
   D23       -0.57578  -0.00001   0.00000  -0.00532  -0.00531  -0.58110
   D24        1.50681  -0.00008   0.00000  -0.00598  -0.00598   1.50082
   D25       -0.00240   0.00026   0.00000   0.01149   0.01151   0.00911
   D26        3.13943   0.00005   0.00000   0.00065   0.00065   3.14009
   D27       -3.08207   0.00035   0.00000   0.01583   0.01584  -3.06623
   D28        0.05977   0.00014   0.00000   0.00499   0.00498   0.06475
   D29        0.02116  -0.00015   0.00000  -0.00776  -0.00776   0.01340
   D30        3.12588  -0.00016   0.00000  -0.01104  -0.01105   3.11483
   D31       -3.12067   0.00006   0.00000   0.00314   0.00314  -3.11753
   D32       -0.01595   0.00005   0.00000  -0.00014  -0.00014  -0.01610
   D33       -0.01361  -0.00017   0.00000  -0.00654  -0.00655  -0.02016
   D34        3.04422  -0.00047   0.00000  -0.03031  -0.03036   3.01386
   D35       -3.11915  -0.00015   0.00000  -0.00327  -0.00326  -3.12241
   D36       -0.06131  -0.00045   0.00000  -0.02703  -0.02707  -0.08838
   D37        0.15066  -0.00070   0.00000  -0.02993  -0.02998   0.12068
   D38       -3.07215  -0.00055   0.00000  -0.05237  -0.05246  -3.12461
   D39       -2.91495  -0.00039   0.00000  -0.00825  -0.00822  -2.92317
   D40        0.14543  -0.00024   0.00000  -0.03069  -0.03071   0.11473
   D41        2.88497   0.00018   0.00000  -0.02122  -0.02142   2.86355
   D42       -0.22858   0.00041   0.00000   0.01495   0.01510  -0.21347
   D43       -0.17811   0.00003   0.00000   0.00071   0.00063  -0.17749
   D44        2.99153   0.00026   0.00000   0.03688   0.03715   3.02868
   D45        3.11581   0.00036   0.00000   0.03408   0.03428  -3.13310
   D46       -0.10475   0.00047   0.00000   0.01205   0.01214  -0.09261
   D47       -1.76017  -0.00215   0.00000  -0.02265  -0.02273  -1.78290
   D48        0.35819  -0.00037   0.00000  -0.01225  -0.01220   0.34599
   D49        2.43714  -0.00068   0.00000  -0.00953  -0.00958   2.42756
   D50        1.34035  -0.00240   0.00000  -0.07511  -0.07502   1.26533
   D51       -2.82448  -0.00062   0.00000  -0.06471  -0.06448  -2.88896
   D52       -0.74552  -0.00093   0.00000  -0.06198  -0.06187  -0.80739
   D53        0.17069  -0.00020   0.00000   0.00029   0.00021   0.17089
   D54       -1.54163   0.00033   0.00000   0.00161   0.00161  -1.54002
   D55        1.99169   0.00202   0.00000   0.02172   0.02164   2.01334
   D56       -2.92856   0.00009   0.00000   0.05451   0.05444  -2.87412
   D57        1.64230   0.00062   0.00000   0.05583   0.05584   1.69815
   D58       -1.10755   0.00232   0.00000   0.07594   0.07588  -1.03168
   D59        1.34256  -0.00122   0.00000  -0.09063  -0.09076   1.25180
   D60       -2.85225   0.00041   0.00000  -0.05399  -0.05404  -2.90629
   D61       -0.84195   0.00035   0.00000  -0.05519  -0.05535  -0.89730
   D62       -0.62631  -0.00105   0.00000  -0.08508  -0.08499  -0.71130
   D63        1.46206   0.00058   0.00000  -0.04844  -0.04827   1.41380
   D64       -2.81083   0.00053   0.00000  -0.04964  -0.04958  -2.86041
   D65       -2.84542  -0.00196   0.00000  -0.10132  -0.10133  -2.94675
   D66       -0.75705  -0.00033   0.00000  -0.06468  -0.06460  -0.82165
   D67        1.25325  -0.00039   0.00000  -0.06588  -0.06592   1.18733
   D68       -0.40550   0.00071   0.00000   0.01819   0.01815  -0.38735
   D69        1.60901   0.00088   0.00000   0.01391   0.01385   1.62286
   D70       -2.43540   0.00113   0.00000   0.01546   0.01543  -2.41997
   D71        1.63872  -0.00190   0.00000  -0.00916  -0.00915   1.62957
   D72       -2.62995  -0.00173   0.00000  -0.01344  -0.01345  -2.64341
   D73       -0.39117  -0.00147   0.00000  -0.01189  -0.01188  -0.40305
   D74       -2.45451  -0.00043   0.00000   0.01010   0.01013  -2.44438
   D75       -0.44000  -0.00025   0.00000   0.00582   0.00583  -0.43417
   D76        1.79878  -0.00000   0.00000   0.00737   0.00741   1.80619
   D77       -1.43866   0.00148   0.00000   0.09901   0.09903  -1.33963
   D78        1.60523   0.00169   0.00000   0.10848   0.10845   1.71369
   D79        2.77221  -0.00013   0.00000   0.06285   0.06278   2.83498
   D80       -0.46709   0.00008   0.00000   0.07232   0.07220  -0.39489
   D81        0.67804   0.00028   0.00000   0.06665   0.06678   0.74482
   D82       -2.56125   0.00049   0.00000   0.07612   0.07620  -2.48506
   D83       -0.20060   0.00072   0.00000   0.03605   0.03606  -0.16453
   D84        2.92796   0.00073   0.00000   0.03668   0.03668   2.96464
   D85        3.03880   0.00056   0.00000   0.02687   0.02690   3.06570
   D86       -0.11583   0.00058   0.00000   0.02750   0.02751  -0.08831
   D87       -2.99034  -0.00034   0.00000  -0.02009  -0.02012  -3.01046
   D88        0.12899  -0.00005   0.00000  -0.00624  -0.00628   0.12272
   D89        0.05761  -0.00025   0.00000  -0.01156  -0.01158   0.04604
   D90       -3.10624   0.00004   0.00000   0.00229   0.00227  -3.10397
   D91        3.04973   0.00080   0.00000   0.03523   0.03515   3.08488
   D92       -0.06399   0.00093   0.00000   0.03970   0.03967  -0.02432
   D93       -0.07892   0.00078   0.00000   0.03462   0.03456  -0.04436
   D94        3.09054   0.00091   0.00000   0.03909   0.03909   3.12963
   D95       -3.04555  -0.00058   0.00000  -0.02750  -0.02749  -3.07304
   D96        0.09299  -0.00056   0.00000  -0.02617  -0.02614   0.06685
   D97        0.08359  -0.00054   0.00000  -0.02684  -0.02685   0.05673
   D98       -3.06106  -0.00052   0.00000  -0.02551  -0.02550  -3.08657
   D99        0.01820  -0.00040   0.00000  -0.01818  -0.01821  -0.00001
   D100      -3.12170  -0.00025   0.00000  -0.00996  -0.00995  -3.13165
   D101       3.13269  -0.00048   0.00000  -0.02223  -0.02226   3.11042
   D102      -0.00722  -0.00033   0.00000  -0.01400  -0.01400  -0.02122
   D103       0.03882  -0.00011   0.00000  -0.00628  -0.00625   0.03257
   D104      -3.12315   0.00010   0.00000   0.00496   0.00500  -3.11815
   D105      -3.10449  -0.00027   0.00000  -0.01465  -0.01465  -3.11914
   D106       0.01672  -0.00006   0.00000  -0.00341  -0.00341   0.01332
   D107      -0.03246   0.00028   0.00000   0.01340   0.01344  -0.01902
   D108       3.09907   0.00025   0.00000   0.01258   0.01258   3.11165
   D109       3.12959   0.00006   0.00000   0.00211   0.00214   3.13174
   D110      -0.02206   0.00004   0.00000   0.00128   0.00129  -0.02078
   D111      -0.02922   0.00002   0.00000   0.00338   0.00337  -0.02585
   D112       3.11548  -0.00000   0.00000   0.00203   0.00200   3.11748
   D113       3.12223   0.00004   0.00000   0.00419   0.00421   3.12644
   D114      -0.01626   0.00002   0.00000   0.00284   0.00284  -0.01342
   D115      -0.00900   0.00008   0.00000   0.00788   0.00794  -0.00106
   D116       3.11840   0.00015   0.00000   0.00930   0.00933   3.12773
   D117       3.12946   0.00010   0.00000   0.00924   0.00932   3.13879
   D118      -0.02632   0.00017   0.00000   0.01067   0.01071  -0.01561
   D119      -0.05148   0.00016   0.00000   0.00821   0.00823  -0.04325
   D120       3.10616   0.00017   0.00000   0.00528   0.00526   3.11142
   D121       3.10458   0.00009   0.00000   0.00674   0.00680   3.11138
   D122      -0.02097   0.00009   0.00000   0.00382   0.00383  -0.01714
   D123       0.02709  -0.00007   0.00000  -0.00637  -0.00641   0.02067
   D124      -3.09232  -0.00036   0.00000  -0.02015  -0.02020  -3.11252
   D125      -3.13040  -0.00007   0.00000  -0.00346  -0.00347  -3.13387
   D126       0.03337  -0.00036   0.00000  -0.01725  -0.01726   0.01612
   D127       0.31972  -0.00068   0.00000  -0.01819  -0.01824   0.30148
   D128      -1.75950  -0.00052   0.00000  -0.01630  -0.01631  -1.77581
   D129       2.44439  -0.00054   0.00000  -0.01488  -0.01492   2.42947
         Item               Value     Threshold  Converged?
 Maximum Force            0.003746     0.000450     NO 
 RMS     Force            0.000894     0.000300     NO 
 Maximum Displacement     0.673958     0.001800     NO 
 RMS     Displacement     0.207431     0.001200     NO 
 Predicted change in Energy=-1.565678D-03
 GradGradGradGradGradGradGradGradGradGradGradGradGradGradGradGradGradGrad

                          Input orientation:                          
 ---------------------------------------------------------------------
 Center     Atomic      Atomic             Coordinates (Angstroms)
 Number     Number       Type             X           Y           Z
 ---------------------------------------------------------------------
      1          7           0       -1.141067   -0.897115    0.195439
      2          6           0       -2.339950   -0.415390   -0.116689
      3          6           0       -2.847211    0.738309    0.489355
      4          6           0       -4.155475    1.319373    0.022727
      5          9           0       -4.977122    0.368308   -0.458638
      6          9           0       -4.793815    1.957829    1.024032
      7          9           0       -3.953616    2.219666   -0.963427
      8          6           0       -2.095166    1.382920    1.467278
      9          6           0       -0.847589    0.865668    1.809650
     10          6           0       -0.408915   -0.267735    1.139065
     11          6           0        0.937507   -0.827050    1.283951
     12          7           0        1.363307   -1.723067    0.470896
     13          6           0        2.819915   -1.790352    0.627247
     14          6           0        3.444422   -1.020720   -0.579730
     15          6           0        3.259641    0.479401   -0.491194
     16          6           0        2.009762    1.120987   -0.791602
     17          6           0        0.909685    0.436782   -1.378394
     18          6           0       -0.291635    1.078073   -1.587177
     19          6           0       -0.463360    2.433263   -1.223873
     20          6           0        0.592883    3.135336   -0.689271
     21          6           0        1.852353    2.513455   -0.473666
     22          6           0        2.951131    3.242351    0.050219
     23          6           0        4.161911    2.626183    0.256228
     24          6           0        4.304573    1.245202   -0.004752
     25          6           0        3.013529   -1.141208    2.015743
     26          8           0        1.796753   -0.338191    2.188212
     27          1           0       -2.898334   -0.953123   -0.874732
     28          1           0       -2.473843    2.279205    1.945611
     29          1           0       -0.211272    1.341081    2.545682
     30          1           0        3.156244   -2.829303    0.605179
     31          1           0        4.512932   -1.260241   -0.619046
     32          1           0        2.974702   -1.442813   -1.473035
     33          1           0        0.973577   -0.612251   -1.650079
     34          1           0       -1.110933    0.518841   -2.029224
     35          1           0       -1.424117    2.918370   -1.375188
     36          1           0        0.483752    4.185924   -0.430891
     37          1           0        2.821009    4.298164    0.273809
     38          1           0        5.010616    3.190996    0.630928
     39          1           0        5.263596    0.769916    0.190597
     40          1           0        3.029400   -1.877793    2.824235
     41          1           0        3.859443   -0.461861    2.092519
     42         28           0       -0.139058   -2.503829   -0.696135
     43          9           0       -1.005742   -3.912300    0.013553
     44          9           0        0.497970   -1.890444   -2.313089
 ---------------------------------------------------------------------
                    Distance matrix (angstroms):
                    1          2          3          4          5
     1  N    0.000000
     2  C    1.329212   0.000000
     3  C    2.381581   1.398437   0.000000
     4  C    3.745571   2.514949   1.505633   0.000000
     5  F    4.091996   2.772325   2.360532   1.345861   0.000000
     6  F    4.709548   3.599287   2.358469   1.348227   2.181396
     7  F    4.355196   3.203811   2.351410   1.350473   2.174834
     8  C    2.779648   2.408898   1.391915   2.517069   3.611684
     9  C    2.408155   2.753005   2.399560   3.786958   4.737673
    10  C    1.350035   2.308163   2.716529   4.219221   4.881159
    11  C    2.347389   3.587893   4.172028   5.668887   6.280790
    12  N    2.651407   3.971069   4.877209   6.317772   6.740840
    13  C    4.083345   5.391491   6.207211   7.661064   8.162889
    14  C    4.652190   5.834363   6.619802   7.974799   8.536186
    15  C    4.661812   5.682986   6.190489   7.480214   8.237576
    16  C    3.869717   4.662184   5.037606   6.221947   7.035192
    17  C    2.908920   3.588625   4.206385   5.328973   5.958618
    18  C    2.792960   2.930592   3.310347   4.192765   4.871463
    19  C    3.683090   3.586401   3.389803   4.052958   5.022317
    20  C    4.477718   4.640800   4.355359   5.133378   6.223712
    21  C    4.586966   5.126498   5.115121   6.145424   7.158464
    22  C    5.822573   6.434476   6.331180   7.362231   8.448447
    23  C    6.367017   7.187798   7.262659   8.422659   9.440919
    24  C    5.855305   6.849802   7.186731   8.460418   9.334068
    25  C    4.542439   5.808082   6.341192   7.837167   8.500100
    26  O    3.593650   4.736120   5.060767   6.547202   7.306869
    27  H    2.058250   1.084241   2.173543   2.747740   2.498134
    28  H    3.863730   3.395858   2.152776   2.728854   3.962114
    29  H    3.376045   3.834668   3.397056   4.682148   5.717128
    30  H    4.729494   6.046174   6.984464   8.426861   8.803866
    31  H    5.723893   6.923014   7.706780   9.066838   9.630110
    32  H    4.474499   5.580394   6.519428   7.791431   8.218312
    33  H    2.821135   3.656433   4.582533   5.730324   6.147507
    34  H    2.637227   2.457858   3.066932   3.757738   4.175742
    35  H    4.135809   3.679202   3.202247   3.459953   4.468414
    36  H    5.373046   5.407783   4.881416   5.472231   6.663040
    37  H    6.534150   7.000399   6.696846   7.589965   8.763053
    38  H    7.399021   8.221666   8.232932   9.374972  10.435978
    39  H    6.618060   7.701513   8.116369   9.436577  10.269133
    40  H    5.026439   6.294249   6.843260   8.348218   8.940169
    41  H    5.365954   6.581431   6.999268   8.467334   9.234851
    42  Ni   2.092954   3.088894   4.387590   5.591534   5.631381
    43  F    3.023696   3.745057   5.024497   6.106661   5.858194
    44  F    3.156875   3.879916   5.094534   6.116659   6.206254
                    6          7          8          9         10
     6  F    0.000000
     7  F    2.173589   0.000000
     8  C    2.794583   3.172115   0.000000
     9  C    4.169258   4.378433   1.393276   0.000000
    10  C    4.918710   4.813787   2.382399   1.388064   0.000000
    11  C    6.377394   6.185166   3.756951   2.515595   1.465155
    12  N    7.194797   6.772895   4.754047   3.658124   2.388559
    13  C    8.495598   8.030643   5.910442   4.680075   3.606337
    14  C    8.905749   8.085685   6.376109   5.262029   4.285960
    15  C    8.327053   7.435227   5.772860   4.723602   4.083413
    16  C    7.091226   6.066176   4.692715   3.872486   3.392053
    17  C    6.373001   5.196400   4.245251   3.665458   2.927909
    18  C    5.278448   3.886182   3.560246   3.448570   3.042589
    19  C    4.902239   3.506472   3.317876   3.436167   3.589126
    20  C    5.773946   4.645888   3.866171   3.670280   3.990903
    21  C    6.835450   5.833992   4.541837   3.901079   3.930554
    22  C    7.910910   7.053290   5.561534   4.813989   4.979579
    23  C    9.013393   8.216727   6.493332   5.532415   5.481480
    24  C    9.184057   8.370564   6.568295   5.475479   5.080775
    25  C    8.458259   8.289273   5.724579   4.356404   3.639320
    26  O    7.075493   7.038622   4.316132   2.930039   2.443490
    27  H    3.958762   3.344858   3.403995   3.836595   3.274498
    28  H    2.516915   3.264319   1.084217   2.158999   3.376588
    29  H    4.867802   5.204892   2.171120   1.082894   2.146141
    30  H    9.289538   8.860177   6.786998   5.579806   4.422333
    31  H    9.983547   9.160283   7.416603   6.257254   5.319831
    32  H    8.840224   7.853346   6.506440   5.542112   4.433141
    33  H    6.857039   5.724375   4.807889   4.179786   3.131980
    34  H    4.995666   3.479882   3.733748   3.863495   3.339100
    35  H    4.246617   2.656332   3.299625   3.832644   4.183702
    36  H    5.910493   4.882623   4.255667   4.220970   4.805902
    37  H    8.001596   7.193501   5.838818   5.253517   5.659374
    38  H    9.889495   9.156578   7.379753   6.412106   6.449213
    39  H   10.161559   9.401625   7.493802   6.322743   5.844117
    40  H    8.896933   8.938572   6.223725   4.856645   4.153805
    41  H    9.048505   8.807571   6.265103   4.898826   4.377859
    42  Ni   6.673241   6.077312   4.859376   4.258461   2.905323
    43  F    7.058965   6.873534   5.598171   5.106855   3.860808
    44  F    7.344969   6.207352   5.632978   5.138449   3.920841
                   11         12         13         14         15
    11  C    0.000000
    12  N    1.282657   0.000000
    13  C    2.214198   1.466520   0.000000
    14  C    3.129767   2.434779   1.561774   0.000000
    15  C    3.201603   3.061465   2.568277   1.514050   0.000000
    16  C    3.041792   3.178120   3.338469   2.586513   1.436689
    17  C    2.947223   2.879339   3.554111   3.031018   2.512217
    18  C    3.658368   3.849790   4.776325   4.402045   3.764458
    19  C    4.345256   4.846033   5.660872   5.255063   4.267919
    20  C    4.439918   5.054070   5.563748   5.041436   3.768928
    21  C    3.883959   4.368007   4.546531   3.877670   2.473488
    22  C    4.704976   5.230061   5.067374   4.337505   2.832349
    23  C    4.835061   5.176316   4.630809   3.809661   2.445690
    24  C    4.158380   4.205700   3.437764   2.490957   1.383821
    25  C    2.223530   2.334169   1.544925   2.633755   2.995276
    26  O    1.339767   2.248317   2.364792   3.292744   3.160334
    27  H    4.403349   4.534877   5.971203   6.349973   6.334026
    28  H    4.660893   5.737306   6.806119   7.231370   6.484609
    29  H    2.759067   4.021571   4.761760   5.358209   4.691731
    30  H    3.064725   2.111022   1.092256   2.181291   3.487155
    31  H    4.073416   3.364866   2.168080   1.095732   2.147892
    32  H    3.482857   2.540473   2.134462   1.093980   2.177179
    33  H    2.942103   2.425765   3.159605   2.723522   2.785823
    34  H    4.121244   4.171164   5.276436   5.022204   4.633466
    35  H    5.164925   5.720200   6.647828   6.312833   5.354213
    36  H    5.317564   6.041772   6.503322   5.991399   4.631145
    37  H    5.552998   6.198303   6.098766   5.422887   3.919257
    38  H    5.758590   6.121805   5.441784   4.653731   3.417282
    39  H    4.739280   4.637434   3.566120   2.666304   2.136603
    40  H    2.802241   2.887562   2.208684   3.534657   4.074487
    41  H    3.053663   3.232800   2.234396   2.761428   2.814482
    42  Ni   2.809149   2.056368   3.319023   3.880012   4.526899
    43  F    3.861204   3.257959   4.417572   5.340148   6.142907
    44  F    3.776598   2.920171   3.747936   3.527397   4.069680
                   16         17         18         19         20
    16  C    0.000000
    17  C    1.422193   0.000000
    18  C    2.435407   1.377684   0.000000
    19  C    2.832889   2.427976   1.413513   0.000000
    20  C    2.464877   2.803115   2.412662   1.376357   0.000000
    21  C    1.436951   2.453514   2.810145   2.435523   1.421086
    22  C    2.468810   3.752288   4.228557   3.733187   2.473789
    23  C    2.827598   4.247640   5.062495   4.860150   3.727085
    24  C    2.429140   3.750428   4.863860   5.062700   4.221115
    25  C    3.742494   4.293761   5.369390   5.946487   5.609408
    26  O    3.324735   3.756082   4.541005   4.942812   4.668468
    27  H    5.329001   4.084913   3.380565   4.185523   5.379451
    28  H    5.379267   5.088398   4.322655   3.756515   4.132841
    29  H    4.014834   4.180033   4.141999   3.932677   3.785622
    30  H    4.343986   4.432708   5.653484   6.643912   6.619920
    31  H    3.459174   4.054613   5.430364   6.226658   5.890060
    32  H    2.822859   2.793945   4.127572   5.187130   5.219846
    33  H    2.194260   1.085524   2.112324   3.394347   3.887478
    34  H    3.410722   2.124431   1.086000   2.175535   3.397722
    35  H    3.919526   3.406600   2.171209   1.086866   2.141459
    36  H    3.442769   3.890405   3.405431   2.144216   1.087384
    37  H    3.447851   4.614457   4.849825   4.063002   2.691511
    38  H    3.913267   5.332984   6.123586   5.829139   4.611116
    39  H    3.416929   4.639963   5.840893   6.129068   5.308949
    40  H    4.806935   5.245240   6.263144   6.868170   6.588839
    41  H    3.774239   4.642830   5.756997   6.169832   5.598982
    42  Ni   4.214953   3.195705   3.694220   4.975797   5.686473
    43  F    5.922459   4.951857   5.289245   6.487802   7.260768
    44  F    3.697182   2.541484   3.156346   4.561249   5.282449
                   21         22         23         24         25
    21  C    0.000000
    22  C    1.418823   0.000000
    23  C    2.424771   1.374079   0.000000
    24  C    2.800309   2.413179   1.412646   0.000000
    25  C    4.571876   4.804453   4.313688   3.382920   0.000000
    26  O    3.901355   4.327110   4.256060   3.688548   1.468035
    27  H    5.894662   7.257670   7.996097   7.580988   6.583339
    28  H    4.962232   5.826706   6.856212   7.128815   6.466483
    29  H    3.840504   4.454543   5.100766   5.187173   4.103892
    30  H    5.604382   6.100413   5.558368   4.276946   2.204478
    31  H    4.619588   4.812533   3.999201   2.588053   3.033890
    32  H    4.232075   4.926623   4.577831   3.339137   3.502005
    33  H    3.453438   4.653997   4.928178   4.153645   4.228410
    34  H    3.896064   5.314316   6.121035   5.826989   6.010716
    35  H    3.422273   4.612976   5.826715   6.123355   6.904440
    36  H    2.161493   2.685099   4.053860   4.840260   6.384679
    37  H    2.163839   1.087044   2.143327   3.405750   5.714733
    38  H    3.413769   2.140406   1.086147   2.165340   4.967299
    39  H    3.888156   3.388235   2.159570   1.088018   3.470786
    40  H    5.616463   5.823845   5.306886   4.402537   1.093833
    41  H    4.412054   4.326339   3.605477   2.740575   1.087647
    42  Ni   5.402625   6.566955   6.761831   5.854836   4.376051
    43  F    7.049569   8.176016   8.337583   7.402676   5.276577
    44  F    4.961064   6.160261   6.358127   5.445266   5.062428
                   26         27         28         29         30
    26  O    0.000000
    27  H    5.639468   0.000000
    28  H    5.014739   4.310739   0.000000
    29  H    2.641950   4.917612   2.521783   0.000000
    30  H    3.249592   6.509078   7.719552   5.700685   0.000000
    31  H    4.013540   7.422032   8.241369   6.253037   2.408586
    32  H    4.001559   5.923708   7.431500   5.835287   2.504852
    33  H    3.935124   3.963464   5.759705   4.777424   3.842596
    34  H    5.193833   2.587341   4.555845   4.734473   6.029838
    35  H    5.803189   4.172796   3.540926   4.396823   7.611656
    36  H    5.389925   6.168088   4.246258   4.175665   7.578197
    37  H    5.119554   7.848952   5.908179   4.806295   7.143037
    38  H    5.020878   9.054956   7.653554   5.861449   6.299473
    39  H    4.151791   8.409572   8.076261   5.987222   4.191323
    40  H    2.072274   7.048078   6.952575   4.576100   2.417782
    41  H    2.068609   7.396856   6.902575   4.475117   2.882959
    42  Ni   4.093508   3.170204   5.942009   5.029705   3.557859
    43  F    5.035611   3.623215   6.650031   5.885650   4.341086
    44  F    4.935386   3.805565   6.659893   5.878217   4.057606
                   31         32         33         34         35
    31  H    0.000000
    32  H    1.768836   0.000000
    33  H    3.742987   2.173863   0.000000
    34  H    6.064782   4.566162   2.401728   0.000000
    35  H    7.299389   6.195086   4.276655   2.506709   0.000000
    36  H    6.777197   6.242882   4.974819   4.306413   2.477570
    37  H    5.878406   6.002824   5.588070   5.920085   4.758583
    38  H    4.650122   5.481222   5.997113   7.189589   6.745711
    39  H    2.310964   3.592057   4.868546   6.754648   7.196739
    40  H    3.799793   4.319575   5.084043   6.814857   7.776384
    41  H    2.901214   3.802395   4.728412   6.531093   7.167075
    42  Ni   4.815959   3.380063   2.392913   3.443574   5.613620
    43  F    6.155433   4.914493   4.192338   4.880473   6.982957
    44  F    4.403050   2.653350   1.516431   2.910979   5.262962
                   36         37         38         39         40
    36  H    0.000000
    37  H    2.443761   0.000000
    38  H    4.754981   2.479463   0.000000
    39  H    5.907814   4.292050   2.473766   0.000000
    40  H    7.337904   6.685099   5.867575   4.351787   0.000000
    41  H    6.274137   5.200375   4.099367   2.665751   1.797010
    42  Ni   6.723916   7.481303   7.791744   6.379057   4.777453
    43  F    8.246052   9.062201   9.329230   7.826819   5.321797
    44  F    6.361220   7.098410   7.406230   6.004761   5.727163
                   41         42         43         44
    41  H    0.000000
    42  Ni   5.285285   0.000000
    43  F    6.316459   1.799608   0.000000
    44  F    5.722738   1.842983   3.429623   0.000000
 Stoichiometry    C20H15F5N2NiO(3)
 Framework group  C1[X(C20H15F5N2NiO)]
 Deg. of freedom   126
 Full point group                 C1      NOp   1
 Largest Abelian subgroup         C1      NOp   1
 Largest concise Abelian subgroup C1      NOp   1
                         Standard orientation:                         
 ---------------------------------------------------------------------
 Center     Atomic      Atomic             Coordinates (Angstroms)
 Number     Number       Type             X           Y           Z
 ---------------------------------------------------------------------
      1          7           0        1.051176    1.065922    0.302109
      2          6           0        2.307056    0.742857    0.010220
      3          6           0        2.932339   -0.366226    0.588649
      4          6           0        4.312814   -0.768595    0.142198
      5          9           0        5.027310    0.291973   -0.277364
      6          9           0        4.995886   -1.367025    1.138697
      7          9           0        4.246747   -1.645630   -0.882604
      8          6           0        2.236895   -1.134692    1.517760
      9          6           0        0.927624   -0.783385    1.839643
     10          6           0        0.374573    0.316320    1.198157
     11          6           0       -1.032530    0.705666    1.321237
     12          7           0       -1.540558    1.577176    0.529034
     13          6           0       -2.998414    1.464841    0.641808
     14          6           0       -3.493650    0.676294   -0.612014
     15          6           0       -3.133040   -0.793680   -0.573512
     16          6           0       -1.807725   -1.269774   -0.858030
     17          6           0       -0.782122   -0.436656   -1.384039
     18          6           0        0.492505   -0.921942   -1.578559
     19          6           0        0.815429   -2.260847   -1.260641
     20          6           0       -0.163131   -3.104372   -0.786043
     21          6           0       -1.493328   -2.645517   -0.587263
     22          6           0       -2.510602   -3.520261   -0.125706
     23          6           0       -3.791536   -3.060909    0.064811
     24          6           0       -4.091451   -1.697131   -0.149030
     25          6           0       -3.150127    0.741408    1.998430
     26          8           0       -1.851033    0.082007    2.179185
     27          1           0        2.817193    1.373382   -0.709346
     28          1           0        2.707176   -1.998448    1.974146
     29          1           0        0.333272   -1.360429    2.537085
     30          1           0       -3.455998    2.456610    0.647782
     31          1           0       -4.581707    0.788814   -0.676046
     32          1           0       -3.054030    1.187077   -1.473772
     33          1           0       -0.963832    0.607569   -1.618427
     34          1           0        1.250527   -0.251992   -1.973485
     35          1           0        1.831069   -2.622043   -1.399535
     36          1           0        0.064020   -4.144235   -0.563577
     37          1           0       -2.261059   -4.561404    0.062479
     38          1           0       -4.576266   -3.737145    0.391337
     39          1           0       -5.105377   -1.347262    0.033536
     40          1           0       -3.275773    1.437431    2.832837
     41          1           0       -3.910375   -0.036014    2.023216
     42         28           0       -0.111688    2.577384   -0.560263
     43          9           0        0.560762    4.048668    0.228232
     44          9           0       -0.627050    1.959034   -2.218162
 ---------------------------------------------------------------------
 Rotational constants (GHZ):           0.2296194           0.1407928           0.1070497
 Basis read from rwf:  (6D, 7F)
 Pseudo-potential data read from rwf file.
 There are   527 symmetry adapted cartesian basis functions of A   symmetry.
 There are   524 symmetry adapted basis functions of A   symmetry.
   524 basis functions,   998 primitive gaussians,   527 cartesian basis functions
   111 alpha electrons      109 beta electrons
       nuclear repulsion energy      3317.8642591842 Hartrees.
 NAtoms=   44 NActive=   44 NUniq=   44 SFac= 1.00D+00 NAtFMM=   60 NAOKFM=F Big=F
 Integral buffers will be    131072 words long.
 Raffenetti 2 integral format.
 Two-electron integral symmetry is turned on.
 Nuclear repulsion after empirical dispersion term =     3317.7354660079 Hartrees.
 One-electron integrals computed using PRISM.
 PrsmSu:  requested number of processors reduced to:  12 ShMem   1 Linda.
   1 Symmetry operations used in ECPInt.
 ECPInt:  NShTT=   13366 NPrTT=   84858 LenC2=   11648 LenP2D=   41188.
 LDataN:  DoStor=T MaxTD1= 6 Len=  172
 Number of processors reduced to  14 by ecpmxn.
 NBasis=   524 RedAO= T EigKep=  1.02D-06  NBF=   524
 NBsUse=   524 1.00D-06 EigRej= -1.00D+00 NBFU=   524
 Initial guess from the checkpoint file:  "Lig127_xyz-1.chk"
 B after Tr=     0.000000    0.000000    0.000000
         Rot=    0.998472   -0.011521    0.008376   -0.053392 Ang=  -6.34 deg.
 Initial guess <Sx>= 0.0000 <Sy>= 0.0000 <Sz>= 1.0000 <S**2>= 2.0069 S= 1.0023
 ExpMin= 2.40D-02 ExpMax= 7.14D+04 ExpMxC= 1.07D+04 IAcc=3 IRadAn=         5 AccDes= 0.00D+00
 Harris functional with IExCor=  402 and IRadAn=       5 diagonalized for initial guess.
 HarFok:  IExCor=  402 AccDes= 0.00D+00 IRadAn=         5 IDoV= 1 UseB2=F ITyADJ=14
 ICtDFT=  3500011 ScaDFX=  1.000000  1.000000  1.000000  1.000000
 FoFCou: FMM=F IPFlag=           0 FMFlag=      100000 FMFlg1=           0
         NFxFlg=           0 DoJE=T BraDBF=F KetDBF=T FulRan=T
         wScrn=  0.000000 ICntrl=       500 IOpCl=  0 I1Cent=   200000004 NGrid=           0
         NMat0=    1 NMatS0=      1 NMatT0=    0 NMatD0=    1 NMtDS0=    0 NMtDT0=    0
 Petite list used in FoFCou.
 Requested convergence on RMS density matrix=1.00D-08 within  32 cycles.
 Requested convergence on MAX density matrix=1.00D-06.
 Requested convergence on             energy=1.00D-06.
 No special actions if energy rises.
 Restarting incremental Fock formation.
