 Entering Gaussian System, Link 0=g16
 Input=Lig2120_xyz_2.com
 Output=Lig2120_xyz_2.log
 Initial command:
 /uufs/chpc.utah.edu/sys/installdir/gaussian16/C01/AVX/g16/l1.exe "/scratch/general/vast/u1365460/GAUSSSCRDIR/11267742-notchpeak.peaks/Gau-774736.inp" -scrdir="/scratch/general/vast/u1365460/GAUSSSCRDIR/11267742-notchpeak.peaks/"
 Entering Link 1 = /uufs/chpc.utah.edu/sys/installdir/gaussian16/C01/AVX/g16/l1.exe PID=    774738.
  
 Copyright (c) 1988-2019, Gaussian, Inc.  All Rights Reserved.
  
 This is part of the Gaussian(R) 16 program.  It is based on
 the Gaussian(R) 09 system (copyright 2009, Gaussian, Inc.),
 the Gaussian(R) 03 system (copyright 2003, Gaussian, Inc.),
 the Gaussian(R) 98 system (copyright 1998, Gaussian, Inc.),
 the Gaussian(R) 94 system (copyright 1995, Gaussian, Inc.),
 the Gaussian 92(TM) system (copyright 1992, Gaussian, Inc.),
 the Gaussian 90(TM) system (copyright 1990, Gaussian, Inc.),
 the Gaussian 88(TM) system (copyright 1988, Gaussian, Inc.),
 the Gaussian 86(TM) system (copyright 1986, Carnegie Mellon
 University), and the Gaussian 82(TM) system (copyright 1983,
 Carnegie Mellon University). Gaussian is a federally registered
 trademark of Gaussian, Inc.
  
 This software contains proprietary and confidential information,
 including trade secrets, belonging to Gaussian, Inc.
  
 This software is provided under written license and may be
 used, copied, transmitted, or stored only in accord with that
 written license.
  
 The following legend is applicable only to US Government
 contracts under FAR:
  
                    RESTRICTED RIGHTS LEGEND
  
 Use, reproduction and disclosure by the US Government is
 subject to restrictions as set forth in subparagraphs (a)
 and (c) of the Commercial Computer Software - Restricted
 Rights clause in FAR 52.227-19.
  
 Gaussian, Inc.
 340 Quinnipiac St., Bldg. 40, Wallingford CT 06492
  
  
 ---------------------------------------------------------------
 Warning -- This program may not be used in any manner that
 competes with the business of Gaussian, Inc. or will provide
 assistance to any competitor of Gaussian, Inc.  The licensee
 of this program is prohibited from giving any competitor of
 Gaussian, Inc. access to this program.  By using this program,
 the user acknowledges that Gaussian, Inc. is engaged in the
 business of creating and licensing software in the field of
 computational chemistry and represents and warrants to the
 licensee that it is not a competitor of Gaussian, Inc. and that
 it will not use this program in any manner prohibited above.
 ---------------------------------------------------------------
  

 Cite this work as:
 Gaussian 16, Revision C.01,
 M. J. Frisch, G. W. Trucks, H. B. Schlegel, G. E. Scuseria, 
 M. A. Robb, J. R. Cheeseman, G. Scalmani, V. Barone, 
 G. A. Petersson, H. Nakatsuji, X. Li, M. Caricato, A. V. Marenich, 
 J. Bloino, B. G. Janesko, R. Gomperts, B. Mennucci, H. P. Hratchian, 
 J. V. Ortiz, A. F. Izmaylov, J. L. Sonnenberg, D. Williams-Young, 
 F. Ding, F. Lipparini, F. Egidi, J. Goings, B. Peng, A. Petrone, 
 T. Henderson, D. Ranasinghe, V. G. Zakrzewski, J. Gao, N. Rega, 
 G. Zheng, W. Liang, M. Hada, M. Ehara, K. Toyota, R. Fukuda, 
 J. Hasegawa, M. Ishida, T. Nakajima, Y. Honda, O. Kitao, H. Nakai, 
 T. Vreven, K. Throssell, J. A. Montgomery, Jr., J. E. Peralta, 
 F. Ogliaro, M. J. Bearpark, J. J. Heyd, E. N. Brothers, K. N. Kudin, 
 V. N. Staroverov, T. A. Keith, R. Kobayashi, J. Normand, 
 K. Raghavachari, A. P. Rendell, J. C. Burant, S. S. Iyengar, 
 J. Tomasi, M. Cossi, J. M. Millam, M. Klene, C. Adamo, R. Cammi, 
 J. W. Ochterski, R. L. Martin, K. Morokuma, O. Farkas, 
 J. B. Foresman, and D. J. Fox, Gaussian, Inc., Wallingford CT, 2019.
 
 ******************************************
 Gaussian 16:  ES64L-G16RevC.01  3-Jul-2019
                 6-Mar-2026 
 ******************************************
 %NProcShared=16
 Will use up to   16 processors via shared memory.
 %chk=Lig2120_xyz_2.chk
 ----------------------------------------------------------------------
 # B3LYP gen 6D pseudo=read int=(grid=fine) empiricaldispersion=GD3BJ o
 pt freq=noraman
 ----------------------------------------------------------------------
 1/18=20,19=15,26=3,38=1/1,3;
 2/9=110,12=2,17=6,18=5,40=1/2;
 3/5=7,8=2,11=2,16=1,17=8,25=1,30=1,71=1,74=-5,75=-4,124=41/1,2,3;
 4//1;
 5/5=2,38=5/2;
 6/7=2,8=2,9=2,10=2,28=1/1;
 7//1,2,3,16;
 1/18=20,19=15,26=3/3(2);
 2/9=110/2;
 99//99;
 2/9=110/2;
 3/5=7,6=1,8=2,11=2,16=1,17=8,25=1,30=1,71=1,74=-5,75=-4,82=7,124=41/1,2,3;
 4/5=5,16=3,69=1/1;
 5/5=2,38=5/2;
 7//1,2,3,16;
 1/18=20,19=15,26=3/3(-5);
 2/9=110/2;
 6/7=2,8=2,9=2,10=2,19=2,28=1/1;
 99/9=1/99;
 -----------
 Lig2120.xyz
 -----------
 Symbolic Z-matrix:
 Charge =  0 Multiplicity = 3
 C                    -3.60746  -2.99063  -2.4891 
 C                    -2.61448  -3.23356  -1.54057 
 C                    -1.77543  -2.20769  -1.1025 
 C                    -1.92582  -0.9167   -1.62571 
 C                    -1.06995   0.25204  -1.19948 
 N                     0.30867  -0.07234  -0.79647 
 C                     0.64806   0.77255   0.11077 
 C                     1.97872   0.74858   0.7252 
 C                     2.42601   1.68295   1.64728 
 C                     3.72369   1.53766   2.14658 
 C                     4.50912   0.4706    1.72663 
 C                     3.97062  -0.44365   0.79282 
 N                     2.73754  -0.29026   0.30837 
 C                     4.81311  -1.60775   0.36514 
 C                     6.25606  -1.16533   0.01692 
 C                     6.81429  -0.04362   0.93548 
 C                     5.92313   0.21708   2.16864 
 O                    -0.26561   1.64723   0.53596 
 C                    -1.58308   1.16283   0.00158 
 C                    -2.2431    0.43708   1.16763 
 C                    -1.63838  -0.71311   1.70437 
 C                    -2.20315  -1.35351   2.80409 
 C                    -3.36724  -0.86043   3.3957 
 C                    -3.95783   0.29263   2.88429 
 C                    -3.39585   0.9394    1.7827 
 C                    -2.34743   2.3507   -0.53945 
 C                    -3.6355    2.15581  -1.05995 
 C                    -4.33512   3.21644  -1.63086 
 C                    -3.76168   4.48813  -1.68777 
 C                    -2.48377   4.68772  -1.1688 
 C                    -1.77875   3.62542  -0.59965 
 C                    -2.89963  -0.6866   -2.60757 
 C                    -3.74497  -1.71121  -3.02878 
 H                    -4.25804  -3.79553  -2.81987 
 H                    -2.48173  -4.23234  -1.13427 
 H                    -0.98788  -2.42949  -0.38727 
 H                    -0.98426   0.92146  -2.06401 
 H                     1.77564   2.49171   1.95905 
 H                     4.1165    2.25331   2.86373 
 H                     4.33712  -2.12138  -0.47515 
 H                     4.84554  -2.31357   1.20845 
 H                     6.27121  -0.82368  -1.02293 
 H                     6.90002  -2.04904   0.06054 
 H                     6.88714   0.89336   0.37171 
 H                     7.82853  -0.28641   1.2688 
 H                     5.9451   -0.66461   2.82552 
 H                     6.30341   1.05957   2.75588 
 H                    -0.7307   -1.13844   1.2873 
 H                    -1.72357  -2.2471    3.19286 
 H                    -3.80526  -1.36722   4.25127 
 H                    -4.85508   0.69939   3.34236 
 H                    -3.86098   1.84372   1.41073 
 H                    -4.09003   1.17258  -1.0132 
 H                    -5.33194   3.04787  -2.02818 
 H                    -4.30842   5.31535  -2.13102 
 H                    -2.02853   5.67344  -1.20409 
 H                    -0.78548   3.78624  -0.19849 
 H                    -2.99109   0.30165  -3.04966 
 H                    -4.49619  -1.51337  -3.78834 
 Ni                    1.64372  -1.64905  -0.81035 
 F                     0.71812  -2.45668   0.59266 
 F                     2.85828  -2.47669  -1.8614 
 

 GradGradGradGradGradGradGradGradGradGradGradGradGradGradGradGradGradGrad
 Berny optimization.
 Initialization pass.
                           ----------------------------
                           !    Initial Parameters    !
                           ! (Angstroms and Degrees)  !
 --------------------------                            --------------------------
 ! Name  Definition              Value          Derivative Info.                !
 --------------------------------------------------------------------------------
 ! R1    R(1,2)                  1.3945         estimate D2E/DX2                !
 ! R2    R(1,33)                 1.3954         estimate D2E/DX2                !
 ! R3    R(1,34)                 1.0865         estimate D2E/DX2                !
 ! R4    R(2,3)                  1.3958         estimate D2E/DX2                !
 ! R5    R(2,35)                 1.0864         estimate D2E/DX2                !
 ! R6    R(3,4)                  1.4011         estimate D2E/DX2                !
 ! R7    R(3,36)                 1.0867         estimate D2E/DX2                !
 ! R8    R(4,5)                  1.51           estimate D2E/DX2                !
 ! R9    R(4,32)                 1.4019         estimate D2E/DX2                !
 ! R10   R(5,6)                  1.4725         estimate D2E/DX2                !
 ! R11   R(5,19)                 1.5923         estimate D2E/DX2                !
 ! R12   R(5,37)                 1.0968         estimate D2E/DX2                !
 ! R13   R(6,7)                  1.2853         estimate D2E/DX2                !
 ! R14   R(6,60)                 2.066          estimate D2E/DX2                !
 ! R15   R(7,8)                  1.4659         estimate D2E/DX2                !
 ! R16   R(7,18)                 1.3344         estimate D2E/DX2                !
 ! R17   R(8,9)                  1.3868         estimate D2E/DX2                !
 ! R18   R(8,13)                 1.3523         estimate D2E/DX2                !
 ! R19   R(9,10)                 1.398          estimate D2E/DX2                !
 ! R20   R(9,38)                 1.0836         estimate D2E/DX2                !
 ! R21   R(10,11)                1.3899         estimate D2E/DX2                !
 ! R22   R(10,39)                1.0866         estimate D2E/DX2                !
 ! R23   R(11,12)                1.4135         estimate D2E/DX2                !
 ! R24   R(11,17)                1.503          estimate D2E/DX2                !
 ! R25   R(12,13)                1.3337         estimate D2E/DX2                !
 ! R26   R(12,14)                1.4993         estimate D2E/DX2                !
 ! R27   R(13,60)                2.0723         estimate D2E/DX2                !
 ! R28   R(14,15)                1.5489         estimate D2E/DX2                !
 ! R29   R(14,40)                1.0938         estimate D2E/DX2                !
 ! R30   R(14,41)                1.1002         estimate D2E/DX2                !
 ! R31   R(15,16)                1.5536         estimate D2E/DX2                !
 ! R32   R(15,42)                1.0946         estimate D2E/DX2                !
 ! R33   R(15,43)                1.0943         estimate D2E/DX2                !
 ! R34   R(16,17)                1.5436         estimate D2E/DX2                !
 ! R35   R(16,44)                1.0959         estimate D2E/DX2                !
 ! R36   R(16,45)                1.0949         estimate D2E/DX2                !
 ! R37   R(17,46)                1.0997         estimate D2E/DX2                !
 ! R38   R(17,47)                1.0951         estimate D2E/DX2                !
 ! R39   R(18,19)                1.502          estimate D2E/DX2                !
 ! R40   R(19,20)                1.5238         estimate D2E/DX2                !
 ! R41   R(19,26)                1.5126         estimate D2E/DX2                !
 ! R42   R(20,21)                1.406          estimate D2E/DX2                !
 ! R43   R(20,25)                1.3998         estimate D2E/DX2                !
 ! R44   R(21,22)                1.3923         estimate D2E/DX2                !
 ! R45   R(21,48)                1.0857         estimate D2E/DX2                !
 ! R46   R(22,23)                1.3958         estimate D2E/DX2                !
 ! R47   R(22,49)                1.0861         estimate D2E/DX2                !
 ! R48   R(23,24)                1.3928         estimate D2E/DX2                !
 ! R49   R(23,50)                1.0866         estimate D2E/DX2                !
 ! R50   R(24,25)                1.3956         estimate D2E/DX2                !
 ! R51   R(24,51)                1.0864         estimate D2E/DX2                !
 ! R52   R(25,52)                1.0828         estimate D2E/DX2                !
 ! R53   R(26,27)                1.4029         estimate D2E/DX2                !
 ! R54   R(26,31)                1.3971         estimate D2E/DX2                !
 ! R55   R(27,28)                1.393          estimate D2E/DX2                !
 ! R56   R(27,53)                1.0842         estimate D2E/DX2                !
 ! R57   R(28,29)                1.3962         estimate D2E/DX2                !
 ! R58   R(28,54)                1.0862         estimate D2E/DX2                !
 ! R59   R(29,30)                1.3936         estimate D2E/DX2                !
 ! R60   R(29,55)                1.0861         estimate D2E/DX2                !
 ! R61   R(30,31)                1.3962         estimate D2E/DX2                !
 ! R62   R(30,56)                1.0863         estimate D2E/DX2                !
 ! R63   R(31,57)                1.0832         estimate D2E/DX2                !
 ! R64   R(32,33)                1.3935         estimate D2E/DX2                !
 ! R65   R(32,58)                1.0865         estimate D2E/DX2                !
 ! R66   R(33,59)                1.0865         estimate D2E/DX2                !
 ! R67   R(60,61)                1.8648         estimate D2E/DX2                !
 ! R68   R(60,62)                1.8069         estimate D2E/DX2                !
 ! A1    A(2,1,33)             119.5352         estimate D2E/DX2                !
 ! A2    A(2,1,34)             120.2903         estimate D2E/DX2                !
 ! A3    A(33,1,34)            120.1648         estimate D2E/DX2                !
 ! A4    A(1,2,3)              120.8951         estimate D2E/DX2                !
 ! A5    A(1,2,35)             120.1016         estimate D2E/DX2                !
 ! A6    A(3,2,35)             119.0028         estimate D2E/DX2                !
 ! A7    A(2,3,4)              119.7015         estimate D2E/DX2                !
 ! A8    A(2,3,36)             119.4839         estimate D2E/DX2                !
 ! A9    A(4,3,36)             120.7723         estimate D2E/DX2                !
 ! A10   A(3,4,5)              123.1564         estimate D2E/DX2                !
 ! A11   A(3,4,32)             119.1666         estimate D2E/DX2                !
 ! A12   A(5,4,32)             117.6699         estimate D2E/DX2                !
 ! A13   A(4,5,6)              115.9392         estimate D2E/DX2                !
 ! A14   A(4,5,19)             118.2281         estimate D2E/DX2                !
 ! A15   A(4,5,37)             107.1097         estimate D2E/DX2                !
 ! A16   A(6,5,19)             102.784          estimate D2E/DX2                !
 ! A17   A(6,5,37)             106.0842         estimate D2E/DX2                !
 ! A18   A(19,5,37)            105.7015         estimate D2E/DX2                !
 ! A19   A(5,6,7)              107.1929         estimate D2E/DX2                !
 ! A20   A(5,6,60)             140.4676         estimate D2E/DX2                !
 ! A21   A(7,6,60)             109.619          estimate D2E/DX2                !
 ! A22   A(6,7,8)              121.6547         estimate D2E/DX2                !
 ! A23   A(6,7,18)             118.3578         estimate D2E/DX2                !
 ! A24   A(8,7,18)             119.9146         estimate D2E/DX2                !
 ! A25   A(7,8,9)              124.0868         estimate D2E/DX2                !
 ! A26   A(7,8,13)             113.1248         estimate D2E/DX2                !
 ! A27   A(9,8,13)             122.7872         estimate D2E/DX2                !
 ! A28   A(8,9,10)             117.8285         estimate D2E/DX2                !
 ! A29   A(8,9,38)             120.0367         estimate D2E/DX2                !
 ! A30   A(10,9,38)            122.1348         estimate D2E/DX2                !
 ! A31   A(9,10,11)            119.7632         estimate D2E/DX2                !
 ! A32   A(9,10,39)            120.1868         estimate D2E/DX2                !
 ! A33   A(11,10,39)           120.0494         estimate D2E/DX2                !
 ! A34   A(10,11,12)           118.744          estimate D2E/DX2                !
 ! A35   A(10,11,17)           124.9081         estimate D2E/DX2                !
 ! A36   A(12,11,17)           116.3345         estimate D2E/DX2                !
 ! A37   A(11,12,13)           121.1867         estimate D2E/DX2                !
 ! A38   A(11,12,14)           118.4627         estimate D2E/DX2                !
 ! A39   A(13,12,14)           120.347          estimate D2E/DX2                !
 ! A40   A(8,13,12)            119.6826         estimate D2E/DX2                !
 ! A41   A(8,13,60)            111.958          estimate D2E/DX2                !
 ! A42   A(12,13,60)           127.4956         estimate D2E/DX2                !
 ! A43   A(12,14,15)           111.4596         estimate D2E/DX2                !
 ! A44   A(12,14,40)           109.8277         estimate D2E/DX2                !
 ! A45   A(12,14,41)           107.2193         estimate D2E/DX2                !
 ! A46   A(15,14,40)           111.5192         estimate D2E/DX2                !
 ! A47   A(15,14,41)           109.1546         estimate D2E/DX2                !
 ! A48   A(40,14,41)           107.4832         estimate D2E/DX2                !
 ! A49   A(14,15,16)           114.0825         estimate D2E/DX2                !
 ! A50   A(14,15,42)           108.3978         estimate D2E/DX2                !
 ! A51   A(14,15,43)           107.9738         estimate D2E/DX2                !
 ! A52   A(16,15,42)           109.3499         estimate D2E/DX2                !
 ! A53   A(16,15,43)           110.3676         estimate D2E/DX2                !
 ! A54   A(42,15,43)           106.3653         estimate D2E/DX2                !
 ! A55   A(15,16,17)           112.7578         estimate D2E/DX2                !
 ! A56   A(15,16,44)           109.6962         estimate D2E/DX2                !
 ! A57   A(15,16,45)           110.6557         estimate D2E/DX2                !
 ! A58   A(17,16,44)           107.7543         estimate D2E/DX2                !
 ! A59   A(17,16,45)           109.2102         estimate D2E/DX2                !
 ! A60   A(44,16,45)           106.5361         estimate D2E/DX2                !
 ! A61   A(11,17,16)           109.6742         estimate D2E/DX2                !
 ! A62   A(11,17,46)           109.2498         estimate D2E/DX2                !
 ! A63   A(11,17,47)           110.7705         estimate D2E/DX2                !
 ! A64   A(16,17,46)           109.2833         estimate D2E/DX2                !
 ! A65   A(16,17,47)           110.9677         estimate D2E/DX2                !
 ! A66   A(46,17,47)           106.8322         estimate D2E/DX2                !
 ! A67   A(7,18,19)            106.0114         estimate D2E/DX2                !
 ! A68   A(5,19,18)             99.7978         estimate D2E/DX2                !
 ! A69   A(5,19,20)            116.3822         estimate D2E/DX2                !
 ! A70   A(5,19,26)            110.014          estimate D2E/DX2                !
 ! A71   A(18,19,20)           105.1458         estimate D2E/DX2                !
 ! A72   A(18,19,26)           108.4956         estimate D2E/DX2                !
 ! A73   A(20,19,26)           115.3946         estimate D2E/DX2                !
 ! A74   A(19,20,21)           119.7005         estimate D2E/DX2                !
 ! A75   A(19,20,25)           121.4675         estimate D2E/DX2                !
 ! A76   A(21,20,25)           118.6866         estimate D2E/DX2                !
 ! A77   A(20,21,22)           120.2226         estimate D2E/DX2                !
 ! A78   A(20,21,48)           122.2369         estimate D2E/DX2                !
 ! A79   A(22,21,48)           117.5399         estimate D2E/DX2                !
 ! A80   A(21,22,23)           120.7042         estimate D2E/DX2                !
 ! A81   A(21,22,49)           118.8193         estimate D2E/DX2                !
 ! A82   A(23,22,49)           120.4761         estimate D2E/DX2                !
 ! A83   A(22,23,24)           119.3711         estimate D2E/DX2                !
 ! A84   A(22,23,50)           120.3426         estimate D2E/DX2                !
 ! A85   A(24,23,50)           120.285          estimate D2E/DX2                !
 ! A86   A(23,24,25)           120.1823         estimate D2E/DX2                !
 ! A87   A(23,24,51)           120.3535         estimate D2E/DX2                !
 ! A88   A(25,24,51)           119.4632         estimate D2E/DX2                !
 ! A89   A(20,25,24)           120.8068         estimate D2E/DX2                !
 ! A90   A(20,25,52)           120.1647         estimate D2E/DX2                !
 ! A91   A(24,25,52)           119.0272         estimate D2E/DX2                !
 ! A92   A(19,26,27)           119.1818         estimate D2E/DX2                !
 ! A93   A(19,26,31)           121.7518         estimate D2E/DX2                !
 ! A94   A(27,26,31)           118.9795         estimate D2E/DX2                !
 ! A95   A(26,27,28)           120.4935         estimate D2E/DX2                !
 ! A96   A(26,27,53)           119.6635         estimate D2E/DX2                !
 ! A97   A(28,27,53)           119.8426         estimate D2E/DX2                !
 ! A98   A(27,28,29)           120.2622         estimate D2E/DX2                !
 ! A99   A(27,28,54)           119.5156         estimate D2E/DX2                !
 ! A100  A(29,28,54)           120.2218         estimate D2E/DX2                !
 ! A101  A(28,29,30)           119.4645         estimate D2E/DX2                !
 ! A102  A(28,29,55)           120.2384         estimate D2E/DX2                !
 ! A103  A(30,29,55)           120.2969         estimate D2E/DX2                !
 ! A104  A(29,30,31)           120.388          estimate D2E/DX2                !
 ! A105  A(29,30,56)           120.1401         estimate D2E/DX2                !
 ! A106  A(31,30,56)           119.4719         estimate D2E/DX2                !
 ! A107  A(26,31,30)           120.4116         estimate D2E/DX2                !
 ! A108  A(26,31,57)           119.5203         estimate D2E/DX2                !
 ! A109  A(30,31,57)           120.0678         estimate D2E/DX2                !
 ! A110  A(4,32,33)            120.8244         estimate D2E/DX2                !
 ! A111  A(4,32,58)            119.5219         estimate D2E/DX2                !
 ! A112  A(33,32,58)           119.6525         estimate D2E/DX2                !
 ! A113  A(1,33,32)            119.8338         estimate D2E/DX2                !
 ! A114  A(1,33,59)            120.3643         estimate D2E/DX2                !
 ! A115  A(32,33,59)           119.7933         estimate D2E/DX2                !
 ! A116  A(6,60,13)             80.6217         estimate D2E/DX2                !
 ! A117  A(6,60,61)             90.2709         estimate D2E/DX2                !
 ! A118  A(6,60,62)            141.9823         estimate D2E/DX2                !
 ! A119  A(13,60,61)            98.0365         estimate D2E/DX2                !
 ! A120  A(13,60,62)           105.0442         estimate D2E/DX2                !
 ! A121  A(61,60,62)           124.9535         estimate D2E/DX2                !
 ! D1    D(33,1,2,3)             1.402          estimate D2E/DX2                !
 ! D2    D(33,1,2,35)         -178.3413         estimate D2E/DX2                !
 ! D3    D(34,1,2,3)          -179.727          estimate D2E/DX2                !
 ! D4    D(34,1,2,35)            0.5296         estimate D2E/DX2                !
 ! D5    D(2,1,33,32)           -0.6002         estimate D2E/DX2                !
 ! D6    D(2,1,33,59)          178.3317         estimate D2E/DX2                !
 ! D7    D(34,1,33,32)        -179.4726         estimate D2E/DX2                !
 ! D8    D(34,1,33,59)          -0.5407         estimate D2E/DX2                !
 ! D9    D(1,2,3,4)             -0.3216         estimate D2E/DX2                !
 ! D10   D(1,2,3,36)          -177.975          estimate D2E/DX2                !
 ! D11   D(35,2,3,4)           179.4245         estimate D2E/DX2                !
 ! D12   D(35,2,3,36)            1.7711         estimate D2E/DX2                !
 ! D13   D(2,3,4,5)            179.4636         estimate D2E/DX2                !
 ! D14   D(2,3,4,32)            -1.5363         estimate D2E/DX2                !
 ! D15   D(36,3,4,5)            -2.9138         estimate D2E/DX2                !
 ! D16   D(36,3,4,32)          176.0863         estimate D2E/DX2                !
 ! D17   D(3,4,5,6)             31.058          estimate D2E/DX2                !
 ! D18   D(3,4,5,19)           -91.653          estimate D2E/DX2                !
 ! D19   D(3,4,5,37)           149.2278         estimate D2E/DX2                !
 ! D20   D(32,4,5,6)          -147.9562         estimate D2E/DX2                !
 ! D21   D(32,4,5,19)           89.3328         estimate D2E/DX2                !
 ! D22   D(32,4,5,37)          -29.7864         estimate D2E/DX2                !
 ! D23   D(3,4,32,33)            2.3466         estimate D2E/DX2                !
 ! D24   D(3,4,32,58)         -177.2437         estimate D2E/DX2                !
 ! D25   D(5,4,32,33)         -178.5985         estimate D2E/DX2                !
 ! D26   D(5,4,32,58)            1.8111         estimate D2E/DX2                !
 ! D27   D(4,5,6,7)           -147.9784         estimate D2E/DX2                !
 ! D28   D(4,5,6,60)            10.0086         estimate D2E/DX2                !
 ! D29   D(19,5,6,7)           -17.4589         estimate D2E/DX2                !
 ! D30   D(19,5,6,60)          140.5282         estimate D2E/DX2                !
 ! D31   D(37,5,6,7)            93.2877         estimate D2E/DX2                !
 ! D32   D(37,5,6,60)         -108.7253         estimate D2E/DX2                !
 ! D33   D(4,5,19,18)          152.0192         estimate D2E/DX2                !
 ! D34   D(4,5,19,20)           39.5848         estimate D2E/DX2                !
 ! D35   D(4,5,19,26)          -94.0571         estimate D2E/DX2                !
 ! D36   D(6,5,19,18)           22.9037         estimate D2E/DX2                !
 ! D37   D(6,5,19,20)          -89.5307         estimate D2E/DX2                !
 ! D38   D(6,5,19,26)          136.8275         estimate D2E/DX2                !
 ! D39   D(37,5,19,18)         -88.1283         estimate D2E/DX2                !
 ! D40   D(37,5,19,20)         159.4373         estimate D2E/DX2                !
 ! D41   D(37,5,19,26)          25.7954         estimate D2E/DX2                !
 ! D42   D(5,6,7,8)           -179.1199         estimate D2E/DX2                !
 ! D43   D(5,6,7,18)             3.989          estimate D2E/DX2                !
 ! D44   D(60,6,7,8)            15.5518         estimate D2E/DX2                !
 ! D45   D(60,6,7,18)         -161.3393         estimate D2E/DX2                !
 ! D46   D(5,6,60,13)         -172.8873         estimate D2E/DX2                !
 ! D47   D(5,6,60,61)          -74.7863         estimate D2E/DX2                !
 ! D48   D(5,6,60,62)           84.6452         estimate D2E/DX2                !
 ! D49   D(7,6,60,13)          -15.2295         estimate D2E/DX2                !
 ! D50   D(7,6,60,61)           82.8716         estimate D2E/DX2                !
 ! D51   D(7,6,60,62)         -117.6969         estimate D2E/DX2                !
 ! D52   D(6,7,8,9)            175.9248         estimate D2E/DX2                !
 ! D53   D(6,7,8,13)            -4.4578         estimate D2E/DX2                !
 ! D54   D(18,7,8,9)            -7.2316         estimate D2E/DX2                !
 ! D55   D(18,7,8,13)          172.3857         estimate D2E/DX2                !
 ! D56   D(6,7,18,19)           12.5221         estimate D2E/DX2                !
 ! D57   D(8,7,18,19)         -164.4248         estimate D2E/DX2                !
 ! D58   D(7,8,9,10)          -179.7467         estimate D2E/DX2                !
 ! D59   D(7,8,9,38)             0.3151         estimate D2E/DX2                !
 ! D60   D(13,8,9,10)            0.6719         estimate D2E/DX2                !
 ! D61   D(13,8,9,38)         -179.2663         estimate D2E/DX2                !
 ! D62   D(7,8,13,12)         -179.51           estimate D2E/DX2                !
 ! D63   D(7,8,13,60)           -9.3659         estimate D2E/DX2                !
 ! D64   D(9,8,13,12)            0.113          estimate D2E/DX2                !
 ! D65   D(9,8,13,60)          170.2571         estimate D2E/DX2                !
 ! D66   D(8,9,10,11)           -0.8406         estimate D2E/DX2                !
 ! D67   D(8,9,10,39)          179.4229         estimate D2E/DX2                !
 ! D68   D(38,9,10,11)         179.0962         estimate D2E/DX2                !
 ! D69   D(38,9,10,39)          -0.6403         estimate D2E/DX2                !
 ! D70   D(9,10,11,12)           0.2728         estimate D2E/DX2                !
 ! D71   D(9,10,11,17)         178.8851         estimate D2E/DX2                !
 ! D72   D(39,10,11,12)       -179.9904         estimate D2E/DX2                !
 ! D73   D(39,10,11,17)         -1.378          estimate D2E/DX2                !
 ! D74   D(10,11,12,13)          0.5301         estimate D2E/DX2                !
 ! D75   D(10,11,12,14)       -178.784          estimate D2E/DX2                !
 ! D76   D(17,11,12,13)       -178.2002         estimate D2E/DX2                !
 ! D77   D(17,11,12,14)          2.4857         estimate D2E/DX2                !
 ! D78   D(10,11,17,16)       -130.8026         estimate D2E/DX2                !
 ! D79   D(10,11,17,46)        109.4392         estimate D2E/DX2                !
 ! D80   D(10,11,17,47)         -7.9792         estimate D2E/DX2                !
 ! D81   D(12,11,17,16)         47.8399         estimate D2E/DX2                !
 ! D82   D(12,11,17,46)        -71.9183         estimate D2E/DX2                !
 ! D83   D(12,11,17,47)        170.6633         estimate D2E/DX2                !
 ! D84   D(11,12,13,8)          -0.7239         estimate D2E/DX2                !
 ! D85   D(11,12,13,60)       -169.1815         estimate D2E/DX2                !
 ! D86   D(14,12,13,8)         178.5774         estimate D2E/DX2                !
 ! D87   D(14,12,13,60)         10.1198         estimate D2E/DX2                !
 ! D88   D(11,12,14,15)        -46.2769         estimate D2E/DX2                !
 ! D89   D(11,12,14,40)       -170.3819         estimate D2E/DX2                !
 ! D90   D(11,12,14,41)         73.1249         estimate D2E/DX2                !
 ! D91   D(13,12,14,15)        134.4031         estimate D2E/DX2                !
 ! D92   D(13,12,14,40)         10.2981         estimate D2E/DX2                !
 ! D93   D(13,12,14,41)       -106.1952         estimate D2E/DX2                !
 ! D94   D(8,13,60,6)           13.4452         estimate D2E/DX2                !
 ! D95   D(8,13,60,61)         -75.4959         estimate D2E/DX2                !
 ! D96   D(8,13,60,62)         154.9298         estimate D2E/DX2                !
 ! D97   D(12,13,60,6)        -177.3579         estimate D2E/DX2                !
 ! D98   D(12,13,60,61)         93.701          estimate D2E/DX2                !
 ! D99   D(12,13,60,62)        -35.8732         estimate D2E/DX2                !
 ! D100  D(12,14,15,16)         37.2174         estimate D2E/DX2                !
 ! D101  D(12,14,15,42)        -84.8649         estimate D2E/DX2                !
 ! D102  D(12,14,15,43)        160.2956         estimate D2E/DX2                !
 ! D103  D(40,14,15,16)        160.3626         estimate D2E/DX2                !
 ! D104  D(40,14,15,42)         38.2802         estimate D2E/DX2                !
 ! D105  D(40,14,15,43)        -76.5592         estimate D2E/DX2                !
 ! D106  D(41,14,15,16)        -81.0289         estimate D2E/DX2                !
 ! D107  D(41,14,15,42)        156.8887         estimate D2E/DX2                !
 ! D108  D(41,14,15,43)         42.0493         estimate D2E/DX2                !
 ! D109  D(14,15,16,17)         10.7806         estimate D2E/DX2                !
 ! D110  D(14,15,16,44)       -109.312          estimate D2E/DX2                !
 ! D111  D(14,15,16,45)        133.4281         estimate D2E/DX2                !
 ! D112  D(42,15,16,17)        132.3384         estimate D2E/DX2                !
 ! D113  D(42,15,16,44)         12.2457         estimate D2E/DX2                !
 ! D114  D(42,15,16,45)       -105.0141         estimate D2E/DX2                !
 ! D115  D(43,15,16,17)       -110.9872         estimate D2E/DX2                !
 ! D116  D(43,15,16,44)        128.9202         estimate D2E/DX2                !
 ! D117  D(43,15,16,45)         11.6603         estimate D2E/DX2                !
 ! D118  D(15,16,17,11)        -53.1811         estimate D2E/DX2                !
 ! D119  D(15,16,17,46)         66.5567         estimate D2E/DX2                !
 ! D120  D(15,16,17,47)       -175.8876         estimate D2E/DX2                !
 ! D121  D(44,16,17,11)         68.0225         estimate D2E/DX2                !
 ! D122  D(44,16,17,46)       -172.2397         estimate D2E/DX2                !
 ! D123  D(44,16,17,47)        -54.684          estimate D2E/DX2                !
 ! D124  D(45,16,17,11)       -176.6343         estimate D2E/DX2                !
 ! D125  D(45,16,17,46)        -56.8965         estimate D2E/DX2                !
 ! D126  D(45,16,17,47)         60.6592         estimate D2E/DX2                !
 ! D127  D(7,18,19,5)          -21.2359         estimate D2E/DX2                !
 ! D128  D(7,18,19,20)          99.6884         estimate D2E/DX2                !
 ! D129  D(7,18,19,26)        -136.3232         estimate D2E/DX2                !
 ! D130  D(5,19,20,21)          46.1841         estimate D2E/DX2                !
 ! D131  D(5,19,20,25)        -138.2558         estimate D2E/DX2                !
 ! D132  D(18,19,20,21)        -63.1486         estimate D2E/DX2                !
 ! D133  D(18,19,20,25)        112.4116         estimate D2E/DX2                !
 ! D134  D(26,19,20,21)        177.3599         estimate D2E/DX2                !
 ! D135  D(26,19,20,25)         -7.08           estimate D2E/DX2                !
 ! D136  D(5,19,26,27)          73.6951         estimate D2E/DX2                !
 ! D137  D(5,19,26,31)        -102.8805         estimate D2E/DX2                !
 ! D138  D(18,19,26,27)       -178.0758         estimate D2E/DX2                !
 ! D139  D(18,19,26,31)          5.3486         estimate D2E/DX2                !
 ! D140  D(20,19,26,27)        -60.445          estimate D2E/DX2                !
 ! D141  D(20,19,26,31)        122.9794         estimate D2E/DX2                !
 ! D142  D(19,20,21,22)        177.3992         estimate D2E/DX2                !
 ! D143  D(19,20,21,48)         -2.8999         estimate D2E/DX2                !
 ! D144  D(25,20,21,22)          1.7157         estimate D2E/DX2                !
 ! D145  D(25,20,21,48)       -178.5834         estimate D2E/DX2                !
 ! D146  D(19,20,25,24)       -177.3721         estimate D2E/DX2                !
 ! D147  D(19,20,25,52)          2.225          estimate D2E/DX2                !
 ! D148  D(21,20,25,24)         -1.7682         estimate D2E/DX2                !
 ! D149  D(21,20,25,52)        177.829          estimate D2E/DX2                !
 ! D150  D(20,21,22,23)         -0.5215         estimate D2E/DX2                !
 ! D151  D(20,21,22,49)        179.2785         estimate D2E/DX2                !
 ! D152  D(48,21,22,23)        179.7638         estimate D2E/DX2                !
 ! D153  D(48,21,22,49)         -0.4362         estimate D2E/DX2                !
 ! D154  D(21,22,23,24)         -0.6552         estimate D2E/DX2                !
 ! D155  D(21,22,23,50)        179.7496         estimate D2E/DX2                !
 ! D156  D(49,22,23,24)        179.5481         estimate D2E/DX2                !
 ! D157  D(49,22,23,50)         -0.0471         estimate D2E/DX2                !
 ! D158  D(22,23,24,25)          0.6098         estimate D2E/DX2                !
 ! D159  D(22,23,24,51)       -179.0115         estimate D2E/DX2                !
 ! D160  D(50,23,24,25)       -179.7947         estimate D2E/DX2                !
 ! D161  D(50,23,24,51)          0.5839         estimate D2E/DX2                !
 ! D162  D(23,24,25,20)          0.6162         estimate D2E/DX2                !
 ! D163  D(23,24,25,52)       -178.9854         estimate D2E/DX2                !
 ! D164  D(51,24,25,20)       -179.7591         estimate D2E/DX2                !
 ! D165  D(51,24,25,52)          0.6393         estimate D2E/DX2                !
 ! D166  D(19,26,27,28)       -176.5176         estimate D2E/DX2                !
 ! D167  D(19,26,27,53)          3.7257         estimate D2E/DX2                !
 ! D168  D(31,26,27,28)          0.1538         estimate D2E/DX2                !
 ! D169  D(31,26,27,53)       -179.6029         estimate D2E/DX2                !
 ! D170  D(19,26,31,30)        176.6223         estimate D2E/DX2                !
 ! D171  D(19,26,31,57)         -3.546          estimate D2E/DX2                !
 ! D172  D(27,26,31,30)          0.04           estimate D2E/DX2                !
 ! D173  D(27,26,31,57)        179.8717         estimate D2E/DX2                !
 ! D174  D(26,27,28,29)         -0.1746         estimate D2E/DX2                !
 ! D175  D(26,27,28,54)       -179.9407         estimate D2E/DX2                !
 ! D176  D(53,27,28,29)        179.5817         estimate D2E/DX2                !
 ! D177  D(53,27,28,54)         -0.1843         estimate D2E/DX2                !
 ! D178  D(27,28,29,30)         -0.0003         estimate D2E/DX2                !
 ! D179  D(27,28,29,55)       -179.8636         estimate D2E/DX2                !
 ! D180  D(54,28,29,30)        179.7641         estimate D2E/DX2                !
 ! D181  D(54,28,29,55)         -0.0992         estimate D2E/DX2                !
 ! D182  D(28,29,30,31)          0.1941         estimate D2E/DX2                !
 ! D183  D(28,29,30,56)       -179.7795         estimate D2E/DX2                !
 ! D184  D(55,29,30,31)       -179.9426         estimate D2E/DX2                !
 ! D185  D(55,29,30,56)          0.0837         estimate D2E/DX2                !
 ! D186  D(29,30,31,26)         -0.2148         estimate D2E/DX2                !
 ! D187  D(29,30,31,57)        179.9544         estimate D2E/DX2                !
 ! D188  D(56,30,31,26)        179.759          estimate D2E/DX2                !
 ! D189  D(56,30,31,57)         -0.0718         estimate D2E/DX2                !
 ! D190  D(4,32,33,1)           -1.2794         estimate D2E/DX2                !
 ! D191  D(4,32,33,59)         179.7825         estimate D2E/DX2                !
 ! D192  D(58,32,33,1)         178.3104         estimate D2E/DX2                !
 ! D193  D(58,32,33,59)         -0.6277         estimate D2E/DX2                !
 --------------------------------------------------------------------------------
 Trust Radius=3.00D-01 FncErr=1.00D-07 GrdErr=1.00D-06 EigMax=2.50D+02 EigMin=1.00D-04
 Number of steps in this run=    372 maximum allowed number of steps=    372.
 GradGradGradGradGradGradGradGradGradGradGradGradGradGradGradGradGradGrad

 Stoichiometry    C30H26F2N2NiO(3)
 Framework group  C1[X(C30H26F2N2NiO)]
 Deg. of freedom   180
 Full point group                 C1      NOp   1
 Largest Abelian subgroup         C1      NOp   1
 Largest concise Abelian subgroup C1      NOp   1
                         Standard orientation:                         
 ---------------------------------------------------------------------
 Center     Atomic      Atomic             Coordinates (Angstroms)
 Number     Number       Type             X           Y           Z
 ---------------------------------------------------------------------
      1          6           0        3.425062    4.063129   -0.576343
      2          6           0        2.265190    3.840577    0.165205
      3          6           0        1.574829    2.631146    0.070253
      4          6           0        2.047131    1.627556   -0.785754
      5          6           0        1.369233    0.287107   -0.939969
      6          7           0       -0.092230    0.279954   -0.760198
      7          6           0       -0.407624   -0.860215   -0.257544
      8          6           0       -1.799997   -1.213700    0.034132
      9          6           0       -2.205502   -2.455625    0.499458
     10          6           0       -3.570296   -2.652547    0.729606
     11          6           0       -4.464713   -1.612199    0.506981
     12          6           0       -3.965159   -0.373671    0.043996
     13          7           0       -2.663826   -0.197399   -0.188744
     14          6           0       -4.931882    0.752605   -0.167611
     15          6           0       -6.191115    0.281578   -0.936730
     16          6           0       -6.668333   -1.147291   -0.556999
     17          6           0       -5.953390   -1.703098    0.693107
     18          8           0        0.574051   -1.707374    0.057538
     19          6           0        1.845242   -0.909719   -0.003801
     20          6           0        2.161492   -0.552735    1.443455
     21          6           0        1.273248    0.258865    2.170814
     22          6           0        1.523879    0.547375    3.509622
     23          6           0        2.649796    0.029344    4.151650
     24          6           0        3.520831   -0.795378    3.443817
     25          6           0        3.274400   -1.088827    2.101876
     26          6           0        2.895944   -1.735151   -0.712787
     27          6           0        4.190853   -1.215438   -0.858154
     28          6           0        5.159695   -1.920172   -1.568821
     29          6           0        4.852251   -3.155581   -2.141990
     30          6           0        3.568317   -3.677881   -1.997336
     31          6           0        2.594208   -2.971663   -1.288933
     32          6           0        3.191359    1.871118   -1.558230
     33          6           0        3.885348    3.074362   -1.446724
     34          1           0        3.957143    5.006636   -0.491524
     35          1           0        1.883654    4.614460    0.825352
     36          1           0        0.655377    2.494490    0.633196
     37          1           0        1.550602   -0.049851   -1.967799
     38          1           0       -1.473189   -3.235081    0.673930
     39          1           0       -3.931290   -3.613731    1.085370
     40          1           0       -4.432563    1.578294   -0.682766
     41          1           0       -5.231149    1.116098    0.826728
     42          1           0       -5.974934    0.318719   -2.009166
     43          1           0       -6.988266    1.009558   -0.757489
     44          1           0       -6.472418   -1.835034   -1.387483
     45          1           0       -7.750201   -1.161339   -0.389358
     46          1           0       -6.245716   -1.110541    1.572187
     47          1           0       -6.257577   -2.736195    0.891636
     48          1           0        0.380564    0.685643    1.723917
     49          1           0        0.828855    1.186394    4.046500
     50          1           0        2.841851    0.261606    5.195609
     51          1           0        4.393348   -1.220233    3.932232
     52          1           0        3.954746   -1.745397    1.574099
     53          1           0        4.438932   -0.259821   -0.410077
     54          1           0        6.157595   -1.503337   -1.670695
     55          1           0        5.608607   -3.705779   -2.694154
     56          1           0        3.318173   -4.639843   -2.435740
     57          1           0        1.597673   -3.382164   -1.180320
     58          1           0        3.536636    1.114211   -2.257036
     59          1           0        4.772196    3.244044   -2.050962
     60         28           0       -1.680121    1.587267   -0.565046
     61          9           0       -1.159891    1.972005    1.183891
     62          9           0       -2.844227    2.568283   -1.538345
 ---------------------------------------------------------------------
 Rotational constants (GHZ):           0.1619907           0.0748178           0.0661516
 General basis read from cards:  (6D, 7F)
 ======================================================================================================
                                       Pseudopotential Parameters
 ======================================================================================================
  Center     Atomic      Valence      Angular      Power
  Number     Number     Electrons     Momentum     of R      Exponent        Coefficient   SO-Coeffient
 ======================================================================================================
    1          6
                                   No pseudopotential on this center.
    2          6
                                   No pseudopotential on this center.
    3          6
                                   No pseudopotential on this center.
    4          6
                                   No pseudopotential on this center.
    5          6
                                   No pseudopotential on this center.
    6          7
                                   No pseudopotential on this center.
    7          6
                                   No pseudopotential on this center.
    8          6
                                   No pseudopotential on this center.
    9          6
                                   No pseudopotential on this center.
   10          6
                                   No pseudopotential on this center.
   11          6
                                   No pseudopotential on this center.
   12          6
                                   No pseudopotential on this center.
   13          7
                                   No pseudopotential on this center.
   14          6
                                   No pseudopotential on this center.
   15          6
                                   No pseudopotential on this center.
   16          6
                                   No pseudopotential on this center.
   17          6
                                   No pseudopotential on this center.
   18          8
                                   No pseudopotential on this center.
   19          6
                                   No pseudopotential on this center.
   20          6
                                   No pseudopotential on this center.
   21          6
                                   No pseudopotential on this center.
   22          6
                                   No pseudopotential on this center.
   23          6
                                   No pseudopotential on this center.
   24          6
                                   No pseudopotential on this center.
   25          6
                                   No pseudopotential on this center.
   26          6
                                   No pseudopotential on this center.
   27          6
                                   No pseudopotential on this center.
   28          6
                                   No pseudopotential on this center.
   29          6
                                   No pseudopotential on this center.
   30          6
                                   No pseudopotential on this center.
   31          6
                                   No pseudopotential on this center.
   32          6
                                   No pseudopotential on this center.
   33          6
                                   No pseudopotential on this center.
   34          1
                                   No pseudopotential on this center.
   35          1
                                   No pseudopotential on this center.
   36          1
                                   No pseudopotential on this center.
   37          1
                                   No pseudopotential on this center.
   38          1
                                   No pseudopotential on this center.
   39          1
                                   No pseudopotential on this center.
   40          1
                                   No pseudopotential on this center.
   41          1
                                   No pseudopotential on this center.
   42          1
                                   No pseudopotential on this center.
   43          1
                                   No pseudopotential on this center.
   44          1
                                   No pseudopotential on this center.
   45          1
                                   No pseudopotential on this center.
   46          1
                                   No pseudopotential on this center.
   47          1
                                   No pseudopotential on this center.
   48          1
                                   No pseudopotential on this center.
   49          1
                                   No pseudopotential on this center.
   50          1
                                   No pseudopotential on this center.
   51          1
                                   No pseudopotential on this center.
   52          1
                                   No pseudopotential on this center.
   53          1
                                   No pseudopotential on this center.
   54          1
                                   No pseudopotential on this center.
   55          1
                                   No pseudopotential on this center.
   56          1
                                   No pseudopotential on this center.
   57          1
                                   No pseudopotential on this center.
   58          1
                                   No pseudopotential on this center.
   59          1
                                   No pseudopotential on this center.
   60         28           18
                                      D and up 
                                                     1      469.9324331      -10.00000000    0.00000000
                                                     2       85.4236411      -69.40848050    0.00000000
                                                     2       21.2674984      -12.09510200    0.00000000
                                      S - D
                                                     0      162.1686097        3.00000000    0.00000000
                                                     1      176.5333232       22.02536180    0.00000000
                                                     2       68.9562010      443.01810880    0.00000000
                                                     2       13.5792838      145.56964110    0.00000000
                                      P - D
                                                     0       69.0181506        5.00000000    0.00000000
                                                     1      275.5955596        4.98828240    0.00000000
                                                     2       47.1315453      256.69458530    0.00000000
                                                     2       12.9874075       78.47544500    0.00000000
   61          9
                                   No pseudopotential on this center.
   62          9
                                   No pseudopotential on this center.
 ======================================================================================================
 There are   654 symmetry adapted cartesian basis functions of A   symmetry.
 There are   651 symmetry adapted basis functions of A   symmetry.
   651 basis functions,  1238 primitive gaussians,   654 cartesian basis functions
   133 alpha electrons      131 beta electrons
       nuclear repulsion energy      4220.6209576745 Hartrees.
 NAtoms=   62 NActive=   62 NUniq=   62 SFac= 1.00D+00 NAtFMM=   60 NAOKFM=T Big=T
 Integral buffers will be    131072 words long.
 Raffenetti 2 integral format.
 Two-electron integral symmetry is turned on.
 Nuclear repulsion after empirical dispersion term =     4220.4544280700 Hartrees.
 One-electron integrals computed using PRISM.
 PrsmSu:  requested number of processors reduced to:  12 ShMem   1 Linda.
   1 Symmetry operations used in ECPInt.
 ECPInt:  NShTT=   22791 NPrTT=  142008 LenC2=   18078 LenP2D=   59381.
 LDataN:  DoStor=T MaxTD1= 6 Len=  172
 Number of processors reduced to  11 by ecpmxn.
 NBasis=   651 RedAO= T EigKep=  1.02D-06  NBF=   651
 NBsUse=   651 1.00D-06 EigRej= -1.00D+00 NBFU=   651
 ExpMin= 2.40D-02 ExpMax= 7.14D+04 ExpMxC= 1.07D+04 IAcc=3 IRadAn=         5 AccDes= 0.00D+00
 Harris functional with IExCor=  402 and IRadAn=       5 diagonalized for initial guess.
 HarFok:  IExCor=  402 AccDes= 0.00D+00 IRadAn=         5 IDoV= 1 UseB2=F ITyADJ=14
 ICtDFT=  3500011 ScaDFX=  1.000000  1.000000  1.000000  1.000000
 FoFCou: FMM=F IPFlag=           0 FMFlag=      100000 FMFlg1=        2001
         NFxFlg=           0 DoJE=T BraDBF=F KetDBF=T FulRan=T
         wScrn=  0.000000 ICntrl=       500 IOpCl=  0 I1Cent=   200000004 NGrid=           0
         NMat0=    1 NMatS0=      1 NMatT0=    0 NMatD0=    1 NMtDS0=    0 NMtDT0=    0
 Petite list used in FoFCou.
 Initial guess <Sx>= 0.0000 <Sy>= 0.0000 <Sz>= 1.0000 <S**2>= 2.0000 S= 1.0000
 Requested convergence on RMS density matrix=1.00D-08 within 128 cycles.
 Requested convergence on MAX density matrix=1.00D-06.
 Requested convergence on             energy=1.00D-06.
 No special actions if energy rises.
 Restarting incremental Fock formation.
 Restarting incremental Fock formation.
 SCF Done:  E(UB3LYP) =  -1712.90318031     A.U. after   48 cycles
            NFock= 48  Conv=0.13D-08     -V/T= 2.0467
 <Sx>= 0.0000 <Sy>= 0.0000 <Sz>= 1.0000 <S**2>= 2.0054 S= 1.0018
 <L.S>=  0.00000000000    
 Annihilation of the first spin contaminant:
 S**2 before annihilation     2.0054,   after     2.0000

 **********************************************************************

            Population analysis using the SCF Density.

 **********************************************************************

 Orbital symmetries:
 Alpha Orbitals:
       Occupied  (A) (A) (A) (A) (A) (A) (A) (A) (A) (A) (A) (A)
                 (A) (A) (A) (A) (A) (A) (A) (A) (A) (A) (A) (A)
                 (A) (A) (A) (A) (A) (A) (A) (A) (A) (A) (A) (A)
                 (A) (A) (A) (A) (A) (A) (A) (A) (A) (A) (A) (A)
                 (A) (A) (A) (A) (A) (A) (A) (A) (A) (A) (A) (A)
                 (A) (A) (A) (A) (A) (A) (A) (A) (A) (A) (A) (A)
                 (A) (A) (A) (A) (A) (A) (A) (A) (A) (A) (A) (A)
                 (A) (A) (A) (A) (A) (A) (A) (A) (A) (A) (A) (A)
                 (A) (A) (A) (A) (A) (A) (A) (A) (A) (A) (A) (A)
                 (A) (A) (A) (A) (A) (A) (A) (A) (A) (A) (A) (A)
                 (A) (A) (A) (A) (A) (A) (A) (A) (A) (A) (A) (A)
                 (A)
       Virtual   (A) (A) (A) (A) (A) (A) (A) (A) (A) (A) (A) (A)
                 (A) (A) (A) (A) (A) (A) (A) (A) (A) (A) (A) (A)
                 (A) (A) (A) (A) (A) (A) (A) (A) (A) (A) (A) (A)
                 (A) (A) (A) (A) (A) (A) (A) (A) (A) (A) (A) (A)
                 (A) (A) (A) (A) (A) (A) (A) (A) (A) (A) (A) (A)
                 (A) (A) (A) (A) (A) (A) (A) (A) (A) (A) (A) (A)
                 (A) (A) (A) (A) (A) (A) (A) (A) (A) (A) (A) (A)
                 (A) (A) (A) (A) (A) (A) (A) (A) (A) (A) (A) (A)
                 (A) (A) (A) (A) (A) (A) (A) (A) (A) (A) (A) (A)
                 (A) (A) (A) (A) (A) (A) (A) (A) (A) (A) (A) (A)
                 (A) (A) (A) (A) (A) (A) (A) (A) (A) (A) (A) (A)
                 (A) (A) (A) (A) (A) (A) (A) (A) (A) (A) (A) (A)
                 (A) (A) (A) (A) (A) (A) (A) (A) (A) (A) (A) (A)
                 (A) (A) (A) (A) (A) (A) (A) (A) (A) (A) (A) (A)
                 (A) (A) (A) (A) (A) (A) (A) (A) (A) (A) (A) (A)
                 (A) (A) (A) (A) (A) (A) (A) (A) (A) (A) (A) (A)
                 (A) (A) (A) (A) (A) (A) (A) (A) (A) (A) (A) (A)
                 (A) (A) (A) (A) (A) (A) (A) (A) (A) (A) (A) (A)
                 (A) (A) (A) (A) (A) (A) (A) (A) (A) (A) (A) (A)
                 (A) (A) (A) (A) (A) (A) (A) (A) (A) (A) (A) (A)
                 (A) (A) (A) (A) (A) (A) (A) (A) (A) (A) (A) (A)
                 (A) (A) (A) (A) (A) (A) (A) (A) (A) (A) (A) (A)
                 (A) (A) (A) (A) (A) (A) (A) (A) (A) (A) (A) (A)
                 (A) (A) (A) (A) (A) (A) (A) (A) (A) (A) (A) (A)
                 (A) (A) (A) (A) (A) (A) (A) (A) (A) (A) (A) (A)
                 (A) (A) (A) (A) (A) (A) (A) (A) (A) (A) (A) (A)
                 (A) (A) (A) (A) (A) (A) (A) (A) (A) (A) (A) (A)
                 (A) (A) (A) (A) (A) (A) (A) (A) (A) (A) (A) (A)
                 (A) (A) (A) (A) (A) (A) (A) (A) (A) (A) (A) (A)
                 (A) (A) (A) (A) (A) (A) (A) (A) (A) (A) (A) (A)
                 (A) (A) (A) (A) (A) (A) (A) (A) (A) (A) (A) (A)
                 (A) (A) (A) (A) (A) (A) (A) (A) (A) (A) (A) (A)
                 (A) (A) (A) (A) (A) (A) (A) (A) (A) (A) (A) (A)
                 (A) (A) (A) (A) (A) (A) (A) (A) (A) (A) (A) (A)
                 (A) (A) (A) (A) (A) (A) (A) (A) (A) (A) (A) (A)
                 (A) (A) (A) (A) (A) (A) (A) (A) (A) (A) (A) (A)
                 (A) (A) (A) (A) (A) (A) (A) (A) (A) (A) (A) (A)
                 (A) (A) (A) (A) (A) (A) (A) (A) (A) (A) (A) (A)
                 (A) (A) (A) (A) (A) (A) (A) (A) (A) (A) (A) (A)
                 (A) (A) (A) (A) (A) (A) (A) (A) (A) (A) (A) (A)
                 (A) (A) (A) (A) (A) (A) (A) (A) (A) (A) (A) (A)
                 (A) (A) (A) (A) (A) (A) (A) (A) (A) (A) (A) (A)
                 (A) (A) (A) (A) (A) (A) (A) (A) (A) (A) (A) (A)
                 (A) (A)
 Beta  Orbitals:
       Occupied  (A) (A) (A) (A) (A) (A) (A) (A) (A) (A) (A) (A)
                 (A) (A) (A) (A) (A) (A) (A) (A) (A) (A) (A) (A)
                 (A) (A) (A) (A) (A) (A) (A) (A) (A) (A) (A) (A)
                 (A) (A) (A) (A) (A) (A) (A) (A) (A) (A) (A) (A)
                 (A) (A) (A) (A) (A) (A) (A) (A) (A) (A) (A) (A)
                 (A) (A) (A) (A) (A) (A) (A) (A) (A) (A) (A) (A)
                 (A) (A) (A) (A) (A) (A) (A) (A) (A) (A) (A) (A)
                 (A) (A) (A) (A) (A) (A) (A) (A) (A) (A) (A) (A)
                 (A) (A) (A) (A) (A) (A) (A) (A) (A) (A) (A) (A)
                 (A) (A) (A) (A) (A) (A) (A) (A) (A) (A) (A) (A)
                 (A) (A) (A) (A) (A) (A) (A) (A) (A) (A) (A)
       Virtual   (A) (A) (A) (A) (A) (A) (A) (A) (A) (A) (A) (A)
                 (A) (A) (A) (A) (A) (A) (A) (A) (A) (A) (A) (A)
                 (A) (A) (A) (A) (A) (A) (A) (A) (A) (A) (A) (A)
                 (A) (A) (A) (A) (A) (A) (A) (A) (A) (A) (A) (A)
                 (A) (A) (A) (A) (A) (A) (A) (A) (A) (A) (A) (A)
                 (A) (A) (A) (A) (A) (A) (A) (A) (A) (A) (A) (A)
                 (A) (A) (A) (A) (A) (A) (A) (A) (A) (A) (A) (A)
                 (A) (A) (A) (A) (A) (A) (A) (A) (A) (A) (A) (A)
                 (A) (A) (A) (A) (A) (A) (A) (A) (A) (A) (A) (A)
                 (A) (A) (A) (A) (A) (A) (A) (A) (A) (A) (A) (A)
                 (A) (A) (A) (A) (A) (A) (A) (A) (A) (A) (A) (A)
                 (A) (A) (A) (A) (A) (A) (A) (A) (A) (A) (A) (A)
                 (A) (A) (A) (A) (A) (A) (A) (A) (A) (A) (A) (A)
                 (A) (A) (A) (A) (A) (A) (A) (A) (A) (A) (A) (A)
                 (A) (A) (A) (A) (A) (A) (A) (A) (A) (A) (A) (A)
                 (A) (A) (A) (A) (A) (A) (A) (A) (A) (A) (A) (A)
                 (A) (A) (A) (A) (A) (A) (A) (A) (A) (A) (A) (A)
                 (A) (A) (A) (A) (A) (A) (A) (A) (A) (A) (A) (A)
                 (A) (A) (A) (A) (A) (A) (A) (A) (A) (A) (A) (A)
                 (A) (A) (A) (A) (A) (A) (A) (A) (A) (A) (A) (A)
                 (A) (A) (A) (A) (A) (A) (A) (A) (A) (A) (A) (A)
                 (A) (A) (A) (A) (A) (A) (A) (A) (A) (A) (A) (A)
                 (A) (A) (A) (A) (A) (A) (A) (A) (A) (A) (A) (A)
                 (A) (A) (A) (A) (A) (A) (A) (A) (A) (A) (A) (A)
                 (A) (A) (A) (A) (A) (A) (A) (A) (A) (A) (A) (A)
                 (A) (A) (A) (A) (A) (A) (A) (A) (A) (A) (A) (A)
                 (A) (A) (A) (A) (A) (A) (A) (A) (A) (A) (A) (A)
                 (A) (A) (A) (A) (A) (A) (A) (A) (A) (A) (A) (A)
                 (A) (A) (A) (A) (A) (A) (A) (A) (A) (A) (A) (A)
                 (A) (A) (A) (A) (A) (A) (A) (A) (A) (A) (A) (A)
                 (A) (A) (A) (A) (A) (A) (A) (A) (A) (A) (A) (A)
                 (A) (A) (A) (A) (A) (A) (A) (A) (A) (A) (A) (A)
                 (A) (A) (A) (A) (A) (A) (A) (A) (A) (A) (A) (A)
                 (A) (A) (A) (A) (A) (A) (A) (A) (A) (A) (A) (A)
                 (A) (A) (A) (A) (A) (A) (A) (A) (A) (A) (A) (A)
                 (A) (A) (A) (A) (A) (A) (A) (A) (A) (A) (A) (A)
                 (A) (A) (A) (A) (A) (A) (A) (A) (A) (A) (A) (A)
                 (A) (A) (A) (A) (A) (A) (A) (A) (A) (A) (A) (A)
                 (A) (A) (A) (A) (A) (A) (A) (A) (A) (A) (A) (A)
                 (A) (A) (A) (A) (A) (A) (A) (A) (A) (A) (A) (A)
                 (A) (A) (A) (A) (A) (A) (A) (A) (A) (A) (A) (A)
                 (A) (A) (A) (A) (A) (A) (A) (A) (A) (A) (A) (A)
                 (A) (A) (A) (A) (A) (A) (A) (A) (A) (A) (A) (A)
                 (A) (A) (A) (A)
 The electronic state is 3-A.
 Alpha  occ. eigenvalues --  -24.56915 -24.55945 -19.21398 -14.38501 -14.36009
 Alpha  occ. eigenvalues --  -10.31271 -10.28116 -10.26652 -10.25675 -10.24454
 Alpha  occ. eigenvalues --  -10.23473 -10.23150 -10.23001 -10.21143 -10.21068
 Alpha  occ. eigenvalues --  -10.20045 -10.20009 -10.19992 -10.19921 -10.19899
 Alpha  occ. eigenvalues --  -10.19866 -10.19804 -10.19476 -10.19303 -10.18753
 Alpha  occ. eigenvalues --  -10.18740 -10.18707 -10.18600 -10.18553 -10.18451
 Alpha  occ. eigenvalues --  -10.18306 -10.18157 -10.17898 -10.17704 -10.17151
 Alpha  occ. eigenvalues --   -4.09630  -2.71209  -2.69986  -2.68453  -1.12041
 Alpha  occ. eigenvalues --   -1.02833  -1.01842  -0.99148  -0.93928  -0.87687
 Alpha  occ. eigenvalues --   -0.85970  -0.85216  -0.84675  -0.83543  -0.81318
 Alpha  occ. eigenvalues --   -0.77998  -0.76122  -0.75531  -0.75322  -0.74775
 Alpha  occ. eigenvalues --   -0.73812  -0.73517  -0.72019  -0.68422  -0.66887
 Alpha  occ. eigenvalues --   -0.65013  -0.63528  -0.62453  -0.61321  -0.60332
 Alpha  occ. eigenvalues --   -0.59902  -0.59631  -0.58019  -0.57732  -0.56323
 Alpha  occ. eigenvalues --   -0.54622  -0.53358  -0.53230  -0.51956  -0.50734
 Alpha  occ. eigenvalues --   -0.49657  -0.48921  -0.47909  -0.47352  -0.46984
 Alpha  occ. eigenvalues --   -0.46285  -0.45553  -0.45204  -0.44938  -0.44680
 Alpha  occ. eigenvalues --   -0.44508  -0.43862  -0.43623  -0.42883  -0.42537
 Alpha  occ. eigenvalues --   -0.42269  -0.41451  -0.41368  -0.41017  -0.40788
 Alpha  occ. eigenvalues --   -0.40627  -0.40142  -0.40054  -0.39816  -0.39285
 Alpha  occ. eigenvalues --   -0.38620  -0.37410  -0.36907  -0.36639  -0.36276
 Alpha  occ. eigenvalues --   -0.35710  -0.35564  -0.35441  -0.35052  -0.34856
 Alpha  occ. eigenvalues --   -0.34636  -0.33863  -0.33722  -0.33375  -0.33208
 Alpha  occ. eigenvalues --   -0.33051  -0.32771  -0.31512  -0.30947  -0.29610
 Alpha  occ. eigenvalues --   -0.28982  -0.28638  -0.26802  -0.26260  -0.26026
 Alpha  occ. eigenvalues --   -0.25866  -0.25450  -0.25013  -0.24734  -0.24564
 Alpha  occ. eigenvalues --   -0.24182  -0.23913  -0.23325
 Alpha virt. eigenvalues --   -0.08203  -0.04764  -0.01769  -0.01453  -0.01152
 Alpha virt. eigenvalues --   -0.00118   0.00107   0.01473   0.01513   0.02874
 Alpha virt. eigenvalues --    0.03039   0.03524   0.04455   0.08268   0.08832
 Alpha virt. eigenvalues --    0.09016   0.09910   0.10168   0.10808   0.11227
 Alpha virt. eigenvalues --    0.11406   0.12226   0.12588   0.13181   0.13359
 Alpha virt. eigenvalues --    0.13560   0.14213   0.14250   0.14625   0.15031
 Alpha virt. eigenvalues --    0.15408   0.15843   0.16093   0.16687   0.17005
 Alpha virt. eigenvalues --    0.17420   0.17575   0.17875   0.17954   0.18121
 Alpha virt. eigenvalues --    0.18238   0.18689   0.19179   0.19684   0.20080
 Alpha virt. eigenvalues --    0.20333   0.21454   0.21905   0.22164   0.22480
 Alpha virt. eigenvalues --    0.23972   0.24368   0.24829   0.25375   0.25724
 Alpha virt. eigenvalues --    0.26108   0.27006   0.27252   0.27697   0.28260
 Alpha virt. eigenvalues --    0.28851   0.29043   0.29567   0.29702   0.30761
 Alpha virt. eigenvalues --    0.31240   0.31768   0.32375   0.32786   0.33141
 Alpha virt. eigenvalues --    0.33742   0.34275   0.34618   0.34762   0.36051
 Alpha virt. eigenvalues --    0.36776   0.37385   0.38488   0.39459   0.40699
 Alpha virt. eigenvalues --    0.41874   0.44651   0.45801   0.46623   0.47109
 Alpha virt. eigenvalues --    0.48272   0.49330   0.49794   0.50438   0.51073
 Alpha virt. eigenvalues --    0.51551   0.51972   0.52428   0.53083   0.53571
 Alpha virt. eigenvalues --    0.53877   0.54026   0.54592   0.54853   0.55473
 Alpha virt. eigenvalues --    0.55686   0.55899   0.56130   0.56557   0.56695
 Alpha virt. eigenvalues --    0.57424   0.57784   0.58021   0.58439   0.58522
 Alpha virt. eigenvalues --    0.59175   0.59278   0.59708   0.59810   0.59952
 Alpha virt. eigenvalues --    0.60457   0.60620   0.60876   0.61182   0.61234
 Alpha virt. eigenvalues --    0.61512   0.61724   0.61984   0.62515   0.62737
 Alpha virt. eigenvalues --    0.62804   0.63339   0.63599   0.63872   0.64613
 Alpha virt. eigenvalues --    0.64878   0.65320   0.65621   0.65755   0.66247
 Alpha virt. eigenvalues --    0.66308   0.67080   0.67587   0.68095   0.68469
 Alpha virt. eigenvalues --    0.69619   0.70214   0.70975   0.71224   0.72689
 Alpha virt. eigenvalues --    0.73419   0.74455   0.75518   0.75801   0.76531
 Alpha virt. eigenvalues --    0.76724   0.77447   0.78475   0.78995   0.80370
 Alpha virt. eigenvalues --    0.80763   0.82110   0.82398   0.82515   0.83026
 Alpha virt. eigenvalues --    0.83428   0.83732   0.84257   0.84381   0.84768
 Alpha virt. eigenvalues --    0.85096   0.85123   0.85595   0.85679   0.86364
 Alpha virt. eigenvalues --    0.86606   0.87203   0.87865   0.88442   0.88787
 Alpha virt. eigenvalues --    0.89268   0.89806   0.90078   0.90564   0.90810
 Alpha virt. eigenvalues --    0.91712   0.91878   0.92186   0.92845   0.93294
 Alpha virt. eigenvalues --    0.93661   0.94182   0.94442   0.95477   0.95715
 Alpha virt. eigenvalues --    0.96143   0.96663   0.97349   0.97904   0.98256
 Alpha virt. eigenvalues --    0.98845   0.99279   1.00478   1.01399   1.01941
 Alpha virt. eigenvalues --    1.02353   1.03425   1.03881   1.04779   1.05306
 Alpha virt. eigenvalues --    1.05957   1.07053   1.07299   1.08886   1.09289
 Alpha virt. eigenvalues --    1.10606   1.11549   1.11932   1.13111   1.14141
 Alpha virt. eigenvalues --    1.14324   1.15321   1.16085   1.16537   1.17002
 Alpha virt. eigenvalues --    1.17375   1.18924   1.19144   1.19400   1.20146
 Alpha virt. eigenvalues --    1.21816   1.22517   1.23751   1.26168   1.26804
 Alpha virt. eigenvalues --    1.27577   1.29049   1.29452   1.29533   1.31509
 Alpha virt. eigenvalues --    1.32236   1.32939   1.33455   1.34971   1.36548
 Alpha virt. eigenvalues --    1.37767   1.38871   1.39315   1.40504   1.40602
 Alpha virt. eigenvalues --    1.41602   1.42488   1.42976   1.43574   1.43863
 Alpha virt. eigenvalues --    1.43951   1.45158   1.45292   1.46517   1.46665
 Alpha virt. eigenvalues --    1.47484   1.47903   1.48535   1.48705   1.49400
 Alpha virt. eigenvalues --    1.49967   1.50374   1.50542   1.50917   1.51238
 Alpha virt. eigenvalues --    1.51763   1.52437   1.53178   1.53212   1.54446
 Alpha virt. eigenvalues --    1.55378   1.56628   1.58273   1.59112   1.60674
 Alpha virt. eigenvalues --    1.61920   1.63423   1.65090   1.67010   1.68770
 Alpha virt. eigenvalues --    1.69681   1.70272   1.71456   1.72101   1.72968
 Alpha virt. eigenvalues --    1.73889   1.74722   1.76834   1.77403   1.77968
 Alpha virt. eigenvalues --    1.78462   1.79437   1.79847   1.80403   1.80733
 Alpha virt. eigenvalues --    1.81688   1.83405   1.83802   1.84373   1.85218
 Alpha virt. eigenvalues --    1.85459   1.86609   1.87598   1.88768   1.89026
 Alpha virt. eigenvalues --    1.89558   1.89798   1.90483   1.91665   1.92186
 Alpha virt. eigenvalues --    1.92478   1.92633   1.92807   1.94057   1.94133
 Alpha virt. eigenvalues --    1.94952   1.95475   1.96531   1.96758   1.97360
 Alpha virt. eigenvalues --    1.97866   1.98209   1.99165   1.99793   2.00261
 Alpha virt. eigenvalues --    2.01026   2.01839   2.02538   2.03354   2.04311
 Alpha virt. eigenvalues --    2.04679   2.05647   2.06889   2.07147   2.08439
 Alpha virt. eigenvalues --    2.08824   2.09344   2.10372   2.10776   2.12091
 Alpha virt. eigenvalues --    2.12548   2.13406   2.13687   2.13906   2.14298
 Alpha virt. eigenvalues --    2.14997   2.15489   2.16041   2.16371   2.17131
 Alpha virt. eigenvalues --    2.17471   2.17718   2.18356   2.18804   2.19662
 Alpha virt. eigenvalues --    2.20550   2.21807   2.21897   2.22356   2.23631
 Alpha virt. eigenvalues --    2.24031   2.24809   2.25399   2.26733   2.27324
 Alpha virt. eigenvalues --    2.27874   2.29008   2.29417   2.30250   2.30315
 Alpha virt. eigenvalues --    2.31120   2.31760   2.32145   2.32573   2.32837
 Alpha virt. eigenvalues --    2.33615   2.34640   2.35807   2.37017   2.37783
 Alpha virt. eigenvalues --    2.38719   2.41693   2.42250   2.42516   2.45257
 Alpha virt. eigenvalues --    2.45540   2.46883   2.47714   2.49128   2.49676
 Alpha virt. eigenvalues --    2.50572   2.51480   2.52931   2.53766   2.55938
 Alpha virt. eigenvalues --    2.56776   2.58019   2.58646   2.58813   2.59271
 Alpha virt. eigenvalues --    2.60038   2.60717   2.61729   2.62683   2.63816
 Alpha virt. eigenvalues --    2.63994   2.64992   2.65058   2.65756   2.66497
 Alpha virt. eigenvalues --    2.67212   2.68308   2.68818   2.70078   2.70777
 Alpha virt. eigenvalues --    2.71721   2.72715   2.73756   2.74314   2.74607
 Alpha virt. eigenvalues --    2.74843   2.76003   2.77073   2.77290   2.78142
 Alpha virt. eigenvalues --    2.78826   2.79613   2.80240   2.80877   2.81685
 Alpha virt. eigenvalues --    2.83447   2.85137   2.86129   2.87591   2.91444
 Alpha virt. eigenvalues --    2.91875   2.92347   2.95577   3.00185   3.03385
 Alpha virt. eigenvalues --    3.04199   3.06034   3.09485   3.13799   3.14973
 Alpha virt. eigenvalues --    3.17158   3.29287   3.31179   3.41052   3.41794
 Alpha virt. eigenvalues --    3.43121   3.44044   3.53983   3.60865   3.77194
 Alpha virt. eigenvalues --    3.90789   4.07888   4.08662   4.09462   4.10266
 Alpha virt. eigenvalues --    4.11128   4.11890   4.12181   4.13782   4.14692
 Alpha virt. eigenvalues --    4.16823   4.19055   4.21342   4.22468   4.25674
 Alpha virt. eigenvalues --    4.28713   4.32092   4.34128   4.35020   4.35638
 Alpha virt. eigenvalues --    4.37940   4.39646   4.40566   4.42711   4.46268
 Alpha virt. eigenvalues --    4.48221   4.52449   4.56956   4.58276   4.63339
 Alpha virt. eigenvalues --    4.69674   4.74401   4.77074   4.79164   4.96238
 Alpha virt. eigenvalues --    5.07475   5.11583   5.88617   6.01028   6.02081
 Alpha virt. eigenvalues --    6.15666   6.22408  11.32486  17.37921  17.74297
 Alpha virt. eigenvalues --   17.82162  18.32715  18.56656  22.77897  22.94527
 Alpha virt. eigenvalues --   23.06072  26.29060  57.00535 118.85225 118.96857
 Alpha virt. eigenvalues --  119.08294 134.97012 381.84173 927.02417 927.31797
 Alpha virt. eigenvalues --  928.144451467.80646**********
  Beta  occ. eigenvalues --  -24.56596 -24.55683 -19.21389 -14.38293 -14.35919
  Beta  occ. eigenvalues --  -10.31265 -10.28112 -10.26661 -10.25683 -10.24448
  Beta  occ. eigenvalues --  -10.23480 -10.23142 -10.22988 -10.21143 -10.21068
  Beta  occ. eigenvalues --  -10.20045 -10.20009 -10.19992 -10.19921 -10.19898
  Beta  occ. eigenvalues --  -10.19865 -10.19805 -10.19474 -10.19304 -10.18753
  Beta  occ. eigenvalues --  -10.18737 -10.18706 -10.18600 -10.18553 -10.18450
  Beta  occ. eigenvalues --  -10.18306 -10.18157 -10.17898 -10.17703 -10.17151
  Beta  occ. eigenvalues --   -3.98746  -2.58769  -2.58290  -2.58099  -1.12015
  Beta  occ. eigenvalues --   -1.02063  -1.01174  -0.98946  -0.93819  -0.87683
  Beta  occ. eigenvalues --   -0.85938  -0.85203  -0.84669  -0.83503  -0.81311
  Beta  occ. eigenvalues --   -0.77985  -0.76112  -0.75530  -0.75302  -0.74774
  Beta  occ. eigenvalues --   -0.73811  -0.73516  -0.72003  -0.68399  -0.66858
  Beta  occ. eigenvalues --   -0.64990  -0.63458  -0.62427  -0.61317  -0.60308
  Beta  occ. eigenvalues --   -0.59899  -0.59624  -0.57986  -0.57710  -0.56283
  Beta  occ. eigenvalues --   -0.54516  -0.53283  -0.53209  -0.51938  -0.50703
  Beta  occ. eigenvalues --   -0.49624  -0.48895  -0.47853  -0.47304  -0.46916
  Beta  occ. eigenvalues --   -0.46256  -0.45536  -0.45170  -0.44914  -0.44514
  Beta  occ. eigenvalues --   -0.44220  -0.43774  -0.43284  -0.42843  -0.42500
  Beta  occ. eigenvalues --   -0.42159  -0.41348  -0.41260  -0.40916  -0.40750
  Beta  occ. eigenvalues --   -0.40204  -0.40060  -0.39291  -0.38671  -0.37818
  Beta  occ. eigenvalues --   -0.36768  -0.36350  -0.35834  -0.35552  -0.35404
  Beta  occ. eigenvalues --   -0.35021  -0.34892  -0.34755  -0.34531  -0.34026
  Beta  occ. eigenvalues --   -0.33771  -0.33399  -0.32934  -0.32595  -0.32052
  Beta  occ. eigenvalues --   -0.31813  -0.31231  -0.29903  -0.29391  -0.28479
  Beta  occ. eigenvalues --   -0.28193  -0.26521  -0.26187  -0.26096  -0.25634
  Beta  occ. eigenvalues --   -0.24779  -0.24603  -0.24017  -0.23868  -0.23407
  Beta  occ. eigenvalues --   -0.22377
  Beta virt. eigenvalues --   -0.08299  -0.04837  -0.03653  -0.02436  -0.01686
  Beta virt. eigenvalues --   -0.01363  -0.01146  -0.00093   0.00146   0.01537
  Beta virt. eigenvalues --    0.01624   0.02963   0.03164   0.03734   0.04512
  Beta virt. eigenvalues --    0.08346   0.08957   0.09052   0.10029   0.10498
  Beta virt. eigenvalues --    0.10825   0.11256   0.11702   0.12310   0.12687
  Beta virt. eigenvalues --    0.13357   0.13430   0.13612   0.14255   0.14276
  Beta virt. eigenvalues --    0.14642   0.15086   0.15524   0.15856   0.16125
  Beta virt. eigenvalues --    0.16728   0.17023   0.17465   0.17607   0.17884
  Beta virt. eigenvalues --    0.17983   0.18153   0.18266   0.18698   0.19214
  Beta virt. eigenvalues --    0.19693   0.20116   0.20349   0.21487   0.21945
  Beta virt. eigenvalues --    0.22324   0.22520   0.24006   0.24516   0.24913
  Beta virt. eigenvalues --    0.25557   0.25813   0.26249   0.27119   0.27355
  Beta virt. eigenvalues --    0.27869   0.28346   0.28917   0.29242   0.29642
  Beta virt. eigenvalues --    0.29810   0.30992   0.31284   0.31929   0.32544
  Beta virt. eigenvalues --    0.32904   0.33205   0.33814   0.34309   0.34680
  Beta virt. eigenvalues --    0.34810   0.36142   0.36797   0.37442   0.38611
  Beta virt. eigenvalues --    0.39527   0.40881   0.42029   0.44754   0.45843
  Beta virt. eigenvalues --    0.46669   0.47176   0.48364   0.49434   0.49864
  Beta virt. eigenvalues --    0.50502   0.51101   0.51579   0.52012   0.52474
  Beta virt. eigenvalues --    0.53109   0.53644   0.53934   0.54057   0.54681
  Beta virt. eigenvalues --    0.54863   0.55497   0.55713   0.55930   0.56204
  Beta virt. eigenvalues --    0.56576   0.56731   0.57452   0.57863   0.58068
  Beta virt. eigenvalues --    0.58463   0.58602   0.59204   0.59322   0.59757
  Beta virt. eigenvalues --    0.59870   0.60021   0.60482   0.60765   0.60914
  Beta virt. eigenvalues --    0.61236   0.61267   0.61590   0.61805   0.62028
  Beta virt. eigenvalues --    0.62550   0.62771   0.63007   0.63509   0.63678
  Beta virt. eigenvalues --    0.63925   0.64728   0.64917   0.65500   0.65715
  Beta virt. eigenvalues --    0.65871   0.66378   0.66553   0.67185   0.67623
  Beta virt. eigenvalues --    0.68203   0.68597   0.69764   0.70260   0.71026
  Beta virt. eigenvalues --    0.71390   0.72963   0.73658   0.74673   0.75544
  Beta virt. eigenvalues --    0.75852   0.76627   0.76847   0.77512   0.78542
  Beta virt. eigenvalues --    0.79217   0.80391   0.80841   0.82365   0.82551
  Beta virt. eigenvalues --    0.82633   0.83038   0.83437   0.83755   0.84279
  Beta virt. eigenvalues --    0.84410   0.84799   0.85123   0.85145   0.85659
  Beta virt. eigenvalues --    0.85780   0.86383   0.86672   0.87244   0.87876
  Beta virt. eigenvalues --    0.88470   0.88806   0.89403   0.89947   0.90289
  Beta virt. eigenvalues --    0.90616   0.90885   0.91734   0.91906   0.92352
  Beta virt. eigenvalues --    0.92990   0.93431   0.93831   0.94409   0.94897
  Beta virt. eigenvalues --    0.95557   0.95776   0.96177   0.96922   0.97390
  Beta virt. eigenvalues --    0.98005   0.98518   0.98924   0.99410   1.00569
  Beta virt. eigenvalues --    1.01499   1.02222   1.02456   1.03662   1.04015
  Beta virt. eigenvalues --    1.05134   1.05530   1.06398   1.07144   1.07770
  Beta virt. eigenvalues --    1.09164   1.09456   1.10891   1.11715   1.11978
  Beta virt. eigenvalues --    1.13264   1.14242   1.14424   1.15479   1.16232
  Beta virt. eigenvalues --    1.16561   1.17052   1.17397   1.19061   1.19172
  Beta virt. eigenvalues --    1.19484   1.20247   1.21833   1.22628   1.23844
  Beta virt. eigenvalues --    1.26199   1.26935   1.27634   1.29100   1.29469
  Beta virt. eigenvalues --    1.29594   1.31534   1.32328   1.33106   1.33611
  Beta virt. eigenvalues --    1.35388   1.36726   1.37988   1.38927   1.39361
  Beta virt. eigenvalues --    1.40607   1.40656   1.41715   1.42649   1.43037
  Beta virt. eigenvalues --    1.43605   1.43875   1.43976   1.45192   1.45345
  Beta virt. eigenvalues --    1.46655   1.46896   1.47619   1.47937   1.48576
  Beta virt. eigenvalues --    1.48834   1.49409   1.49984   1.50410   1.50571
  Beta virt. eigenvalues --    1.51019   1.51264   1.51779   1.52538   1.53247
  Beta virt. eigenvalues --    1.53284   1.54542   1.55534   1.56892   1.58362
  Beta virt. eigenvalues --    1.59255   1.60801   1.62119   1.63466   1.65270
  Beta virt. eigenvalues --    1.67168   1.68823   1.69737   1.70402   1.71556
  Beta virt. eigenvalues --    1.72218   1.73048   1.74020   1.75000   1.76906
  Beta virt. eigenvalues --    1.77546   1.78199   1.78539   1.79581   1.79914
  Beta virt. eigenvalues --    1.80438   1.80776   1.81762   1.83501   1.83850
  Beta virt. eigenvalues --    1.84414   1.85311   1.85519   1.86685   1.87677
  Beta virt. eigenvalues --    1.88815   1.89240   1.89652   1.89924   1.90531
  Beta virt. eigenvalues --    1.91776   1.92538   1.92616   1.92782   1.92951
  Beta virt. eigenvalues --    1.94182   1.94221   1.95042   1.95614   1.96704
  Beta virt. eigenvalues --    1.97000   1.97499   1.98013   1.98596   1.99349
  Beta virt. eigenvalues --    1.99965   2.00374   2.01248   2.02005   2.02864
  Beta virt. eigenvalues --    2.03486   2.04398   2.04731   2.05796   2.06992
  Beta virt. eigenvalues --    2.07287   2.08642   2.09015   2.09538   2.10490
  Beta virt. eigenvalues --    2.10971   2.12413   2.12657   2.13438   2.13710
  Beta virt. eigenvalues --    2.14033   2.14316   2.15036   2.15501   2.16098
  Beta virt. eigenvalues --    2.16419   2.17186   2.17562   2.17831   2.18548
  Beta virt. eigenvalues --    2.18957   2.19692   2.20722   2.21920   2.22002
  Beta virt. eigenvalues --    2.22814   2.23904   2.24219   2.25085   2.25602
  Beta virt. eigenvalues --    2.26892   2.27432   2.27964   2.29225   2.29621
  Beta virt. eigenvalues --    2.30286   2.30478   2.31140   2.31847   2.32290
  Beta virt. eigenvalues --    2.32663   2.32867   2.33696   2.35186   2.36079
  Beta virt. eigenvalues --    2.37560   2.38561   2.38827   2.41951   2.42643
  Beta virt. eigenvalues --    2.42832   2.45396   2.46102   2.47271   2.47994
  Beta virt. eigenvalues --    2.49695   2.50224   2.51083   2.51558   2.53611
  Beta virt. eigenvalues --    2.54344   2.56357   2.57460   2.58482   2.59091
  Beta virt. eigenvalues --    2.59347   2.60279   2.60536   2.60944   2.62081
  Beta virt. eigenvalues --    2.63267   2.64088   2.64747   2.65140   2.65469
  Beta virt. eigenvalues --    2.66727   2.67278   2.67688   2.68778   2.69807
  Beta virt. eigenvalues --    2.70373   2.71090   2.72008   2.73223   2.73802
  Beta virt. eigenvalues --    2.74543   2.74859   2.75101   2.76371   2.77154
  Beta virt. eigenvalues --    2.77686   2.78588   2.79100   2.80087   2.80824
  Beta virt. eigenvalues --    2.81715   2.82199   2.83504   2.86024   2.87130
  Beta virt. eigenvalues --    2.88030   2.91573   2.92383   2.93336   2.96773
  Beta virt. eigenvalues --    3.00321   3.03590   3.04516   3.06115   3.09537
  Beta virt. eigenvalues --    3.13840   3.15134   3.17514   3.29435   3.34473
  Beta virt. eigenvalues --    3.41061   3.41803   3.43138   3.44428   3.56728
  Beta virt. eigenvalues --    3.64520   3.81678   3.94651   4.07937   4.08669
  Beta virt. eigenvalues --    4.09577   4.10271   4.11141   4.11894   4.12373
  Beta virt. eigenvalues --    4.13799   4.14763   4.16898   4.19329   4.21506
  Beta virt. eigenvalues --    4.22563   4.25785   4.28882   4.32185   4.34183
  Beta virt. eigenvalues --    4.35081   4.35649   4.38070   4.39674   4.40573
  Beta virt. eigenvalues --    4.42753   4.46346   4.48260   4.52747   4.57065
  Beta virt. eigenvalues --    4.58360   4.63373   4.69677   4.74443   4.77093
  Beta virt. eigenvalues --    4.79211   4.96392   5.07985   5.14508   5.91554
  Beta virt. eigenvalues --    6.04138   6.07199   6.26535   6.31144  11.38135
  Beta virt. eigenvalues --   17.39568  17.76324  17.84642  18.38261  18.60956
  Beta virt. eigenvalues --   22.89164  23.06101  23.19348  26.37981  57.10546
  Beta virt. eigenvalues --  118.90614 119.02948 119.16259 135.04348 381.29040
  Beta virt. eigenvalues --  923.85903 924.04518 924.699111458.50766**********
          Condensed to atoms (all electrons):
          Atomic-Atomic Spin Densities.
 Mulliken charges and spin densities:
               1          2
     1  C   -0.122570  -0.000331
     2  C   -0.146717   0.000671
     3  C   -0.194043  -0.000585
     4  C    0.157213   0.000972
     5  C   -0.068266   0.001347
     6  N   -0.543373   0.027714
     7  C    0.615746   0.004443
     8  C    0.335486  -0.005379
     9  C   -0.170285   0.004854
    10  C   -0.160684  -0.005604
    11  C    0.137536   0.006831
    12  C    0.343465  -0.007871
    13  N   -0.646898   0.067417
    14  C   -0.400882   0.002266
    15  C   -0.278683  -0.000330
    16  C   -0.272302   0.000131
    17  C   -0.359234   0.000236
    18  O   -0.542742   0.002393
    19  C    0.116042   0.001898
    20  C    0.173941  -0.000641
    21  C   -0.207846   0.000759
    22  C   -0.154709  -0.000297
    23  C   -0.119358   0.000642
    24  C   -0.137320  -0.000377
    25  C   -0.184610   0.000632
    26  C    0.057397  -0.000297
    27  C   -0.177083   0.000492
    28  C   -0.139591  -0.000303
    29  C   -0.123070   0.000552
    30  C   -0.131961  -0.000302
    31  C   -0.168394   0.000527
    32  C   -0.196325  -0.000446
    33  C   -0.136155   0.000635
    34  H    0.128789   0.000009
    35  H    0.143409  -0.000026
    36  H    0.202027  -0.000849
    37  H    0.179867   0.000034
    38  H    0.178897   0.000477
    39  H    0.153969   0.000205
    40  H    0.243088  -0.001001
    41  H    0.173581  -0.000442
    42  H    0.167947   0.000004
    43  H    0.153289   0.000046
    44  H    0.148194  -0.000008
    45  H    0.148287   0.000011
    46  H    0.169537   0.000102
    47  H    0.149486   0.000315
    48  H    0.201575  -0.000687
    49  H    0.148495   0.000024
    50  H    0.129608  -0.000030
    51  H    0.128345   0.000015
    52  H    0.146013  -0.000020
    53  H    0.165571  -0.000016
    54  H    0.137691   0.000011
    55  H    0.134578  -0.000028
    56  H    0.134343   0.000019
    57  H    0.145713  -0.000033
    58  H    0.135716   0.000017
    59  H    0.127311  -0.000032
    60  Ni   0.682152   1.742328
    61  F   -0.443256   0.071861
    62  F   -0.467945   0.085046
 Sum of Mulliken charges =  -0.00000   2.00000
 Mulliken charges and spin densities with hydrogens summed into heavy atoms:
               1          2
     1  C    0.006218  -0.000322
     2  C   -0.003309   0.000645
     3  C    0.007984  -0.001434
     4  C    0.157213   0.000972
     5  C    0.111601   0.001381
     6  N   -0.543373   0.027714
     7  C    0.615746   0.004443
     8  C    0.335486  -0.005379
     9  C    0.008612   0.005331
    10  C   -0.006715  -0.005399
    11  C    0.137536   0.006831
    12  C    0.343465  -0.007871
    13  N   -0.646898   0.067417
    14  C    0.015787   0.000823
    15  C    0.042554  -0.000279
    16  C    0.024179   0.000134
    17  C   -0.040212   0.000653
    18  O   -0.542742   0.002393
    19  C    0.116042   0.001898
    20  C    0.173941  -0.000641
    21  C   -0.006271   0.000071
    22  C   -0.006214  -0.000274
    23  C    0.010250   0.000612
    24  C   -0.008975  -0.000362
    25  C   -0.038597   0.000612
    26  C    0.057397  -0.000297
    27  C   -0.011511   0.000475
    28  C   -0.001900  -0.000291
    29  C    0.011508   0.000524
    30  C    0.002381  -0.000282
    31  C   -0.022681   0.000494
    32  C   -0.060609  -0.000430
    33  C   -0.008844   0.000603
    60  Ni   0.682152   1.742328
    61  F   -0.443256   0.071861
    62  F   -0.467945   0.085046
 Electronic spatial extent (au):  <R**2>=          17241.4046
 Charge=             -0.0000 electrons
 Dipole moment (field-independent basis, Debye):
    X=              0.1757    Y=             -7.5315    Z=              0.3926  Tot=              7.5437
 Quadrupole moment (field-independent basis, Debye-Ang):
   XX=           -173.7917   YY=           -211.1878   ZZ=           -212.6204
   XY=             20.1247   XZ=            -10.7747   YZ=              6.3357
 Traceless Quadrupole moment (field-independent basis, Debye-Ang):
   XX=             25.4083   YY=            -11.9878   ZZ=            -13.4204
   XY=             20.1247   XZ=            -10.7747   YZ=              6.3357
 Octapole moment (field-independent basis, Debye-Ang**2):
  XXX=           -182.5315  YYY=             20.0922  ZZZ=             17.2407  XYY=              5.3979
  XXY=            -50.7157  XXZ=             -4.6211  XZZ=              5.6880  YZZ=              6.0296
  YYZ=             -2.4945  XYZ=              3.1019
 Hexadecapole moment (field-independent basis, Debye-Ang**3):
 XXXX=         -13448.1321 YYYY=          -4940.0784 ZZZZ=          -3010.3186 XXXY=              2.2531
 XXXZ=           -253.3626 YYYX=            100.5804 YYYZ=             96.2900 ZZZX=            139.3537
 ZZZY=             36.6755 XXYY=          -3222.4676 XXZZ=          -2932.0099 YYZZ=          -1414.5932
 XXYZ=             22.7275 YYXZ=           -144.6064 ZZXY=            -51.5464
 N-N= 4.220454428070D+03 E-N=-1.244348160634D+04  KE= 1.636471532733D+03
                          Isotropic Fermi Contact Couplings
        Atom                 a.u.       MegaHertz       Gauss      10(-4) cm-1
     1  C(13)             -0.00004      -0.02467      -0.00880      -0.00823
     2  C(13)              0.00009       0.05301       0.01892       0.01768
     3  C(13)             -0.00041      -0.23237      -0.08292      -0.07751
     4  C(13)              0.00065       0.36766       0.13119       0.12264
     5  C(13)              0.00326       1.83184       0.65365       0.61104
     6  N(14)              0.06034       9.74749       3.47815       3.25141
     7  C(13)              0.00040       0.22428       0.08003       0.07481
     8  C(13)             -0.00227      -1.27360      -0.45445      -0.42483
     9  C(13)              0.00204       1.14660       0.40914       0.38246
    10  C(13)             -0.00063      -0.35278      -0.12588      -0.11768
    11  C(13)              0.00363       2.04033       0.72804       0.68058
    12  C(13)             -0.00013      -0.07329      -0.02615      -0.02445
    13  N(14)              0.10677      17.24929       6.15498       5.75374
    14  C(13)              0.00019       0.10853       0.03873       0.03620
    15  C(13)             -0.00029      -0.16272      -0.05806      -0.05428
    16  C(13)              0.00002       0.01383       0.00493       0.00461
    17  C(13)              0.00038       0.21600       0.07707       0.07205
    18  O(17)              0.00171      -0.51965      -0.18542      -0.17334
    19  C(13)              0.00129       0.72403       0.25835       0.24151
    20  C(13)             -0.00010      -0.05365      -0.01914      -0.01790
    21  C(13)              0.00025       0.14045       0.05012       0.04685
    22  C(13)             -0.00004      -0.02437      -0.00870      -0.00813
    23  C(13)              0.00007       0.03739       0.01334       0.01247
    24  C(13)             -0.00005      -0.02721      -0.00971      -0.00908
    25  C(13)              0.00006       0.03365       0.01201       0.01122
    26  C(13)              0.00025       0.13920       0.04967       0.04643
    27  C(13)              0.00003       0.01893       0.00676       0.00632
    28  C(13)             -0.00005      -0.02695      -0.00962      -0.00899
    29  C(13)              0.00006       0.03409       0.01216       0.01137
    30  C(13)             -0.00004      -0.02497      -0.00891      -0.00833
    31  C(13)              0.00004       0.02308       0.00823       0.00770
    32  C(13)             -0.00010      -0.05735      -0.02046      -0.01913
    33  C(13)              0.00006       0.03261       0.01164       0.01088
    34  H(1)               0.00000       0.00696       0.00248       0.00232
    35  H(1)              -0.00001      -0.01709      -0.00610      -0.00570
    36  H(1)               0.00010       0.23319       0.08321       0.07778
    37  H(1)              -0.00006      -0.14397      -0.05137      -0.04802
    38  H(1)               0.00024       0.52864       0.18863       0.17634
    39  H(1)               0.00007       0.16195       0.05779       0.05402
    40  H(1)               0.00002       0.04563       0.01628       0.01522
    41  H(1)              -0.00021      -0.46264      -0.16508      -0.15432
    42  H(1)               0.00001       0.01127       0.00402       0.00376
    43  H(1)               0.00003       0.07190       0.02566       0.02398
    44  H(1)              -0.00001      -0.01288      -0.00460      -0.00430
    45  H(1)               0.00000       0.00465       0.00166       0.00155
    46  H(1)               0.00006       0.13546       0.04833       0.04518
    47  H(1)               0.00011       0.24609       0.08781       0.08209
    48  H(1)              -0.00000      -0.00888      -0.00317      -0.00296
    49  H(1)               0.00000       0.00868       0.00310       0.00290
    50  H(1)              -0.00001      -0.02032      -0.00725      -0.00678
    51  H(1)               0.00000       0.01049       0.00374       0.00350
    52  H(1)              -0.00001      -0.02015      -0.00719      -0.00672
    53  H(1)              -0.00001      -0.01634      -0.00583      -0.00545
    54  H(1)               0.00000       0.00783       0.00279       0.00261
    55  H(1)              -0.00001      -0.01971      -0.00703      -0.00658
    56  H(1)               0.00001       0.01517       0.00541       0.00506
    57  H(1)              -0.00001      -0.02169      -0.00774      -0.00723
    58  H(1)               0.00000       0.00922       0.00329       0.00307
    59  H(1)              -0.00001      -0.02306      -0.00823      -0.00769
    60  Ni(61)             0.00000      -0.00026      -0.00009      -0.00009
    61  F(19)              0.03985      83.83556      29.91461      27.96453
    62  F(19)              0.02476      52.08989      18.58697      17.37532
 --------------------------------------------------------
       Center         ----  Spin Dipole Couplings  ----
                      3XX-RR        3YY-RR        3ZZ-RR
 --------------------------------------------------------
     1   Atom        0.002247     -0.000603     -0.001644
     2   Atom        0.003549     -0.001050     -0.002499
     3   Atom        0.011328     -0.004915     -0.006413
     4   Atom        0.011106     -0.005655     -0.005450
     5   Atom        0.016556     -0.006821     -0.009734
     6   Atom        0.022334      0.026588     -0.048922
     7   Atom       -0.003776      0.010987     -0.007211
     8   Atom       -0.005565      0.022377     -0.016812
     9   Atom       -0.005898      0.007945     -0.002046
    10   Atom        0.001075      0.005545     -0.006620
    11   Atom       -0.002015      0.003439     -0.001424
    12   Atom        0.015263      0.000300     -0.015563
    13   Atom       -0.057270      0.114470     -0.057200
    14   Atom        0.012537     -0.004355     -0.008182
    15   Atom        0.004710     -0.001955     -0.002755
    16   Atom        0.002107     -0.000514     -0.001593
    17   Atom        0.002225     -0.000449     -0.001776
    18   Atom       -0.007388     -0.004718      0.012106
    19   Atom        0.002027      0.001931     -0.003957
    20   Atom        0.002338     -0.001293     -0.001045
    21   Atom        0.001310     -0.002114      0.000804
    22   Atom        0.000258     -0.001886      0.001628
    23   Atom        0.000278     -0.000573      0.000295
    24   Atom        0.000589     -0.000701      0.000112
    25   Atom        0.001111     -0.000318     -0.000793
    26   Atom        0.001840      0.000083     -0.001923
    27   Atom        0.001349     -0.000554     -0.000795
    28   Atom        0.000945     -0.000189     -0.000756
    29   Atom        0.000251     -0.000101     -0.000151
    30   Atom        0.000406      0.000341     -0.000747
    31   Atom        0.000292      0.000439     -0.000731
    32   Atom        0.004324     -0.002178     -0.002146
    33   Atom        0.002501     -0.001322     -0.001179
    34   Atom        0.001215     -0.000205     -0.001011
    35   Atom        0.001532      0.000388     -0.001920
    36   Atom        0.015445     -0.009581     -0.005865
    37   Atom        0.005372     -0.002663     -0.002709
    38   Atom       -0.002273      0.004360     -0.002088
    39   Atom       -0.000587      0.001761     -0.001174
    40   Atom        0.026012     -0.012555     -0.013457
    41   Atom        0.007518     -0.004605     -0.002913
    42   Atom        0.004190     -0.002099     -0.002090
    43   Atom        0.003759     -0.001824     -0.001934
    44   Atom        0.001348     -0.000056     -0.001292
    45   Atom        0.001527     -0.000512     -0.001015
    46   Atom        0.001507     -0.000606     -0.000901
    47   Atom        0.000585      0.000422     -0.001007
    48   Atom        0.002371     -0.006005      0.003634
    49   Atom       -0.000627     -0.002025      0.002652
    50   Atom        0.000056     -0.000663      0.000607
    51   Atom        0.000390     -0.000362     -0.000028
    52   Atom        0.000926     -0.000273     -0.000653
    53   Atom        0.001978     -0.000839     -0.001139
    54   Atom        0.000744     -0.000287     -0.000457
    55   Atom        0.000323     -0.000021     -0.000303
    56   Atom        0.000073      0.000381     -0.000453
    57   Atom       -0.000136      0.001488     -0.001352
    58   Atom        0.002943     -0.001695     -0.001248
    59   Atom        0.001558     -0.000780     -0.000778
    60   Atom        0.152862     -0.003353     -0.149508
    61   Atom       -0.222867     -0.083756      0.306623
    62   Atom       -0.314627      0.035756      0.278871
 --------------------------------------------------------
                        XY            XZ            YZ
 --------------------------------------------------------
     1   Atom        0.001946     -0.000209      0.000079
     2   Atom        0.003580      0.001470      0.000423
     3   Atom        0.005416      0.003420      0.001355
     4   Atom        0.000528     -0.000212      0.000078
     5   Atom       -0.006862     -0.003564      0.000993
     6   Atom       -0.076586      0.006883     -0.009410
     7   Atom       -0.016187     -0.004736     -0.005319
     8   Atom       -0.003576      0.000221     -0.012091
     9   Atom        0.002378     -0.000190     -0.002175
    10   Atom        0.002539     -0.001720     -0.004355
    11   Atom        0.007379     -0.002391     -0.003250
    12   Atom        0.013053     -0.009834     -0.007676
    13   Atom        0.098093     -0.026100     -0.059349
    14   Atom        0.002578     -0.001861     -0.001587
    15   Atom        0.002054      0.000462     -0.000003
    16   Atom        0.001918      0.000119     -0.000190
    17   Atom        0.002554     -0.001184     -0.000731
    18   Atom       -0.004448      0.003395     -0.012450
    19   Atom       -0.005423      0.001622     -0.002228
    20   Atom       -0.002974      0.002670     -0.001244
    21   Atom       -0.002499      0.004942     -0.002742
    22   Atom       -0.000968      0.002861     -0.000857
    23   Atom       -0.000080      0.001337     -0.000701
    24   Atom       -0.000858      0.001168     -0.000393
    25   Atom       -0.000792      0.001087     -0.000834
    26   Atom       -0.002467     -0.000554      0.000571
    27   Atom       -0.001343      0.000031     -0.000263
    28   Atom       -0.000725     -0.000302      0.000253
    29   Atom       -0.000827     -0.000097     -0.000139
    30   Atom       -0.000948     -0.000368      0.000417
    31   Atom       -0.001835      0.000030      0.000204
    32   Atom        0.000559     -0.001593      0.000044
    33   Atom        0.000843     -0.000292     -0.000477
    34   Atom        0.001342      0.000010      0.000016
    35   Atom        0.003411      0.001518      0.001289
    36   Atom        0.010694      0.013040      0.005038
    37   Atom       -0.005082     -0.004882      0.002243
    38   Atom       -0.000590      0.000201     -0.001804
    39   Atom        0.001239     -0.000446     -0.001078
    40   Atom        0.001167      0.000265     -0.000980
    41   Atom        0.001470     -0.005141     -0.000606
    42   Atom        0.002127      0.002353      0.000635
    43   Atom        0.000647      0.000158     -0.000017
    44   Atom        0.001958      0.000532      0.000341
    45   Atom        0.001103     -0.000059     -0.000050
    46   Atom        0.001714     -0.001527     -0.000770
    47   Atom        0.001629     -0.000563     -0.000530
    48   Atom       -0.005695      0.011527     -0.005070
    49   Atom       -0.000299      0.002646     -0.000490
    50   Atom       -0.000222      0.001026     -0.000293
    51   Atom       -0.000446      0.000705     -0.000314
    52   Atom       -0.001088      0.000674     -0.000389
    53   Atom       -0.000901      0.000079     -0.000006
    54   Atom       -0.000486     -0.000183      0.000078
    55   Atom       -0.000531     -0.000226      0.000155
    56   Atom       -0.000745     -0.000237      0.000286
    57   Atom       -0.001869     -0.000263      0.000391
    58   Atom       -0.000372     -0.001558      0.000098
    59   Atom        0.000629     -0.000594     -0.000168
    60   Atom       -0.481552      1.256998     -0.271383
    61   Atom        0.107092      0.176834      0.259068
    62   Atom       -0.069690     -0.073005      0.016772
 --------------------------------------------------------


 ---------------------------------------------------------------------------------
              Anisotropic Spin Dipole Couplings in Principal Axis System
 ---------------------------------------------------------------------------------

       Atom             a.u.   MegaHertz   Gauss  10(-4) cm-1        Axes

              Baa    -0.0018    -0.240    -0.086    -0.080  0.3110 -0.5623  0.7662
     1 C(13)  Bbb    -0.0015    -0.195    -0.070    -0.065 -0.3282  0.6931  0.6418
              Bcc     0.0032     0.435     0.155     0.145  0.8919  0.4511 -0.0310
 
              Baa    -0.0032    -0.434    -0.155    -0.145 -0.4773  0.6722  0.5659
     2 C(13)  Bbb    -0.0025    -0.341    -0.122    -0.114  0.1441 -0.5755  0.8050
              Bcc     0.0058     0.775     0.276     0.258  0.8669  0.4658  0.1778
 
              Baa    -0.0072    -0.969    -0.346    -0.323 -0.0363 -0.4418  0.8964
     3 C(13)  Bbb    -0.0064    -0.861    -0.307    -0.287 -0.3374  0.8497  0.4052
              Bcc     0.0136     1.830     0.653     0.610  0.9407  0.2877  0.1799
 
              Baa    -0.0057    -0.765    -0.273    -0.255 -0.0338  0.9453 -0.3244
     4 C(13)  Bbb    -0.0054    -0.728    -0.260    -0.243  0.0018  0.3246  0.9458
              Bcc     0.0111     1.493     0.533     0.498  0.9994  0.0314 -0.0126
 
              Baa    -0.0102    -1.370    -0.489    -0.457  0.1197 -0.0481  0.9916
     5 C(13)  Bbb    -0.0087    -1.166    -0.416    -0.389  0.2642  0.9643  0.0149
              Bcc     0.0189     2.536     0.905     0.846  0.9570 -0.2603 -0.1281
 
              Baa    -0.0530    -2.043    -0.729    -0.682  0.6148  0.6453  0.4535
     6 N(14)  Bbb    -0.0490    -1.889    -0.674    -0.630 -0.3736 -0.2681  0.8880
              Bcc     0.1020     3.932     1.403     1.312 -0.6946  0.7153 -0.0763
 
              Baa    -0.0184    -2.472    -0.882    -0.824  0.7019  0.4813  0.5250
     7 C(13)  Bbb    -0.0031    -0.417    -0.149    -0.139 -0.4778 -0.2285  0.8482
              Bcc     0.0215     2.889     1.031     0.964 -0.5283  0.8462 -0.0695
 
              Baa    -0.0203    -2.722    -0.971    -0.908  0.0528  0.2764  0.9596
     8 C(13)  Bbb    -0.0059    -0.793    -0.283    -0.265  0.9926  0.0909 -0.0808
              Bcc     0.0262     3.515     1.254     1.172 -0.1096  0.9567 -0.2696
 
              Baa    -0.0063    -0.846    -0.302    -0.282  0.9843 -0.1709 -0.0433
     9 C(13)  Bbb    -0.0025    -0.332    -0.119    -0.111  0.0756  0.1872  0.9794
              Bcc     0.0088     1.178     0.420     0.393  0.1593  0.9673 -0.1972
 
              Baa    -0.0081    -1.088    -0.388    -0.363  0.0996  0.2856  0.9532
    10 C(13)  Bbb    -0.0001    -0.009    -0.003    -0.003  0.9175 -0.3971  0.0231
              Bcc     0.0082     1.097     0.391     0.366  0.3851  0.8722 -0.3016
 
              Baa    -0.0072    -0.960    -0.343    -0.320  0.8236 -0.5668  0.0221
    11 C(13)  Bbb    -0.0028    -0.382    -0.136    -0.127  0.1715  0.2861  0.9427
              Bcc     0.0100     1.342     0.479     0.448  0.5406  0.7726 -0.3329
 
              Baa    -0.0194    -2.606    -0.930    -0.869  0.1736  0.2553  0.9511
    12 C(13)  Bbb    -0.0070    -0.946    -0.338    -0.316 -0.5413  0.8315 -0.1244
              Bcc     0.0265     3.552     1.267     1.185  0.8227  0.4933 -0.2826
 
              Baa    -0.1018    -3.926    -1.401    -1.309  0.9076 -0.4189 -0.0263
    13 N(14)  Bbb    -0.0751    -2.898    -1.034    -0.967  0.1349  0.2318  0.9634
              Bcc     0.1769     6.823     2.435     2.276  0.3975  0.8779 -0.2669
 
              Baa    -0.0088    -1.180    -0.421    -0.394  0.0449  0.3130  0.9487
    14 C(13)  Bbb    -0.0043    -0.581    -0.207    -0.194 -0.1764  0.9372 -0.3009
              Bcc     0.0131     1.761     0.628     0.587  0.9833  0.1539 -0.0973
 
              Baa    -0.0028    -0.380    -0.136    -0.127 -0.1563  0.3680  0.9166
    15 C(13)  Bbb    -0.0025    -0.333    -0.119    -0.111 -0.2286  0.8894 -0.3960
              Bcc     0.0053     0.713     0.255     0.238  0.9609  0.2714  0.0549
 
              Baa    -0.0018    -0.240    -0.086    -0.080 -0.3072  0.5767  0.7570
    16 C(13)  Bbb    -0.0013    -0.179    -0.064    -0.060 -0.3513  0.6705 -0.6534
              Bcc     0.0031     0.419     0.149     0.140  0.8844  0.4667  0.0034
 
              Baa    -0.0021    -0.283    -0.101    -0.094  0.1400  0.2109  0.9674
    17 C(13)  Bbb    -0.0020    -0.268    -0.095    -0.089 -0.5364  0.8374 -0.1049
              Bcc     0.0041     0.550     0.196     0.184  0.8323  0.5043 -0.2303
 
              Baa    -0.0126     0.910     0.325     0.304  0.4702  0.8123  0.3450
    18 O(17)  Bbb    -0.0071     0.514     0.183     0.171  0.8628 -0.3408 -0.3734
              Bcc     0.0197    -1.424    -0.508    -0.475  0.1858 -0.4733  0.8611
 
              Baa    -0.0047    -0.633    -0.226    -0.211  0.0776  0.3730  0.9246
    19 C(13)  Bbb    -0.0033    -0.443    -0.158    -0.148  0.7230  0.6176 -0.3098
              Bcc     0.0080     1.076     0.384     0.359 -0.6865  0.6925 -0.2217
 
              Baa    -0.0030    -0.406    -0.145    -0.135  0.5682  0.7739 -0.2797
    20 C(13)  Bbb    -0.0023    -0.313    -0.112    -0.104 -0.2014  0.4603  0.8646
              Bcc     0.0054     0.719     0.256     0.240  0.7979 -0.4350  0.4174
 
              Baa    -0.0040    -0.540    -0.193    -0.180 -0.4940  0.4350  0.7529
    21 C(13)  Bbb    -0.0034    -0.459    -0.164    -0.153  0.5541  0.8248 -0.1130
              Bcc     0.0074     0.998     0.356     0.333  0.6701 -0.3613  0.6484
 
              Baa    -0.0023    -0.311    -0.111    -0.104  0.5572  0.7976 -0.2311
    22 C(13)  Bbb    -0.0018    -0.247    -0.088    -0.082 -0.5613  0.5668  0.6031
              Bcc     0.0042     0.557     0.199     0.186  0.6120 -0.2064  0.7635
 
              Baa    -0.0013    -0.180    -0.064    -0.060 -0.5168  0.5480  0.6577
    23 C(13)  Bbb    -0.0004    -0.056    -0.020    -0.019  0.5478  0.8021 -0.2379
              Bcc     0.0018     0.236     0.084     0.079  0.6579 -0.2374  0.7147
 
              Baa    -0.0012    -0.158    -0.056    -0.053  0.5573  0.7869 -0.2648
    24 C(13)  Bbb    -0.0007    -0.093    -0.033    -0.031 -0.3611  0.5169  0.7762
              Bcc     0.0019     0.251     0.090     0.084  0.7477 -0.3369  0.5722
 
              Baa    -0.0015    -0.203    -0.072    -0.068 -0.2192  0.4570  0.8620
    25 C(13)  Bbb    -0.0006    -0.077    -0.028    -0.026  0.5492  0.7881 -0.2781
              Bcc     0.0021     0.280     0.100     0.093  0.8064 -0.4124  0.4237
 
              Baa    -0.0021    -0.279    -0.100    -0.093 -0.0818 -0.3403  0.9367
    26 C(13)  Bbb    -0.0016    -0.216    -0.077    -0.072  0.5846  0.7448  0.3217
              Bcc     0.0037     0.495     0.177     0.165  0.8072 -0.5740 -0.1380
 
              Baa    -0.0013    -0.180    -0.064    -0.060  0.4103  0.8297  0.3786
    27 C(13)  Bbb    -0.0007    -0.096    -0.034    -0.032 -0.2180 -0.3139  0.9241
              Bcc     0.0021     0.275     0.098     0.092  0.8855 -0.4617  0.0521
 
              Baa    -0.0009    -0.114    -0.041    -0.038  0.0246 -0.3320  0.9429
    28 C(13)  Bbb    -0.0005    -0.069    -0.025    -0.023  0.4730  0.8348  0.2816
              Bcc     0.0014     0.183     0.065     0.061  0.8807 -0.4391 -0.1776
 
              Baa    -0.0008    -0.109    -0.039    -0.036  0.6083  0.7542  0.2472
    29 C(13)  Bbb    -0.0001    -0.014    -0.005    -0.005 -0.1640 -0.1852  0.9689
              Bcc     0.0009     0.124     0.044     0.041  0.7765 -0.6300  0.0110
 
              Baa    -0.0009    -0.120    -0.043    -0.040  0.0803 -0.2634  0.9613
    30 C(13)  Bbb    -0.0006    -0.076    -0.027    -0.025  0.7157  0.6865  0.1283
              Bcc     0.0015     0.196     0.070     0.065  0.6938 -0.6777 -0.2436
 
              Baa    -0.0015    -0.202    -0.072    -0.067  0.7006  0.6828 -0.2074
    31 C(13)  Bbb    -0.0007    -0.094    -0.034    -0.031  0.1792  0.1130  0.9773
              Bcc     0.0022     0.296     0.106     0.099 -0.6907  0.7218  0.0432
 
              Baa    -0.0026    -0.348    -0.124    -0.116  0.2360 -0.4114  0.8804
    32 C(13)  Bbb    -0.0021    -0.287    -0.103    -0.096  0.0244  0.9082  0.4178
              Bcc     0.0047     0.636     0.227     0.212  0.9715  0.0771 -0.2243
 
              Baa    -0.0018    -0.240    -0.086    -0.080 -0.1197  0.8082  0.5766
    33 C(13)  Bbb    -0.0009    -0.125    -0.045    -0.042  0.2039 -0.5484  0.8110
              Bcc     0.0027     0.365     0.130     0.122  0.9717  0.2146 -0.0991
 
              Baa    -0.0010    -0.544    -0.194    -0.182  0.3814 -0.6406  0.6664
    34 H(1)   Bbb    -0.0010    -0.535    -0.191    -0.179 -0.3473  0.5688  0.7456
              Bcc     0.0020     1.080     0.385     0.360  0.8567  0.5159  0.0056
 
              Baa    -0.0025    -1.334    -0.476    -0.445 -0.5107  0.7720 -0.3784
    35 H(1)   Bbb    -0.0025    -1.330    -0.474    -0.443 -0.4486  0.1362  0.8833
              Bcc     0.0050     2.664     0.950     0.888  0.7335  0.6208  0.2768
 
              Baa    -0.0136    -7.231    -2.580    -2.412 -0.2959  0.9478 -0.1191
    36 H(1)   Bbb    -0.0120    -6.429    -2.294    -2.144 -0.4227 -0.0181  0.9061
              Bcc     0.0256    13.660     4.874     4.556  0.8566  0.3185  0.4060
 
              Baa    -0.0052    -2.760    -0.985    -0.921  0.5418  0.7386  0.4012
    37 H(1)   Bbb    -0.0049    -2.623    -0.936    -0.875  0.1256 -0.5432  0.8302
              Bcc     0.0101     5.383     1.921     1.795  0.8311 -0.3993 -0.3871
 
              Baa    -0.0026    -1.369    -0.489    -0.457 -0.1861  0.2327  0.9546
    38 H(1)   Bbb    -0.0023    -1.237    -0.441    -0.413  0.9787  0.1295  0.1592
              Bcc     0.0049     2.606     0.930     0.869 -0.0866  0.9639 -0.2519
 
              Baa    -0.0015    -0.816    -0.291    -0.272  0.0803  0.2828  0.9558
    39 H(1)   Bbb    -0.0011    -0.597    -0.213    -0.199  0.9228 -0.3835  0.0360
              Bcc     0.0026     1.414     0.504     0.472  0.3767  0.8792 -0.2918
 
              Baa    -0.0141    -7.525    -2.685    -2.510 -0.0214  0.5463  0.8373
    40 H(1)   Bbb    -0.0119    -6.374    -2.274    -2.126 -0.0219  0.8370 -0.5467
              Bcc     0.0260    13.898     4.959     4.636  0.9995  0.0301  0.0060
 
              Baa    -0.0050    -2.679    -0.956    -0.894  0.3780  0.0133  0.9257
    41 H(1)   Bbb    -0.0048    -2.550    -0.910    -0.851 -0.1065  0.9939  0.0293
              Bcc     0.0098     5.229     1.866     1.744  0.9196  0.1097 -0.3771
 
              Baa    -0.0029    -1.548    -0.552    -0.516 -0.3899  0.3643  0.8457
    42 H(1)   Bbb    -0.0027    -1.446    -0.516    -0.482 -0.1240  0.8893 -0.4402
              Bcc     0.0056     2.994     1.068     0.999  0.9125  0.2765  0.3016
 
              Baa    -0.0020    -1.045    -0.373    -0.349 -0.0801  0.4967  0.8642
    43 H(1)   Bbb    -0.0019    -1.002    -0.358    -0.334 -0.0847  0.8605 -0.5024
              Bcc     0.0038     2.047     0.730     0.683  0.9932  0.1134  0.0268
 
              Baa    -0.0014    -0.772    -0.275    -0.257 -0.5736  0.7054  0.4165
    44 H(1)   Bbb    -0.0014    -0.734    -0.262    -0.245  0.1296 -0.4239  0.8964
              Bcc     0.0028     1.506     0.537     0.502  0.8088  0.5681  0.1517
 
              Baa    -0.0010    -0.550    -0.196    -0.183 -0.1911  0.4888  0.8512
    45 H(1)   Bbb    -0.0010    -0.523    -0.187    -0.175 -0.3532  0.7748 -0.5243
              Bcc     0.0020     1.073     0.383     0.358  0.9158  0.4009 -0.0246
 
              Baa    -0.0017    -0.886    -0.316    -0.296  0.5496 -0.3337  0.7659
    46 H(1)   Bbb    -0.0015    -0.810    -0.289    -0.270 -0.2116  0.8313  0.5140
              Bcc     0.0032     1.696     0.605     0.566  0.8082  0.4446 -0.3863
 
              Baa    -0.0012    -0.634    -0.226    -0.211  0.2078  0.1100  0.9720
    47 H(1)   Bbb    -0.0011    -0.601    -0.215    -0.201 -0.6772  0.7332  0.0618
              Bcc     0.0023     1.235     0.441     0.412  0.7058  0.6711 -0.2268
 
              Baa    -0.0091    -4.879    -1.741    -1.627  0.6671  0.6637 -0.3385
    48 H(1)   Bbb    -0.0079    -4.219    -1.506    -1.407 -0.3481  0.6793  0.6460
              Bcc     0.0171     9.098     3.246     3.035  0.6587 -0.3131  0.6842
 
              Baa    -0.0021    -1.128    -0.403    -0.376  0.7647  0.5274 -0.3703
    49 H(1)   Bbb    -0.0021    -1.101    -0.393    -0.367 -0.4246  0.8446  0.3260
              Bcc     0.0042     2.230     0.796     0.744  0.4847 -0.0920  0.8698
 
              Baa    -0.0007    -0.390    -0.139    -0.130  0.6947 -0.3743 -0.6142
    50 H(1)   Bbb    -0.0007    -0.387    -0.138    -0.129  0.3975  0.9115 -0.1058
              Bcc     0.0015     0.778     0.277     0.259  0.5994 -0.1707  0.7820
 
              Baa    -0.0006    -0.306    -0.109    -0.102  0.5772  0.7549 -0.3113
    51 H(1)   Bbb    -0.0005    -0.290    -0.103    -0.097 -0.3140  0.5571  0.7688
              Bcc     0.0011     0.596     0.213     0.199  0.7538 -0.3460  0.5586
 
              Baa    -0.0009    -0.490    -0.175    -0.163  0.5666  0.7531 -0.3344
    52 H(1)   Bbb    -0.0009    -0.478    -0.171    -0.159 -0.0646  0.4452  0.8931
              Bcc     0.0018     0.968     0.345     0.323  0.8215 -0.4844  0.3009
 
              Baa    -0.0011    -0.612    -0.218    -0.204 -0.1178 -0.3261  0.9380
    53 H(1)   Bbb    -0.0011    -0.585    -0.209    -0.195  0.2558  0.9027  0.3460
              Bcc     0.0022     1.197     0.427     0.399  0.9595 -0.2807  0.0230
 
              Baa    -0.0005    -0.260    -0.093    -0.087 -0.0996 -0.5609  0.8219
    54 H(1)   Bbb    -0.0005    -0.254    -0.091    -0.085  0.3784  0.7426  0.5526
              Bcc     0.0010     0.515     0.184     0.172  0.9203 -0.3661 -0.1383
 
              Baa    -0.0004    -0.218    -0.078    -0.073  0.6152  0.7627  0.1993
    55 H(1)   Bbb    -0.0004    -0.198    -0.071    -0.066  0.0740 -0.3075  0.9487
              Bcc     0.0008     0.416     0.148     0.139  0.7849 -0.5689 -0.2456
 
              Baa    -0.0005    -0.290    -0.104    -0.097  0.3658  0.0069  0.9307
    56 H(1)   Bbb    -0.0005    -0.284    -0.101    -0.095  0.6994  0.6576 -0.2798
              Bcc     0.0011     0.575     0.205     0.192 -0.6140  0.7533  0.2358
 
              Baa    -0.0014    -0.750    -0.268    -0.250  0.1658 -0.0262  0.9858
    57 H(1)   Bbb    -0.0014    -0.726    -0.259    -0.242  0.8219  0.5561 -0.1234
              Bcc     0.0028     1.477     0.527     0.493 -0.5450  0.8307  0.1138
 
              Baa    -0.0018    -0.947    -0.338    -0.316  0.3144  0.4184  0.8521
    58 H(1)   Bbb    -0.0017    -0.914    -0.326    -0.305 -0.0681  0.9053 -0.4194
              Bcc     0.0035     1.861     0.664     0.621  0.9468 -0.0738 -0.3131
 
              Baa    -0.0009    -0.507    -0.181    -0.169 -0.0908  0.8509  0.5174
    59 H(1)   Bbb    -0.0009    -0.486    -0.174    -0.162  0.3176 -0.4677  0.8249
              Bcc     0.0019     0.993     0.354     0.331  0.9439  0.2392 -0.2278
 
              Baa    -1.2761    60.949    21.748    20.330 -0.6760 -0.1001  0.7301
    60 Ni(61) Bbb    -0.1909     9.117     3.253     3.041  0.1914  0.9329  0.3051
              Bcc     1.4670   -70.066   -25.001   -23.371  0.7116 -0.3459  0.6115
 
              Baa    -0.2857  -143.461   -51.191   -47.853  0.9383 -0.3151 -0.1423
    61 F(19)  Bbb    -0.2093  -105.128   -37.512   -35.067  0.2082  0.8436 -0.4950
              Bcc     0.4950   248.589    88.703    82.920  0.2760  0.4348  0.8572
 
              Baa    -0.3357  -168.574   -60.151   -56.230  0.9776  0.1784  0.1113
    62 F(19)  Bbb     0.0454    22.801     8.136     7.605 -0.1648  0.9788 -0.1218
              Bcc     0.2903   145.774    52.016    48.625 -0.1306  0.1008  0.9863
 

 ---------------------------------------------------------------------------------

 PrsmSu:  requested number of processors reduced to:  12 ShMem   1 Linda.
   1 Symmetry operations used in ECPInt.
 ECPInt:  NShTT=   22791 NPrTT=  142008 LenC2=   18078 LenP2D=   59381.
 LDataN:  DoStor=T MaxTD1= 7 Len=  274
 Number of processors reduced to  13 by ecpmxn.
 Calling FoFJK, ICntrl=      2127 FMM=T ISym2X=0 I1Cent= 0 IOpClX= 1 NMat=1 NMatS=1 NMatT=0.
 ***** Axes restored to original set *****
 -------------------------------------------------------------------
 Center     Atomic                   Forces (Hartrees/Bohr)
 Number     Number              X              Y              Z
 -------------------------------------------------------------------
      1        6           0.000002807    0.000001148   -0.000006992
      2        6           0.000004020    0.000000948   -0.000004746
      3        6           0.000002069    0.000000678   -0.000004970
      4        6           0.000002885   -0.000000821   -0.000002741
      5        6           0.000002387    0.000002216    0.000000462
      6        7           0.000000435    0.000000549    0.000000426
      7        6          -0.000003287   -0.000002825   -0.000000279
      8        6          -0.000001677   -0.000000647    0.000001701
      9        6          -0.000002023   -0.000000532    0.000003716
     10        6          -0.000002297   -0.000000765    0.000003455
     11        6          -0.000001553    0.000002312    0.000005511
     12        6          -0.000000080    0.000001599    0.000002526
     13        7           0.000002176    0.000002494    0.000000204
     14        6           0.000002712    0.000003618    0.000001041
     15        6          -0.000001226    0.000003394    0.000004559
     16        6          -0.000000333    0.000003509    0.000004884
     17        6          -0.000001716    0.000001685    0.000003700
     18        8           0.000003143    0.000001468    0.000000749
     19        6          -0.000002768   -0.000004788   -0.000001581
     20        6          -0.000002934   -0.000000974   -0.000002915
     21        6           0.000001418   -0.000001701   -0.000003030
     22        6          -0.000002471   -0.000003881   -0.000000878
     23        6          -0.000000743   -0.000006064   -0.000005685
     24        6          -0.000002062   -0.000005002   -0.000002716
     25        6          -0.000003490   -0.000003321    0.000000907
     26        6           0.000000464   -0.000001044   -0.000000680
     27        6           0.000002053   -0.000001917   -0.000000187
     28        6          -0.000000254    0.000001629   -0.000000997
     29        6          -0.000004169   -0.000002743    0.000001148
     30        6           0.000001615   -0.000000346    0.000002188
     31        6          -0.000002574    0.000000546    0.000001658
     32        6           0.000003243    0.000000178   -0.000001802
     33        6           0.000003143    0.000000956   -0.000004642
     34        1           0.000004362    0.000000601   -0.000007705
     35        1           0.000003275   -0.000000102   -0.000006213
     36        1           0.000001710   -0.000000169   -0.000003200
     37        1           0.000001049    0.000002438   -0.000000716
     38        1          -0.000002658   -0.000000802    0.000003610
     39        1          -0.000003030   -0.000000353    0.000005306
     40        1           0.000001317    0.000002859    0.000001266
     41        1           0.000000136    0.000000901    0.000001044
     42        1           0.000001449    0.000004104    0.000003195
     43        1           0.000001360    0.000004137    0.000002757
     44        1          -0.000000361    0.000003651    0.000006096
     45        1          -0.000000583    0.000003605    0.000005489
     46        1          -0.000001816    0.000000536    0.000003595
     47        1          -0.000002193    0.000000803    0.000005889
     48        1           0.000000298   -0.000000367   -0.000001870
     49        1          -0.000000907   -0.000004356   -0.000003944
     50        1          -0.000002575   -0.000006214   -0.000004193
     51        1          -0.000002675   -0.000006533   -0.000002596
     52        1          -0.000001178   -0.000005499   -0.000001267
     53        1          -0.000000704   -0.000001130   -0.000001141
     54        1          -0.000000061   -0.000001441   -0.000000778
     55        1          -0.000000835    0.000000209    0.000002287
     56        1          -0.000002464    0.000000333    0.000004060
     57        1          -0.000001044    0.000000027    0.000004310
     58        1           0.000002271    0.000002159   -0.000002649
     59        1           0.000004024    0.000001034   -0.000005385
     60       28          -0.000001309    0.000006087   -0.000002706
     61        9           0.000000796   -0.000002679    0.000000680
     62        9           0.000003432    0.000004602    0.000000786
 -------------------------------------------------------------------
 Cartesian Forces:  Max     0.000007705 RMS     0.000002879

 GradGradGradGradGradGradGradGradGradGradGradGradGradGradGradGradGradGrad
 Berny optimization.
 FormGI is forming the generalized inverse of G from B-inverse, IUseBI=4.
 Internal  Forces:  Max     0.000008094 RMS     0.000000962
 Search for a local minimum.
 Step number   1 out of a maximum of  372
 All quantities printed in internal units (Hartrees-Bohrs-Radians)
 Mixed Optimization -- En-DIIS/RFO-DIIS
 Second derivative matrix not updated -- first step.
 ITU=  0
     Eigenvalues ---    0.00295   0.00451   0.00566   0.00599   0.00634
     Eigenvalues ---    0.00813   0.01277   0.01337   0.01407   0.01415
     Eigenvalues ---    0.01493   0.01495   0.01595   0.01686   0.01824
     Eigenvalues ---    0.01916   0.02057   0.02059   0.02081   0.02089
     Eigenvalues ---    0.02098   0.02110   0.02119   0.02119   0.02121
     Eigenvalues ---    0.02133   0.02140   0.02145   0.02145   0.02151
     Eigenvalues ---    0.02151   0.02156   0.02158   0.02158   0.02158
     Eigenvalues ---    0.02160   0.02162   0.02165   0.02166   0.02167
     Eigenvalues ---    0.02168   0.02175   0.02180   0.02204   0.02259
     Eigenvalues ---    0.02647   0.03000   0.03668   0.03730   0.04371
     Eigenvalues ---    0.04645   0.04745   0.04761   0.05133   0.05332
     Eigenvalues ---    0.05804   0.06065   0.06585   0.07156   0.07510
     Eigenvalues ---    0.08298   0.08385   0.08515   0.08985   0.09285
     Eigenvalues ---    0.09669   0.10495   0.11303   0.11862   0.12392
     Eigenvalues ---    0.12908   0.13087   0.13316   0.15218   0.15907
     Eigenvalues ---    0.15987   0.15996   0.15998   0.15999   0.16000
     Eigenvalues ---    0.16000   0.16000   0.16000   0.16000   0.16000
     Eigenvalues ---    0.16000   0.16000   0.16000   0.16000   0.16000
     Eigenvalues ---    0.16000   0.16000   0.18530   0.19212   0.20085
     Eigenvalues ---    0.21734   0.21997   0.21998   0.21999   0.22000
     Eigenvalues ---    0.22000   0.22000   0.22213   0.22601   0.22709
     Eigenvalues ---    0.23448   0.23461   0.23474   0.23675   0.23960
     Eigenvalues ---    0.24316   0.24442   0.24615   0.24857   0.24923
     Eigenvalues ---    0.24954   0.24996   0.26245   0.26507   0.27841
     Eigenvalues ---    0.30002   0.30488   0.30851   0.31090   0.31349
     Eigenvalues ---    0.31827   0.33662   0.33714   0.34044   0.34136
     Eigenvalues ---    0.34230   0.34255   0.34256   0.34282   0.34318
     Eigenvalues ---    0.34374   0.35194   0.35205   0.35207   0.35210
     Eigenvalues ---    0.35219   0.35222   0.35225   0.35228   0.35232
     Eigenvalues ---    0.35239   0.35250   0.35264   0.35266   0.35315
     Eigenvalues ---    0.35490   0.35558   0.35607   0.35655   0.39419
     Eigenvalues ---    0.41676   0.41825   0.41846   0.41948   0.41969
     Eigenvalues ---    0.42069   0.43068   0.45326   0.45415   0.45596
     Eigenvalues ---    0.45670   0.45977   0.46006   0.46181   0.46412
     Eigenvalues ---    0.46424   0.46529   0.46598   0.46676   0.46781
     Eigenvalues ---    0.47293   0.49745   0.53726   0.56989   0.62016
 RFO step:  Lambda= 0.00000000D+00 EMin= 2.95016651D-03
 Linear search not attempted -- first point.
 Iteration  1 RMS(Cart)=  0.00028243 RMS(Int)=  0.00000002
 Iteration  2 RMS(Cart)=  0.00000003 RMS(Int)=  0.00000000
 Variable       Old X    -DE/DX   Delta X   Delta X   Delta X     New X
                                 (Linear)    (Quad)   (Total)
    R1        2.63529   0.00000   0.00000   0.00000   0.00000   2.63529
    R2        2.63689  -0.00000   0.00000  -0.00000  -0.00000   2.63689
    R3        2.05321   0.00000   0.00000   0.00000   0.00000   2.05321
    R4        2.63773   0.00000   0.00000   0.00000   0.00000   2.63773
    R5        2.05299  -0.00000   0.00000  -0.00000  -0.00000   2.05299
    R6        2.64765  -0.00000   0.00000  -0.00000  -0.00000   2.64765
    R7        2.05361   0.00000   0.00000   0.00000   0.00000   2.05361
    R8        2.85351   0.00000   0.00000   0.00000   0.00000   2.85351
    R9        2.64919  -0.00000   0.00000  -0.00000  -0.00000   2.64919
   R10        2.78261  -0.00000   0.00000  -0.00001  -0.00001   2.78261
   R11        3.00899  -0.00000   0.00000  -0.00001  -0.00001   3.00899
   R12        2.07257   0.00000   0.00000   0.00000   0.00000   2.07257
   R13        2.42896  -0.00000   0.00000  -0.00000  -0.00000   2.42895
   R14        3.90426  -0.00000   0.00000  -0.00002  -0.00002   3.90424
   R15        2.77006  -0.00000   0.00000  -0.00000  -0.00000   2.77006
   R16        2.52166  -0.00000   0.00000  -0.00000  -0.00000   2.52166
   R17        2.62076   0.00000   0.00000   0.00000   0.00000   2.62076
   R18        2.55550  -0.00000   0.00000  -0.00000  -0.00000   2.55549
   R19        2.64184   0.00000   0.00000  -0.00000  -0.00000   2.64184
   R20        2.04778  -0.00000   0.00000  -0.00000  -0.00000   2.04778
   R21        2.62656  -0.00000   0.00000  -0.00000  -0.00000   2.62656
   R22        2.05343   0.00000   0.00000   0.00000   0.00000   2.05343
   R23        2.67105   0.00000   0.00000   0.00000   0.00000   2.67105
   R24        2.84029  -0.00000   0.00000  -0.00000  -0.00000   2.84029
   R25        2.52029  -0.00000   0.00000  -0.00000  -0.00000   2.52029
   R26        2.83322  -0.00000   0.00000  -0.00000  -0.00000   2.83322
   R27        3.91603  -0.00000   0.00000   0.00000   0.00000   3.91603
   R28        2.92699  -0.00000   0.00000  -0.00001  -0.00001   2.92698
   R29        2.06704   0.00000   0.00000   0.00000   0.00000   2.06704
   R30        2.07904   0.00000   0.00000   0.00000   0.00000   2.07904
   R31        2.93583   0.00000   0.00000   0.00000   0.00000   2.93584
   R32        2.06857   0.00000   0.00000   0.00000   0.00000   2.06857
   R33        2.06796  -0.00000   0.00000  -0.00000  -0.00000   2.06796
   R34        2.91706  -0.00000   0.00000  -0.00000  -0.00000   2.91706
   R35        2.07102  -0.00000   0.00000  -0.00000  -0.00000   2.07102
   R36        2.06900  -0.00000   0.00000  -0.00000  -0.00000   2.06900
   R37        2.07815   0.00000   0.00000   0.00000   0.00000   2.07815
   R38        2.06943   0.00000   0.00000   0.00000   0.00000   2.06943
   R39        2.83833   0.00000   0.00000   0.00000   0.00000   2.83833
   R40        2.87959   0.00000   0.00000   0.00000   0.00000   2.87959
   R41        2.85841  -0.00000   0.00000  -0.00001  -0.00001   2.85840
   R42        2.65688  -0.00000   0.00000  -0.00000  -0.00000   2.65688
   R43        2.64526   0.00000   0.00000   0.00000   0.00000   2.64527
   R44        2.63104   0.00000   0.00000   0.00000   0.00000   2.63104
   R45        2.05167  -0.00000   0.00000  -0.00000  -0.00000   2.05167
   R46        2.63767  -0.00000   0.00000  -0.00000  -0.00000   2.63767
   R47        2.05246   0.00000   0.00000   0.00000   0.00000   2.05246
   R48        2.63201  -0.00000   0.00000  -0.00000  -0.00000   2.63201
   R49        2.05336   0.00000   0.00000   0.00000   0.00000   2.05336
   R50        2.63727   0.00000   0.00000   0.00000   0.00000   2.63727
   R51        2.05306   0.00000   0.00000   0.00000   0.00000   2.05306
   R52        2.04624  -0.00000   0.00000  -0.00001  -0.00001   2.04623
   R53        2.65103  -0.00000   0.00000  -0.00000  -0.00000   2.65102
   R54        2.64018   0.00000   0.00000   0.00000   0.00000   2.64018
   R55        2.63232   0.00000   0.00000   0.00000   0.00000   2.63233
   R56        2.04887   0.00000   0.00000   0.00000   0.00000   2.04887
   R57        2.63837  -0.00000   0.00000  -0.00000  -0.00000   2.63837
   R58        2.05271  -0.00000   0.00000  -0.00000  -0.00000   2.05271
   R59        2.63358   0.00000   0.00000   0.00000   0.00000   2.63359
   R60        2.05249  -0.00000   0.00000  -0.00000  -0.00000   2.05249
   R61        2.63850  -0.00000   0.00000  -0.00000  -0.00000   2.63850
   R62        2.05289   0.00000   0.00000   0.00000   0.00000   2.05289
   R63        2.04701   0.00000   0.00000   0.00000   0.00000   2.04701
   R64        2.63334  -0.00000   0.00000  -0.00000  -0.00000   2.63334
   R65        2.05316   0.00000   0.00000   0.00000   0.00000   2.05317
   R66        2.05311   0.00000   0.00000   0.00000   0.00000   2.05311
   R67        3.52394   0.00000   0.00000   0.00002   0.00002   3.52396
   R68        3.41452  -0.00000   0.00000  -0.00000  -0.00000   3.41452
    A1        2.08628  -0.00000   0.00000  -0.00000  -0.00000   2.08628
    A2        2.09946   0.00000   0.00000   0.00000   0.00000   2.09946
    A3        2.09727  -0.00000   0.00000  -0.00000  -0.00000   2.09727
    A4        2.11002   0.00000   0.00000   0.00000   0.00000   2.11002
    A5        2.09617  -0.00000   0.00000  -0.00000  -0.00000   2.09617
    A6        2.07699  -0.00000   0.00000  -0.00000  -0.00000   2.07699
    A7        2.08918  -0.00000   0.00000  -0.00000  -0.00000   2.08918
    A8        2.08539   0.00000   0.00000   0.00000   0.00000   2.08539
    A9        2.10787   0.00000   0.00000   0.00000   0.00000   2.10788
   A10        2.14948   0.00000   0.00000   0.00001   0.00001   2.14950
   A11        2.07985  -0.00000   0.00000  -0.00000  -0.00000   2.07985
   A12        2.05373  -0.00000   0.00000  -0.00001  -0.00001   2.05371
   A13        2.02352   0.00000   0.00000   0.00002   0.00002   2.02354
   A14        2.06347   0.00000   0.00000   0.00001   0.00001   2.06348
   A15        1.86942  -0.00000   0.00000  -0.00001  -0.00001   1.86941
   A16        1.79392  -0.00000   0.00000  -0.00002  -0.00002   1.79390
   A17        1.85152   0.00000   0.00000   0.00000   0.00000   1.85152
   A18        1.84484   0.00000   0.00000   0.00000   0.00000   1.84484
   A19        1.87087   0.00000   0.00000  -0.00001  -0.00001   1.87086
   A20        2.45162   0.00000   0.00000   0.00002   0.00002   2.45164
   A21        1.91321  -0.00000   0.00000  -0.00000  -0.00000   1.91321
   A22        2.12328   0.00000   0.00000   0.00000   0.00000   2.12328
   A23        2.06573   0.00000   0.00000  -0.00000  -0.00000   2.06573
   A24        2.09290  -0.00000   0.00000  -0.00000  -0.00000   2.09290
   A25        2.16572  -0.00000   0.00000   0.00000   0.00000   2.16572
   A26        1.97440   0.00000   0.00000  -0.00000  -0.00000   1.97440
   A27        2.14304  -0.00000   0.00000   0.00000   0.00000   2.14304
   A28        2.05649   0.00000   0.00000   0.00000   0.00000   2.05650
   A29        2.09504  -0.00000   0.00000   0.00000   0.00000   2.09504
   A30        2.13165  -0.00000   0.00000  -0.00000  -0.00000   2.13165
   A31        2.09026   0.00000   0.00000   0.00000   0.00000   2.09026
   A32        2.09766   0.00000   0.00000   0.00000   0.00000   2.09766
   A33        2.09526  -0.00000   0.00000  -0.00000  -0.00000   2.09526
   A34        2.07247  -0.00000   0.00000  -0.00000  -0.00000   2.07247
   A35        2.18006   0.00000   0.00000   0.00000   0.00000   2.18006
   A36        2.03042  -0.00000   0.00000  -0.00000  -0.00000   2.03042
   A37        2.11511   0.00000   0.00000   0.00000   0.00000   2.11511
   A38        2.06756   0.00000   0.00000   0.00000   0.00000   2.06757
   A39        2.10045  -0.00000   0.00000  -0.00000  -0.00000   2.10045
   A40        2.08886   0.00000   0.00000  -0.00000  -0.00000   2.08886
   A41        1.95404  -0.00000   0.00000  -0.00001  -0.00001   1.95403
   A42        2.22522   0.00000   0.00000   0.00000   0.00000   2.22522
   A43        1.94534  -0.00000   0.00000   0.00000   0.00000   1.94534
   A44        1.91685  -0.00000   0.00000  -0.00000  -0.00000   1.91685
   A45        1.87133  -0.00000   0.00000   0.00000   0.00000   1.87133
   A46        1.94638   0.00000   0.00000   0.00000   0.00000   1.94638
   A47        1.90511   0.00000   0.00000   0.00000   0.00000   1.90511
   A48        1.87594  -0.00000   0.00000  -0.00001  -0.00001   1.87593
   A49        1.99112   0.00000   0.00000   0.00000   0.00000   1.99112
   A50        1.89190  -0.00000   0.00000  -0.00000  -0.00000   1.89190
   A51        1.88450  -0.00000   0.00000   0.00000   0.00000   1.88450
   A52        1.90852   0.00000   0.00000   0.00000   0.00000   1.90852
   A53        1.92628  -0.00000   0.00000  -0.00000  -0.00000   1.92628
   A54        1.85643  -0.00000   0.00000  -0.00000  -0.00000   1.85642
   A55        1.96799  -0.00000   0.00000  -0.00000  -0.00000   1.96799
   A56        1.91456   0.00000   0.00000   0.00000   0.00000   1.91456
   A57        1.93131   0.00000   0.00000   0.00000   0.00000   1.93131
   A58        1.88067   0.00000   0.00000   0.00000   0.00000   1.88067
   A59        1.90608   0.00000   0.00000  -0.00000  -0.00000   1.90608
   A60        1.85941  -0.00000   0.00000  -0.00000  -0.00000   1.85940
   A61        1.91418   0.00000   0.00000   0.00000   0.00000   1.91418
   A62        1.90677  -0.00000   0.00000  -0.00000  -0.00000   1.90676
   A63        1.93331   0.00000   0.00000   0.00000   0.00000   1.93331
   A64        1.90735  -0.00000   0.00000  -0.00000  -0.00000   1.90735
   A65        1.93675  -0.00000   0.00000   0.00000   0.00000   1.93675
   A66        1.86457  -0.00000   0.00000  -0.00000  -0.00000   1.86457
   A67        1.85025  -0.00000   0.00000  -0.00003  -0.00003   1.85022
   A68        1.74180   0.00000   0.00000  -0.00002  -0.00002   1.74178
   A69        2.03125  -0.00000   0.00000   0.00000   0.00000   2.03125
   A70        1.92011  -0.00000   0.00000  -0.00000  -0.00000   1.92010
   A71        1.83514  -0.00000   0.00000  -0.00002  -0.00002   1.83512
   A72        1.89361  -0.00000   0.00000  -0.00000  -0.00000   1.89360
   A73        2.01402   0.00000   0.00000   0.00003   0.00003   2.01405
   A74        2.08917  -0.00001   0.00000  -0.00003  -0.00003   2.08914
   A75        2.12001   0.00001   0.00000   0.00003   0.00003   2.12004
   A76        2.07147  -0.00000   0.00000  -0.00000  -0.00000   2.07147
   A77        2.09828   0.00000   0.00000   0.00000   0.00000   2.09828
   A78        2.13344  -0.00000   0.00000  -0.00001  -0.00001   2.13343
   A79        2.05146   0.00000   0.00000   0.00000   0.00000   2.05146
   A80        2.10669  -0.00000   0.00000  -0.00000  -0.00000   2.10668
   A81        2.07379   0.00000   0.00000   0.00000   0.00000   2.07379
   A82        2.10271   0.00000   0.00000   0.00000   0.00000   2.10271
   A83        2.08342   0.00000   0.00000   0.00000   0.00000   2.08342
   A84        2.10038   0.00000   0.00000   0.00000   0.00000   2.10038
   A85        2.09937  -0.00000   0.00000  -0.00000  -0.00000   2.09937
   A86        2.09758   0.00000   0.00000   0.00000   0.00000   2.09758
   A87        2.10056  -0.00000   0.00000  -0.00000  -0.00000   2.10056
   A88        2.08503   0.00000   0.00000   0.00000   0.00000   2.08503
   A89        2.10848  -0.00000   0.00000  -0.00000  -0.00000   2.10848
   A90        2.09727  -0.00000   0.00000  -0.00000  -0.00000   2.09727
   A91        2.07742   0.00000   0.00000   0.00000   0.00000   2.07742
   A92        2.08011  -0.00000   0.00000  -0.00000  -0.00000   2.08011
   A93        2.12497  -0.00000   0.00000  -0.00000  -0.00000   2.12497
   A94        2.07658   0.00000   0.00000   0.00000   0.00000   2.07659
   A95        2.10301  -0.00000   0.00000  -0.00000  -0.00000   2.10301
   A96        2.08852   0.00000   0.00000   0.00000   0.00000   2.08852
   A97        2.09165  -0.00000   0.00000  -0.00000  -0.00000   2.09165
   A98        2.09897  -0.00000   0.00000  -0.00000  -0.00000   2.09897
   A99        2.08594  -0.00000   0.00000  -0.00000  -0.00000   2.08594
   A100       2.09827   0.00000   0.00000   0.00000   0.00000   2.09827
   A101       2.08505   0.00000   0.00000   0.00000   0.00000   2.08505
   A102       2.09856   0.00000   0.00000   0.00000   0.00000   2.09856
   A103       2.09958  -0.00000   0.00000  -0.00000  -0.00000   2.09957
   A104       2.10117  -0.00000   0.00000  -0.00000  -0.00000   2.10117
   A105       2.09684  -0.00000   0.00000  -0.00000  -0.00000   2.09684
   A106       2.08518   0.00000   0.00000   0.00000   0.00000   2.08518
   A107       2.10158  -0.00000   0.00000  -0.00000  -0.00000   2.10158
   A108       2.08602  -0.00000   0.00000  -0.00000  -0.00000   2.08602
   A109       2.09558   0.00000   0.00000   0.00000   0.00000   2.09558
   A110       2.10878   0.00000   0.00000   0.00000   0.00000   2.10879
   A111       2.08605  -0.00000   0.00000  -0.00000  -0.00000   2.08605
   A112       2.08833  -0.00000   0.00000  -0.00000  -0.00000   2.08833
   A113       2.09150  -0.00000   0.00000  -0.00000  -0.00000   2.09149
   A114       2.10075  -0.00000   0.00000  -0.00000  -0.00000   2.10075
   A115       2.09079   0.00000   0.00000   0.00000   0.00000   2.09079
   A116       1.40711   0.00000   0.00000   0.00000   0.00000   1.40712
   A117       1.57552   0.00000   0.00000   0.00002   0.00002   1.57554
   A118       2.47806  -0.00000   0.00000  -0.00000  -0.00000   2.47806
   A119       1.71106   0.00000   0.00000  -0.00000  -0.00000   1.71106
   A120       1.83337  -0.00000   0.00000  -0.00002  -0.00002   1.83335
   A121       2.18085  -0.00000   0.00000  -0.00001  -0.00001   2.18084
    D1        0.02447  -0.00000   0.00000  -0.00001  -0.00001   0.02446
    D2       -3.11264  -0.00000   0.00000  -0.00001  -0.00001  -3.11265
    D3       -3.13683  -0.00000   0.00000  -0.00001  -0.00001  -3.13684
    D4        0.00924  -0.00000   0.00000  -0.00001  -0.00001   0.00923
    D5       -0.01048  -0.00000   0.00000  -0.00000  -0.00000  -0.01048
    D6        3.11247  -0.00000   0.00000  -0.00001  -0.00001   3.11247
    D7       -3.13239  -0.00000   0.00000   0.00000   0.00000  -3.13239
    D8       -0.00944  -0.00000   0.00000  -0.00000  -0.00000  -0.00944
    D9       -0.00561   0.00000   0.00000   0.00001   0.00001  -0.00560
   D10       -3.10625  -0.00000   0.00000  -0.00000  -0.00000  -3.10625
   D11        3.13155   0.00000   0.00000   0.00001   0.00001   3.13156
   D12        0.03091  -0.00000   0.00000  -0.00000  -0.00000   0.03091
   D13        3.13223  -0.00000   0.00000  -0.00001  -0.00001   3.13222
   D14       -0.02681  -0.00000   0.00000  -0.00001  -0.00001  -0.02682
   D15       -0.05086   0.00000   0.00000   0.00001   0.00001  -0.05085
   D16        3.07329   0.00000   0.00000   0.00001   0.00001   3.07329
   D17        0.54206   0.00000   0.00000   0.00005   0.00005   0.54212
   D18       -1.59965   0.00000   0.00000   0.00005   0.00005  -1.59959
   D19        2.60452   0.00000   0.00000   0.00005   0.00005   2.60457
   D20       -2.58232  -0.00000   0.00000   0.00005   0.00005  -2.58227
   D21        1.55915   0.00000   0.00000   0.00005   0.00005   1.55920
   D22       -0.51987   0.00000   0.00000   0.00005   0.00005  -0.51982
   D23        0.04096  -0.00000   0.00000  -0.00000  -0.00000   0.04095
   D24       -3.09349   0.00000   0.00000   0.00001   0.00001  -3.09348
   D25       -3.11713  -0.00000   0.00000  -0.00000  -0.00000  -3.11713
   D26        0.03161   0.00000   0.00000   0.00001   0.00001   0.03162
   D27       -2.58271  -0.00000   0.00000  -0.00012  -0.00012  -2.58283
   D28        0.17468  -0.00000   0.00000  -0.00009  -0.00009   0.17460
   D29       -0.30471  -0.00000   0.00000  -0.00011  -0.00011  -0.30483
   D30        2.45268  -0.00000   0.00000  -0.00008  -0.00008   2.45260
   D31        1.62818  -0.00000   0.00000  -0.00012  -0.00012   1.62806
   D32       -1.89761  -0.00000   0.00000  -0.00008  -0.00008  -1.89770
   D33        2.65324   0.00000   0.00000   0.00017   0.00017   2.65340
   D34        0.69089   0.00000   0.00000   0.00020   0.00020   0.69109
   D35       -1.64161   0.00000   0.00000   0.00016   0.00016  -1.64145
   D36        0.39975   0.00000   0.00000   0.00015   0.00015   0.39990
   D37       -1.56261   0.00000   0.00000   0.00019   0.00019  -1.56242
   D38        2.38809  -0.00000   0.00000   0.00014   0.00014   2.38823
   D39       -1.53813   0.00000   0.00000   0.00016   0.00016  -1.53797
   D40        2.78271   0.00000   0.00000   0.00019   0.00019   2.78290
   D41        0.45021  -0.00000   0.00000   0.00015   0.00015   0.45036
   D42       -3.12623   0.00000   0.00000   0.00003   0.00003  -3.12620
   D43        0.06962  -0.00000   0.00000   0.00002   0.00002   0.06964
   D44        0.27143   0.00000   0.00000   0.00000   0.00000   0.27143
   D45       -2.81590  -0.00000   0.00000  -0.00001  -0.00001  -2.81591
   D46       -3.01745  -0.00000   0.00000  -0.00004  -0.00004  -3.01749
   D47       -1.30527  -0.00000   0.00000  -0.00004  -0.00004  -1.30531
   D48        1.47734   0.00000   0.00000  -0.00001  -0.00001   1.47733
   D49       -0.26580  -0.00000   0.00000  -0.00000  -0.00000  -0.26581
   D50        1.44638  -0.00000   0.00000  -0.00001  -0.00001   1.44637
   D51       -2.05420   0.00000   0.00000   0.00002   0.00002  -2.05417
   D52        3.07047  -0.00000   0.00000   0.00000   0.00000   3.07047
   D53       -0.07780   0.00000   0.00000  -0.00000  -0.00000  -0.07780
   D54       -0.12622   0.00000   0.00000   0.00002   0.00002  -0.12620
   D55        3.00870   0.00000   0.00000   0.00002   0.00002   3.00872
   D56        0.21855   0.00000   0.00000   0.00009   0.00009   0.21864
   D57       -2.86975  -0.00000   0.00000   0.00008   0.00008  -2.86968
   D58       -3.13717   0.00000   0.00000  -0.00000  -0.00000  -3.13717
   D59        0.00550   0.00000   0.00000  -0.00001  -0.00001   0.00549
   D60        0.01173  -0.00000   0.00000  -0.00000  -0.00000   0.01173
   D61       -3.12879  -0.00000   0.00000  -0.00001  -0.00001  -3.12879
   D62       -3.13304  -0.00000   0.00000   0.00002   0.00002  -3.13302
   D63       -0.16347  -0.00000   0.00000  -0.00000  -0.00000  -0.16347
   D64        0.00197   0.00000   0.00000   0.00001   0.00001   0.00199
   D65        2.97155   0.00000   0.00000  -0.00000  -0.00000   2.97154
   D66       -0.01467  -0.00000   0.00000  -0.00001  -0.00001  -0.01468
   D67        3.13152  -0.00000   0.00000  -0.00000  -0.00000   3.13152
   D68        3.12582   0.00000   0.00000  -0.00001  -0.00001   3.12581
   D69       -0.01118   0.00000   0.00000   0.00000   0.00000  -0.01117
   D70        0.00476   0.00000   0.00000   0.00001   0.00001   0.00477
   D71        3.12213   0.00000   0.00000   0.00000   0.00000   3.12214
   D72       -3.14142   0.00000   0.00000   0.00000   0.00000  -3.14142
   D73       -0.02405   0.00000   0.00000  -0.00000  -0.00000  -0.02405
   D74        0.00925   0.00000   0.00000   0.00001   0.00001   0.00926
   D75       -3.12037   0.00000   0.00000   0.00002   0.00002  -3.12035
   D76       -3.11018   0.00000   0.00000   0.00001   0.00001  -3.11017
   D77        0.04338   0.00000   0.00000   0.00002   0.00002   0.04340
   D78       -2.28294  -0.00000   0.00000  -0.00001  -0.00001  -2.28294
   D79        1.91007  -0.00000   0.00000  -0.00000  -0.00000   1.91007
   D80       -0.13926  -0.00000   0.00000  -0.00000  -0.00000  -0.13927
   D81        0.83496  -0.00000   0.00000  -0.00001  -0.00001   0.83495
   D82       -1.25521  -0.00000   0.00000  -0.00001  -0.00001  -1.25522
   D83        2.97864  -0.00000   0.00000  -0.00001  -0.00001   2.97863
   D84       -0.01263  -0.00000   0.00000  -0.00002  -0.00002  -0.01265
   D85       -2.95277   0.00000   0.00000   0.00001   0.00001  -2.95277
   D86        3.11676  -0.00000   0.00000  -0.00003  -0.00003   3.11674
   D87        0.17662   0.00000   0.00000  -0.00000  -0.00000   0.17662
   D88       -0.80768  -0.00000   0.00000  -0.00000  -0.00000  -0.80769
   D89       -2.97372  -0.00000   0.00000  -0.00001  -0.00001  -2.97373
   D90        1.27627   0.00000   0.00000   0.00000   0.00000   1.27627
   D91        2.34578   0.00000   0.00000   0.00001   0.00001   2.34578
   D92        0.17974  -0.00000   0.00000   0.00000   0.00000   0.17974
   D93       -1.85346   0.00000   0.00000   0.00001   0.00001  -1.85344
   D94        0.23466   0.00000   0.00000   0.00000   0.00000   0.23467
   D95       -1.31765  -0.00000   0.00000  -0.00001  -0.00001  -1.31767
   D96        2.70404   0.00000   0.00000   0.00000   0.00000   2.70404
   D97       -3.09548  -0.00000   0.00000  -0.00002  -0.00002  -3.09550
   D98        1.63539  -0.00000   0.00000  -0.00003  -0.00003   1.63536
   D99       -0.62611   0.00000   0.00000  -0.00002  -0.00002  -0.62612
   D100       0.64957  -0.00000   0.00000  -0.00002  -0.00002   0.64954
   D101      -1.48117  -0.00000   0.00000  -0.00003  -0.00003  -1.48120
   D102       2.79769  -0.00000   0.00000  -0.00002  -0.00002   2.79766
   D103       2.79886  -0.00000   0.00000  -0.00002  -0.00002   2.79883
   D104       0.66812  -0.00000   0.00000  -0.00003  -0.00003   0.66809
   D105      -1.33621   0.00000   0.00000  -0.00002  -0.00002  -1.33623
   D106      -1.41422  -0.00000   0.00000  -0.00003  -0.00003  -1.41425
   D107       2.73823  -0.00000   0.00000  -0.00003  -0.00003   2.73819
   D108       0.73390  -0.00000   0.00000  -0.00003  -0.00003   0.73387
   D109       0.18816   0.00000   0.00000   0.00003   0.00003   0.18818
   D110      -1.90785  -0.00000   0.00000   0.00002   0.00002  -1.90783
   D111       2.32876  -0.00000   0.00000   0.00002   0.00002   2.32878
   D112       2.30974   0.00000   0.00000   0.00003   0.00003   2.30977
   D113       0.21373  -0.00000   0.00000   0.00002   0.00002   0.21375
   D114      -1.83284  -0.00000   0.00000   0.00002   0.00002  -1.83282
   D115      -1.93709  -0.00000   0.00000   0.00003   0.00003  -1.93707
   D116       2.25008  -0.00000   0.00000   0.00002   0.00002   2.25010
   D117       0.20351  -0.00000   0.00000   0.00002   0.00002   0.20353
   D118      -0.92818  -0.00000   0.00000  -0.00001  -0.00001  -0.92820
   D119       1.16163  -0.00000   0.00000  -0.00002  -0.00002   1.16161
   D120      -3.06982  -0.00000   0.00000  -0.00002  -0.00002  -3.06984
   D121       1.18722   0.00000   0.00000  -0.00001  -0.00001   1.18721
   D122      -3.00615  -0.00000   0.00000  -0.00001  -0.00001  -3.00616
   D123      -0.95442  -0.00000   0.00000  -0.00001  -0.00001  -0.95443
   D124      -3.08285   0.00000   0.00000  -0.00001  -0.00001  -3.08286
   D125      -0.99303  -0.00000   0.00000  -0.00002  -0.00002  -0.99305
   D126       1.05870  -0.00000   0.00000  -0.00002  -0.00002   1.05869
   D127      -0.37064  -0.00000   0.00000  -0.00015  -0.00015  -0.37078
   D128       1.73989  -0.00000   0.00000  -0.00016  -0.00016   1.73973
   D129      -2.37929   0.00000   0.00000  -0.00013  -0.00013  -2.37942
   D130       0.80606   0.00000   0.00000   0.00024   0.00024   0.80630
   D131      -2.41302   0.00000   0.00000   0.00020   0.00020  -2.41282
   D132      -1.10215   0.00000   0.00000   0.00028   0.00028  -1.10187
   D133       1.96195   0.00000   0.00000   0.00023   0.00023   1.96219
   D134       3.09551   0.00000   0.00000   0.00027   0.00027   3.09579
   D135      -0.12357   0.00000   0.00000   0.00023   0.00023  -0.12334
   D136       1.28622   0.00000   0.00000   0.00011   0.00011   1.28633
   D137      -1.79560   0.00000   0.00000   0.00012   0.00012  -1.79548
   D138      -3.10801   0.00000   0.00000   0.00009   0.00009  -3.10792
   D139       0.09335   0.00000   0.00000   0.00009   0.00009   0.09344
   D140      -1.05496   0.00000   0.00000   0.00008   0.00008  -1.05488
   D141       2.14640   0.00000   0.00000   0.00009   0.00009   2.14649
   D142       3.09620   0.00000   0.00000  -0.00001  -0.00001   3.09619
   D143      -0.05061   0.00000   0.00000   0.00000   0.00000  -0.05061
   D144       0.02995   0.00000   0.00000   0.00003   0.00003   0.02997
   D145      -3.11687   0.00000   0.00000   0.00004   0.00004  -3.11683
   D146      -3.09573   0.00000   0.00000   0.00001   0.00001  -3.09571
   D147       0.03883   0.00000   0.00000   0.00004   0.00004   0.03887
   D148      -0.03086  -0.00000   0.00000  -0.00003  -0.00003  -0.03089
   D149       3.10370  -0.00000   0.00000  -0.00001  -0.00001   3.10369
   D150      -0.00910   0.00000   0.00000  -0.00000  -0.00000  -0.00910
   D151       3.12900  -0.00000   0.00000  -0.00001  -0.00001   3.12899
   D152       3.13747  -0.00000   0.00000  -0.00002  -0.00002   3.13745
   D153      -0.00761  -0.00000   0.00000  -0.00002  -0.00002  -0.00763
   D154      -0.01144  -0.00000   0.00000  -0.00002  -0.00002  -0.01146
   D155       3.13722  -0.00000   0.00000  -0.00000  -0.00000   3.13722
   D156       3.13371  -0.00000   0.00000  -0.00002  -0.00002   3.13369
   D157      -0.00082   0.00000   0.00000   0.00000   0.00000  -0.00082
   D158       0.01064   0.00000   0.00000   0.00002   0.00002   0.01066
   D159      -3.12434   0.00000   0.00000   0.00002   0.00002  -3.12433
   D160      -3.13801  -0.00000   0.00000  -0.00000  -0.00000  -3.13801
   D161       0.01019  -0.00000   0.00000  -0.00000  -0.00000   0.01019
   D162       0.01076   0.00000   0.00000   0.00001   0.00001   0.01076
   D163      -3.12389  -0.00000   0.00000  -0.00001  -0.00001  -3.12390
   D164      -3.13739   0.00000   0.00000   0.00001   0.00001  -3.13738
   D165       0.01116  -0.00000   0.00000  -0.00001  -0.00001   0.01115
   D166      -3.08081   0.00000   0.00000   0.00002   0.00002  -3.08080
   D167       0.06503   0.00000   0.00000   0.00004   0.00004   0.06507
   D168       0.00269   0.00000   0.00000   0.00001   0.00001   0.00269
   D169      -3.13466   0.00000   0.00000   0.00003   0.00003  -3.13463
   D170       3.08264  -0.00000   0.00000  -0.00003  -0.00003   3.08261
   D171      -0.06189  -0.00000   0.00000  -0.00003  -0.00003  -0.06192
   D172       0.00070  -0.00000   0.00000  -0.00003  -0.00003   0.00067
   D173       3.13935  -0.00000   0.00000  -0.00002  -0.00002   3.13933
   D174      -0.00305   0.00000   0.00000   0.00001   0.00001  -0.00304
   D175      -3.14056   0.00000   0.00000   0.00001   0.00001  -3.14054
   D176       3.13429  -0.00000   0.00000  -0.00002  -0.00002   3.13427
   D177      -0.00322  -0.00000   0.00000  -0.00001  -0.00001  -0.00323
   D178      -0.00000  -0.00000   0.00000  -0.00001  -0.00001  -0.00001
   D179      -3.13921   0.00000   0.00000   0.00000   0.00000  -3.13921
   D180       3.13748  -0.00000   0.00000  -0.00001  -0.00001   3.13746
   D181      -0.00173  -0.00000   0.00000  -0.00000  -0.00000  -0.00173
   D182       0.00339  -0.00000   0.00000  -0.00001  -0.00001   0.00338
   D183      -3.13775   0.00000   0.00000   0.00001   0.00001  -3.13773
   D184      -3.14059  -0.00000   0.00000  -0.00002  -0.00002  -3.14061
   D185       0.00146   0.00000   0.00000   0.00000   0.00000   0.00146
   D186      -0.00375   0.00000   0.00000   0.00003   0.00003  -0.00372
   D187       3.14080   0.00000   0.00000   0.00002   0.00002   3.14082
   D188       3.13739   0.00000   0.00000   0.00000   0.00000   3.13739
   D189      -0.00125  -0.00000   0.00000  -0.00000  -0.00000  -0.00125
   D190      -0.02233   0.00000   0.00000   0.00001   0.00001  -0.02232
   D191       3.13780   0.00000   0.00000   0.00001   0.00001   3.13781
   D192       3.11210  -0.00000   0.00000  -0.00000  -0.00000   3.11210
   D193      -0.01095   0.00000   0.00000   0.00000   0.00000  -0.01095
         Item               Value     Threshold  Converged?
 Maximum Force            0.000008     0.000450     YES
 RMS     Force            0.000001     0.000300     YES
 Maximum Displacement     0.001778     0.001800     YES
 RMS     Displacement     0.000282     0.001200     YES
 Predicted change in Energy=-3.233402D-09
 Optimization completed.
    -- Stationary point found.
                           ----------------------------
                           !   Optimized Parameters   !
                           ! (Angstroms and Degrees)  !
 --------------------------                            --------------------------
 ! Name  Definition              Value          Derivative Info.                !
 --------------------------------------------------------------------------------
 ! R1    R(1,2)                  1.3945         -DE/DX =    0.0                 !
 ! R2    R(1,33)                 1.3954         -DE/DX =    0.0                 !
 ! R3    R(1,34)                 1.0865         -DE/DX =    0.0                 !
 ! R4    R(2,3)                  1.3958         -DE/DX =    0.0                 !
 ! R5    R(2,35)                 1.0864         -DE/DX =    0.0                 !
 ! R6    R(3,4)                  1.4011         -DE/DX =    0.0                 !
 ! R7    R(3,36)                 1.0867         -DE/DX =    0.0                 !
 ! R8    R(4,5)                  1.51           -DE/DX =    0.0                 !
 ! R9    R(4,32)                 1.4019         -DE/DX =    0.0                 !
 ! R10   R(5,6)                  1.4725         -DE/DX =    0.0                 !
 ! R11   R(5,19)                 1.5923         -DE/DX =    0.0                 !
 ! R12   R(5,37)                 1.0968         -DE/DX =    0.0                 !
 ! R13   R(6,7)                  1.2853         -DE/DX =    0.0                 !
 ! R14   R(6,60)                 2.066          -DE/DX =    0.0                 !
 ! R15   R(7,8)                  1.4659         -DE/DX =    0.0                 !
 ! R16   R(7,18)                 1.3344         -DE/DX =    0.0                 !
 ! R17   R(8,9)                  1.3868         -DE/DX =    0.0                 !
 ! R18   R(8,13)                 1.3523         -DE/DX =    0.0                 !
 ! R19   R(9,10)                 1.398          -DE/DX =    0.0                 !
 ! R20   R(9,38)                 1.0836         -DE/DX =    0.0                 !
 ! R21   R(10,11)                1.3899         -DE/DX =    0.0                 !
 ! R22   R(10,39)                1.0866         -DE/DX =    0.0                 !
 ! R23   R(11,12)                1.4135         -DE/DX =    0.0                 !
 ! R24   R(11,17)                1.503          -DE/DX =    0.0                 !
 ! R25   R(12,13)                1.3337         -DE/DX =    0.0                 !
 ! R26   R(12,14)                1.4993         -DE/DX =    0.0                 !
 ! R27   R(13,60)                2.0723         -DE/DX =    0.0                 !
 ! R28   R(14,15)                1.5489         -DE/DX =    0.0                 !
 ! R29   R(14,40)                1.0938         -DE/DX =    0.0                 !
 ! R30   R(14,41)                1.1002         -DE/DX =    0.0                 !
 ! R31   R(15,16)                1.5536         -DE/DX =    0.0                 !
 ! R32   R(15,42)                1.0946         -DE/DX =    0.0                 !
 ! R33   R(15,43)                1.0943         -DE/DX =    0.0                 !
 ! R34   R(16,17)                1.5436         -DE/DX =    0.0                 !
 ! R35   R(16,44)                1.0959         -DE/DX =    0.0                 !
 ! R36   R(16,45)                1.0949         -DE/DX =    0.0                 !
 ! R37   R(17,46)                1.0997         -DE/DX =    0.0                 !
 ! R38   R(17,47)                1.0951         -DE/DX =    0.0                 !
 ! R39   R(18,19)                1.502          -DE/DX =    0.0                 !
 ! R40   R(19,20)                1.5238         -DE/DX =    0.0                 !
 ! R41   R(19,26)                1.5126         -DE/DX =    0.0                 !
 ! R42   R(20,21)                1.406          -DE/DX =    0.0                 !
 ! R43   R(20,25)                1.3998         -DE/DX =    0.0                 !
 ! R44   R(21,22)                1.3923         -DE/DX =    0.0                 !
 ! R45   R(21,48)                1.0857         -DE/DX =    0.0                 !
 ! R46   R(22,23)                1.3958         -DE/DX =    0.0                 !
 ! R47   R(22,49)                1.0861         -DE/DX =    0.0                 !
 ! R48   R(23,24)                1.3928         -DE/DX =    0.0                 !
 ! R49   R(23,50)                1.0866         -DE/DX =    0.0                 !
 ! R50   R(24,25)                1.3956         -DE/DX =    0.0                 !
 ! R51   R(24,51)                1.0864         -DE/DX =    0.0                 !
 ! R52   R(25,52)                1.0828         -DE/DX =    0.0                 !
 ! R53   R(26,27)                1.4029         -DE/DX =    0.0                 !
 ! R54   R(26,31)                1.3971         -DE/DX =    0.0                 !
 ! R55   R(27,28)                1.393          -DE/DX =    0.0                 !
 ! R56   R(27,53)                1.0842         -DE/DX =    0.0                 !
 ! R57   R(28,29)                1.3962         -DE/DX =    0.0                 !
 ! R58   R(28,54)                1.0862         -DE/DX =    0.0                 !
 ! R59   R(29,30)                1.3936         -DE/DX =    0.0                 !
 ! R60   R(29,55)                1.0861         -DE/DX =    0.0                 !
 ! R61   R(30,31)                1.3962         -DE/DX =    0.0                 !
 ! R62   R(30,56)                1.0863         -DE/DX =    0.0                 !
 ! R63   R(31,57)                1.0832         -DE/DX =    0.0                 !
 ! R64   R(32,33)                1.3935         -DE/DX =    0.0                 !
 ! R65   R(32,58)                1.0865         -DE/DX =    0.0                 !
 ! R66   R(33,59)                1.0865         -DE/DX =    0.0                 !
 ! R67   R(60,61)                1.8648         -DE/DX =    0.0                 !
 ! R68   R(60,62)                1.8069         -DE/DX =    0.0                 !
 ! A1    A(2,1,33)             119.5352         -DE/DX =    0.0                 !
 ! A2    A(2,1,34)             120.2903         -DE/DX =    0.0                 !
 ! A3    A(33,1,34)            120.1648         -DE/DX =    0.0                 !
 ! A4    A(1,2,3)              120.8951         -DE/DX =    0.0                 !
 ! A5    A(1,2,35)             120.1016         -DE/DX =    0.0                 !
 ! A6    A(3,2,35)             119.0028         -DE/DX =    0.0                 !
 ! A7    A(2,3,4)              119.7015         -DE/DX =    0.0                 !
 ! A8    A(2,3,36)             119.4839         -DE/DX =    0.0                 !
 ! A9    A(4,3,36)             120.7723         -DE/DX =    0.0                 !
 ! A10   A(3,4,5)              123.1564         -DE/DX =    0.0                 !
 ! A11   A(3,4,32)             119.1666         -DE/DX =    0.0                 !
 ! A12   A(5,4,32)             117.6699         -DE/DX =    0.0                 !
 ! A13   A(4,5,6)              115.9392         -DE/DX =    0.0                 !
 ! A14   A(4,5,19)             118.2281         -DE/DX =    0.0                 !
 ! A15   A(4,5,37)             107.1097         -DE/DX =    0.0                 !
 ! A16   A(6,5,19)             102.784          -DE/DX =    0.0                 !
 ! A17   A(6,5,37)             106.0842         -DE/DX =    0.0                 !
 ! A18   A(19,5,37)            105.7015         -DE/DX =    0.0                 !
 ! A19   A(5,6,7)              107.1929         -DE/DX =    0.0                 !
 ! A20   A(5,6,60)             140.4676         -DE/DX =    0.0                 !
 ! A21   A(7,6,60)             109.619          -DE/DX =    0.0                 !
 ! A22   A(6,7,8)              121.6547         -DE/DX =    0.0                 !
 ! A23   A(6,7,18)             118.3578         -DE/DX =    0.0                 !
 ! A24   A(8,7,18)             119.9146         -DE/DX =    0.0                 !
 ! A25   A(7,8,9)              124.0868         -DE/DX =    0.0                 !
 ! A26   A(7,8,13)             113.1248         -DE/DX =    0.0                 !
 ! A27   A(9,8,13)             122.7872         -DE/DX =    0.0                 !
 ! A28   A(8,9,10)             117.8285         -DE/DX =    0.0                 !
 ! A29   A(8,9,38)             120.0367         -DE/DX =    0.0                 !
 ! A30   A(10,9,38)            122.1348         -DE/DX =    0.0                 !
 ! A31   A(9,10,11)            119.7632         -DE/DX =    0.0                 !
 ! A32   A(9,10,39)            120.1868         -DE/DX =    0.0                 !
 ! A33   A(11,10,39)           120.0494         -DE/DX =    0.0                 !
 ! A34   A(10,11,12)           118.744          -DE/DX =    0.0                 !
 ! A35   A(10,11,17)           124.9081         -DE/DX =    0.0                 !
 ! A36   A(12,11,17)           116.3345         -DE/DX =    0.0                 !
 ! A37   A(11,12,13)           121.1867         -DE/DX =    0.0                 !
 ! A38   A(11,12,14)           118.4627         -DE/DX =    0.0                 !
 ! A39   A(13,12,14)           120.347          -DE/DX =    0.0                 !
 ! A40   A(8,13,12)            119.6826         -DE/DX =    0.0                 !
 ! A41   A(8,13,60)            111.958          -DE/DX =    0.0                 !
 ! A42   A(12,13,60)           127.4956         -DE/DX =    0.0                 !
 ! A43   A(12,14,15)           111.4596         -DE/DX =    0.0                 !
 ! A44   A(12,14,40)           109.8277         -DE/DX =    0.0                 !
 ! A45   A(12,14,41)           107.2193         -DE/DX =    0.0                 !
 ! A46   A(15,14,40)           111.5192         -DE/DX =    0.0                 !
 ! A47   A(15,14,41)           109.1546         -DE/DX =    0.0                 !
 ! A48   A(40,14,41)           107.4832         -DE/DX =    0.0                 !
 ! A49   A(14,15,16)           114.0825         -DE/DX =    0.0                 !
 ! A50   A(14,15,42)           108.3978         -DE/DX =    0.0                 !
 ! A51   A(14,15,43)           107.9738         -DE/DX =    0.0                 !
 ! A52   A(16,15,42)           109.3499         -DE/DX =    0.0                 !
 ! A53   A(16,15,43)           110.3676         -DE/DX =    0.0                 !
 ! A54   A(42,15,43)           106.3653         -DE/DX =    0.0                 !
 ! A55   A(15,16,17)           112.7578         -DE/DX =    0.0                 !
 ! A56   A(15,16,44)           109.6962         -DE/DX =    0.0                 !
 ! A57   A(15,16,45)           110.6557         -DE/DX =    0.0                 !
 ! A58   A(17,16,44)           107.7543         -DE/DX =    0.0                 !
 ! A59   A(17,16,45)           109.2102         -DE/DX =    0.0                 !
 ! A60   A(44,16,45)           106.5361         -DE/DX =    0.0                 !
 ! A61   A(11,17,16)           109.6742         -DE/DX =    0.0                 !
 ! A62   A(11,17,46)           109.2498         -DE/DX =    0.0                 !
 ! A63   A(11,17,47)           110.7705         -DE/DX =    0.0                 !
 ! A64   A(16,17,46)           109.2833         -DE/DX =    0.0                 !
 ! A65   A(16,17,47)           110.9677         -DE/DX =    0.0                 !
 ! A66   A(46,17,47)           106.8322         -DE/DX =    0.0                 !
 ! A67   A(7,18,19)            106.0114         -DE/DX =    0.0                 !
 ! A68   A(5,19,18)             99.7978         -DE/DX =    0.0                 !
 ! A69   A(5,19,20)            116.3822         -DE/DX =    0.0                 !
 ! A70   A(5,19,26)            110.014          -DE/DX =    0.0                 !
 ! A71   A(18,19,20)           105.1458         -DE/DX =    0.0                 !
 ! A72   A(18,19,26)           108.4956         -DE/DX =    0.0                 !
 ! A73   A(20,19,26)           115.3946         -DE/DX =    0.0                 !
 ! A74   A(19,20,21)           119.7005         -DE/DX =    0.0                 !
 ! A75   A(19,20,25)           121.4675         -DE/DX =    0.0                 !
 ! A76   A(21,20,25)           118.6866         -DE/DX =    0.0                 !
 ! A77   A(20,21,22)           120.2226         -DE/DX =    0.0                 !
 ! A78   A(20,21,48)           122.2369         -DE/DX =    0.0                 !
 ! A79   A(22,21,48)           117.5399         -DE/DX =    0.0                 !
 ! A80   A(21,22,23)           120.7042         -DE/DX =    0.0                 !
 ! A81   A(21,22,49)           118.8193         -DE/DX =    0.0                 !
 ! A82   A(23,22,49)           120.4761         -DE/DX =    0.0                 !
 ! A83   A(22,23,24)           119.3711         -DE/DX =    0.0                 !
 ! A84   A(22,23,50)           120.3426         -DE/DX =    0.0                 !
 ! A85   A(24,23,50)           120.285          -DE/DX =    0.0                 !
 ! A86   A(23,24,25)           120.1823         -DE/DX =    0.0                 !
 ! A87   A(23,24,51)           120.3535         -DE/DX =    0.0                 !
 ! A88   A(25,24,51)           119.4632         -DE/DX =    0.0                 !
 ! A89   A(20,25,24)           120.8068         -DE/DX =    0.0                 !
 ! A90   A(20,25,52)           120.1647         -DE/DX =    0.0                 !
 ! A91   A(24,25,52)           119.0272         -DE/DX =    0.0                 !
 ! A92   A(19,26,27)           119.1818         -DE/DX =    0.0                 !
 ! A93   A(19,26,31)           121.7518         -DE/DX =    0.0                 !
 ! A94   A(27,26,31)           118.9795         -DE/DX =    0.0                 !
 ! A95   A(26,27,28)           120.4935         -DE/DX =    0.0                 !
 ! A96   A(26,27,53)           119.6635         -DE/DX =    0.0                 !
 ! A97   A(28,27,53)           119.8426         -DE/DX =    0.0                 !
 ! A98   A(27,28,29)           120.2622         -DE/DX =    0.0                 !
 ! A99   A(27,28,54)           119.5156         -DE/DX =    0.0                 !
 ! A100  A(29,28,54)           120.2218         -DE/DX =    0.0                 !
 ! A101  A(28,29,30)           119.4645         -DE/DX =    0.0                 !
 ! A102  A(28,29,55)           120.2384         -DE/DX =    0.0                 !
 ! A103  A(30,29,55)           120.2969         -DE/DX =    0.0                 !
 ! A104  A(29,30,31)           120.388          -DE/DX =    0.0                 !
 ! A105  A(29,30,56)           120.1401         -DE/DX =    0.0                 !
 ! A106  A(31,30,56)           119.4719         -DE/DX =    0.0                 !
 ! A107  A(26,31,30)           120.4116         -DE/DX =    0.0                 !
 ! A108  A(26,31,57)           119.5203         -DE/DX =    0.0                 !
 ! A109  A(30,31,57)           120.0678         -DE/DX =    0.0                 !
 ! A110  A(4,32,33)            120.8244         -DE/DX =    0.0                 !
 ! A111  A(4,32,58)            119.5219         -DE/DX =    0.0                 !
 ! A112  A(33,32,58)           119.6525         -DE/DX =    0.0                 !
 ! A113  A(1,33,32)            119.8338         -DE/DX =    0.0                 !
 ! A114  A(1,33,59)            120.3643         -DE/DX =    0.0                 !
 ! A115  A(32,33,59)           119.7933         -DE/DX =    0.0                 !
 ! A116  A(6,60,13)             80.6217         -DE/DX =    0.0                 !
 ! A117  A(6,60,61)             90.2709         -DE/DX =    0.0                 !
 ! A118  A(6,60,62)            141.9823         -DE/DX =    0.0                 !
 ! A119  A(13,60,61)            98.0365         -DE/DX =    0.0                 !
 ! A120  A(13,60,62)           105.0442         -DE/DX =    0.0                 !
 ! A121  A(61,60,62)           124.9535         -DE/DX =    0.0                 !
 ! D1    D(33,1,2,3)             1.402          -DE/DX =    0.0                 !
 ! D2    D(33,1,2,35)         -178.3413         -DE/DX =    0.0                 !
 ! D3    D(34,1,2,3)          -179.727          -DE/DX =    0.0                 !
 ! D4    D(34,1,2,35)            0.5296         -DE/DX =    0.0                 !
 ! D5    D(2,1,33,32)           -0.6002         -DE/DX =    0.0                 !
 ! D6    D(2,1,33,59)          178.3317         -DE/DX =    0.0                 !
 ! D7    D(34,1,33,32)        -179.4726         -DE/DX =    0.0                 !
 ! D8    D(34,1,33,59)          -0.5407         -DE/DX =    0.0                 !
 ! D9    D(1,2,3,4)             -0.3216         -DE/DX =    0.0                 !
 ! D10   D(1,2,3,36)          -177.975          -DE/DX =    0.0                 !
 ! D11   D(35,2,3,4)           179.4245         -DE/DX =    0.0                 !
 ! D12   D(35,2,3,36)            1.7711         -DE/DX =    0.0                 !
 ! D13   D(2,3,4,5)            179.4636         -DE/DX =    0.0                 !
 ! D14   D(2,3,4,32)            -1.5363         -DE/DX =    0.0                 !
 ! D15   D(36,3,4,5)            -2.9138         -DE/DX =    0.0                 !
 ! D16   D(36,3,4,32)          176.0863         -DE/DX =    0.0                 !
 ! D17   D(3,4,5,6)             31.058          -DE/DX =    0.0                 !
 ! D18   D(3,4,5,19)           -91.653          -DE/DX =    0.0                 !
 ! D19   D(3,4,5,37)           149.2278         -DE/DX =    0.0                 !
 ! D20   D(32,4,5,6)          -147.9562         -DE/DX =    0.0                 !
 ! D21   D(32,4,5,19)           89.3328         -DE/DX =    0.0                 !
 ! D22   D(32,4,5,37)          -29.7864         -DE/DX =    0.0                 !
 ! D23   D(3,4,32,33)            2.3466         -DE/DX =    0.0                 !
 ! D24   D(3,4,32,58)         -177.2437         -DE/DX =    0.0                 !
 ! D25   D(5,4,32,33)         -178.5985         -DE/DX =    0.0                 !
 ! D26   D(5,4,32,58)            1.8111         -DE/DX =    0.0                 !
 ! D27   D(4,5,6,7)           -147.9784         -DE/DX =    0.0                 !
 ! D28   D(4,5,6,60)            10.0086         -DE/DX =    0.0                 !
 ! D29   D(19,5,6,7)           -17.4589         -DE/DX =    0.0                 !
 ! D30   D(19,5,6,60)          140.5282         -DE/DX =    0.0                 !
 ! D31   D(37,5,6,7)            93.2877         -DE/DX =    0.0                 !
 ! D32   D(37,5,6,60)         -108.7253         -DE/DX =    0.0                 !
 ! D33   D(4,5,19,18)          152.0192         -DE/DX =    0.0                 !
 ! D34   D(4,5,19,20)           39.5848         -DE/DX =    0.0                 !
 ! D35   D(4,5,19,26)          -94.0571         -DE/DX =    0.0                 !
 ! D36   D(6,5,19,18)           22.9037         -DE/DX =    0.0                 !
 ! D37   D(6,5,19,20)          -89.5307         -DE/DX =    0.0                 !
 ! D38   D(6,5,19,26)          136.8275         -DE/DX =    0.0                 !
 ! D39   D(37,5,19,18)         -88.1283         -DE/DX =    0.0                 !
 ! D40   D(37,5,19,20)         159.4373         -DE/DX =    0.0                 !
 ! D41   D(37,5,19,26)          25.7954         -DE/DX =    0.0                 !
 ! D42   D(5,6,7,8)           -179.1199         -DE/DX =    0.0                 !
 ! D43   D(5,6,7,18)             3.989          -DE/DX =    0.0                 !
 ! D44   D(60,6,7,8)            15.5518         -DE/DX =    0.0                 !
 ! D45   D(60,6,7,18)         -161.3393         -DE/DX =    0.0                 !
 ! D46   D(5,6,60,13)         -172.8873         -DE/DX =    0.0                 !
 ! D47   D(5,6,60,61)          -74.7863         -DE/DX =    0.0                 !
 ! D48   D(5,6,60,62)           84.6452         -DE/DX =    0.0                 !
 ! D49   D(7,6,60,13)          -15.2295         -DE/DX =    0.0                 !
 ! D50   D(7,6,60,61)           82.8716         -DE/DX =    0.0                 !
 ! D51   D(7,6,60,62)         -117.6969         -DE/DX =    0.0                 !
 ! D52   D(6,7,8,9)            175.9248         -DE/DX =    0.0                 !
 ! D53   D(6,7,8,13)            -4.4578         -DE/DX =    0.0                 !
 ! D54   D(18,7,8,9)            -7.2316         -DE/DX =    0.0                 !
 ! D55   D(18,7,8,13)          172.3857         -DE/DX =    0.0                 !
 ! D56   D(6,7,18,19)           12.5221         -DE/DX =    0.0                 !
 ! D57   D(8,7,18,19)         -164.4248         -DE/DX =    0.0                 !
 ! D58   D(7,8,9,10)          -179.7467         -DE/DX =    0.0                 !
 ! D59   D(7,8,9,38)             0.3151         -DE/DX =    0.0                 !
 ! D60   D(13,8,9,10)            0.6719         -DE/DX =    0.0                 !
 ! D61   D(13,8,9,38)         -179.2663         -DE/DX =    0.0                 !
 ! D62   D(7,8,13,12)         -179.51           -DE/DX =    0.0                 !
 ! D63   D(7,8,13,60)           -9.3659         -DE/DX =    0.0                 !
 ! D64   D(9,8,13,12)            0.113          -DE/DX =    0.0                 !
 ! D65   D(9,8,13,60)          170.2571         -DE/DX =    0.0                 !
 ! D66   D(8,9,10,11)           -0.8406         -DE/DX =    0.0                 !
 ! D67   D(8,9,10,39)          179.4229         -DE/DX =    0.0                 !
 ! D68   D(38,9,10,11)         179.0962         -DE/DX =    0.0                 !
 ! D69   D(38,9,10,39)          -0.6403         -DE/DX =    0.0                 !
 ! D70   D(9,10,11,12)           0.2728         -DE/DX =    0.0                 !
 ! D71   D(9,10,11,17)         178.8851         -DE/DX =    0.0                 !
 ! D72   D(39,10,11,12)       -179.9904         -DE/DX =    0.0                 !
 ! D73   D(39,10,11,17)         -1.378          -DE/DX =    0.0                 !
 ! D74   D(10,11,12,13)          0.5301         -DE/DX =    0.0                 !
 ! D75   D(10,11,12,14)       -178.784          -DE/DX =    0.0                 !
 ! D76   D(17,11,12,13)       -178.2002         -DE/DX =    0.0                 !
 ! D77   D(17,11,12,14)          2.4857         -DE/DX =    0.0                 !
 ! D78   D(10,11,17,16)       -130.8026         -DE/DX =    0.0                 !
 ! D79   D(10,11,17,46)        109.4392         -DE/DX =    0.0                 !
 ! D80   D(10,11,17,47)         -7.9792         -DE/DX =    0.0                 !
 ! D81   D(12,11,17,16)         47.8399         -DE/DX =    0.0                 !
 ! D82   D(12,11,17,46)        -71.9183         -DE/DX =    0.0                 !
 ! D83   D(12,11,17,47)        170.6633         -DE/DX =    0.0                 !
 ! D84   D(11,12,13,8)          -0.7239         -DE/DX =    0.0                 !
 ! D85   D(11,12,13,60)       -169.1815         -DE/DX =    0.0                 !
 ! D86   D(14,12,13,8)         178.5774         -DE/DX =    0.0                 !
 ! D87   D(14,12,13,60)         10.1198         -DE/DX =    0.0                 !
 ! D88   D(11,12,14,15)        -46.2769         -DE/DX =    0.0                 !
 ! D89   D(11,12,14,40)       -170.3819         -DE/DX =    0.0                 !
 ! D90   D(11,12,14,41)         73.1249         -DE/DX =    0.0                 !
 ! D91   D(13,12,14,15)        134.4031         -DE/DX =    0.0                 !
 ! D92   D(13,12,14,40)         10.2981         -DE/DX =    0.0                 !
 ! D93   D(13,12,14,41)       -106.1952         -DE/DX =    0.0                 !
 ! D94   D(8,13,60,6)           13.4452         -DE/DX =    0.0                 !
 ! D95   D(8,13,60,61)         -75.4959         -DE/DX =    0.0                 !
 ! D96   D(8,13,60,62)         154.9298         -DE/DX =    0.0                 !
 ! D97   D(12,13,60,6)        -177.3579         -DE/DX =    0.0                 !
 ! D98   D(12,13,60,61)         93.701          -DE/DX =    0.0                 !
 ! D99   D(12,13,60,62)        -35.8732         -DE/DX =    0.0                 !
 ! D100  D(12,14,15,16)         37.2174         -DE/DX =    0.0                 !
 ! D101  D(12,14,15,42)        -84.8649         -DE/DX =    0.0                 !
 ! D102  D(12,14,15,43)        160.2956         -DE/DX =    0.0                 !
 ! D103  D(40,14,15,16)        160.3626         -DE/DX =    0.0                 !
 ! D104  D(40,14,15,42)         38.2802         -DE/DX =    0.0                 !
 ! D105  D(40,14,15,43)        -76.5592         -DE/DX =    0.0                 !
 ! D106  D(41,14,15,16)        -81.0289         -DE/DX =    0.0                 !
 ! D107  D(41,14,15,42)        156.8887         -DE/DX =    0.0                 !
 ! D108  D(41,14,15,43)         42.0493         -DE/DX =    0.0                 !
 ! D109  D(14,15,16,17)         10.7806         -DE/DX =    0.0                 !
 ! D110  D(14,15,16,44)       -109.312          -DE/DX =    0.0                 !
 ! D111  D(14,15,16,45)        133.4281         -DE/DX =    0.0                 !
 ! D112  D(42,15,16,17)        132.3384         -DE/DX =    0.0                 !
 ! D113  D(42,15,16,44)         12.2457         -DE/DX =    0.0                 !
 ! D114  D(42,15,16,45)       -105.0141         -DE/DX =    0.0                 !
 ! D115  D(43,15,16,17)       -110.9872         -DE/DX =    0.0                 !
 ! D116  D(43,15,16,44)        128.9202         -DE/DX =    0.0                 !
 ! D117  D(43,15,16,45)         11.6603         -DE/DX =    0.0                 !
 ! D118  D(15,16,17,11)        -53.1811         -DE/DX =    0.0                 !
 ! D119  D(15,16,17,46)         66.5567         -DE/DX =    0.0                 !
 ! D120  D(15,16,17,47)       -175.8876         -DE/DX =    0.0                 !
 ! D121  D(44,16,17,11)         68.0225         -DE/DX =    0.0                 !
 ! D122  D(44,16,17,46)       -172.2397         -DE/DX =    0.0                 !
 ! D123  D(44,16,17,47)        -54.684          -DE/DX =    0.0                 !
 ! D124  D(45,16,17,11)       -176.6343         -DE/DX =    0.0                 !
 ! D125  D(45,16,17,46)        -56.8965         -DE/DX =    0.0                 !
 ! D126  D(45,16,17,47)         60.6592         -DE/DX =    0.0                 !
 ! D127  D(7,18,19,5)          -21.2359         -DE/DX =    0.0                 !
 ! D128  D(7,18,19,20)          99.6884         -DE/DX =    0.0                 !
 ! D129  D(7,18,19,26)        -136.3232         -DE/DX =    0.0                 !
 ! D130  D(5,19,20,21)          46.1841         -DE/DX =    0.0                 !
 ! D131  D(5,19,20,25)        -138.2558         -DE/DX =    0.0                 !
 ! D132  D(18,19,20,21)        -63.1486         -DE/DX =    0.0                 !
 ! D133  D(18,19,20,25)        112.4116         -DE/DX =    0.0                 !
 ! D134  D(26,19,20,21)        177.3599         -DE/DX =    0.0                 !
 ! D135  D(26,19,20,25)         -7.08           -DE/DX =    0.0                 !
 ! D136  D(5,19,26,27)          73.6951         -DE/DX =    0.0                 !
 ! D137  D(5,19,26,31)        -102.8805         -DE/DX =    0.0                 !
 ! D138  D(18,19,26,27)       -178.0758         -DE/DX =    0.0                 !
 ! D139  D(18,19,26,31)          5.3486         -DE/DX =    0.0                 !
 ! D140  D(20,19,26,27)        -60.445          -DE/DX =    0.0                 !
 ! D141  D(20,19,26,31)        122.9794         -DE/DX =    0.0                 !
 ! D142  D(19,20,21,22)        177.3992         -DE/DX =    0.0                 !
 ! D143  D(19,20,21,48)         -2.8999         -DE/DX =    0.0                 !
 ! D144  D(25,20,21,22)          1.7157         -DE/DX =    0.0                 !
 ! D145  D(25,20,21,48)       -178.5834         -DE/DX =    0.0                 !
 ! D146  D(19,20,25,24)       -177.3721         -DE/DX =    0.0                 !
 ! D147  D(19,20,25,52)          2.225          -DE/DX =    0.0                 !
 ! D148  D(21,20,25,24)         -1.7682         -DE/DX =    0.0                 !
 ! D149  D(21,20,25,52)        177.829          -DE/DX =    0.0                 !
 ! D150  D(20,21,22,23)         -0.5215         -DE/DX =    0.0                 !
 ! D151  D(20,21,22,49)        179.2785         -DE/DX =    0.0                 !
 ! D152  D(48,21,22,23)        179.7638         -DE/DX =    0.0                 !
 ! D153  D(48,21,22,49)         -0.4362         -DE/DX =    0.0                 !
 ! D154  D(21,22,23,24)         -0.6552         -DE/DX =    0.0                 !
 ! D155  D(21,22,23,50)        179.7496         -DE/DX =    0.0                 !
 ! D156  D(49,22,23,24)        179.5481         -DE/DX =    0.0                 !
 ! D157  D(49,22,23,50)         -0.0471         -DE/DX =    0.0                 !
 ! D158  D(22,23,24,25)          0.6098         -DE/DX =    0.0                 !
 ! D159  D(22,23,24,51)       -179.0115         -DE/DX =    0.0                 !
 ! D160  D(50,23,24,25)       -179.7947         -DE/DX =    0.0                 !
 ! D161  D(50,23,24,51)          0.5839         -DE/DX =    0.0                 !
 ! D162  D(23,24,25,20)          0.6162         -DE/DX =    0.0                 !
 ! D163  D(23,24,25,52)       -178.9854         -DE/DX =    0.0                 !
 ! D164  D(51,24,25,20)       -179.7591         -DE/DX =    0.0                 !
 ! D165  D(51,24,25,52)          0.6393         -DE/DX =    0.0                 !
 ! D166  D(19,26,27,28)       -176.5176         -DE/DX =    0.0                 !
 ! D167  D(19,26,27,53)          3.7257         -DE/DX =    0.0                 !
 ! D168  D(31,26,27,28)          0.1538         -DE/DX =    0.0                 !
 ! D169  D(31,26,27,53)       -179.6029         -DE/DX =    0.0                 !
 ! D170  D(19,26,31,30)        176.6223         -DE/DX =    0.0                 !
 ! D171  D(19,26,31,57)         -3.546          -DE/DX =    0.0                 !
 ! D172  D(27,26,31,30)          0.04           -DE/DX =    0.0                 !
 ! D173  D(27,26,31,57)        179.8717         -DE/DX =    0.0                 !
 ! D174  D(26,27,28,29)         -0.1746         -DE/DX =    0.0                 !
 ! D175  D(26,27,28,54)       -179.9407         -DE/DX =    0.0                 !
 ! D176  D(53,27,28,29)        179.5817         -DE/DX =    0.0                 !
 ! D177  D(53,27,28,54)         -0.1843         -DE/DX =    0.0                 !
 ! D178  D(27,28,29,30)         -0.0003         -DE/DX =    0.0                 !
 ! D179  D(27,28,29,55)       -179.8636         -DE/DX =    0.0                 !
 ! D180  D(54,28,29,30)        179.7641         -DE/DX =    0.0                 !
 ! D181  D(54,28,29,55)         -0.0992         -DE/DX =    0.0                 !
 ! D182  D(28,29,30,31)          0.1941         -DE/DX =    0.0                 !
 ! D183  D(28,29,30,56)       -179.7795         -DE/DX =    0.0                 !
 ! D184  D(55,29,30,31)       -179.9426         -DE/DX =    0.0                 !
 ! D185  D(55,29,30,56)          0.0837         -DE/DX =    0.0                 !
 ! D186  D(29,30,31,26)         -0.2148         -DE/DX =    0.0                 !
 ! D187  D(29,30,31,57)        179.9544         -DE/DX =    0.0                 !
 ! D188  D(56,30,31,26)        179.759          -DE/DX =    0.0                 !
 ! D189  D(56,30,31,57)         -0.0718         -DE/DX =    0.0                 !
 ! D190  D(4,32,33,1)           -1.2794         -DE/DX =    0.0                 !
 ! D191  D(4,32,33,59)         179.7825         -DE/DX =    0.0                 !
 ! D192  D(58,32,33,1)         178.3104         -DE/DX =    0.0                 !
 ! D193  D(58,32,33,59)         -0.6277         -DE/DX =    0.0                 !
 --------------------------------------------------------------------------------
 GradGradGradGradGradGradGradGradGradGradGradGradGradGradGradGradGradGrad

 Stoichiometry    C30H26F2N2NiO(3)
 Framework group  C1[X(C30H26F2N2NiO)]
 Deg. of freedom   180
 Full point group                 C1      NOp   1
 Largest Abelian subgroup         C1      NOp   1
 Largest concise Abelian subgroup C1      NOp   1
                         Standard orientation:                         
 ---------------------------------------------------------------------
 Center     Atomic      Atomic             Coordinates (Angstroms)
 Number     Number       Type             X           Y           Z
 ---------------------------------------------------------------------
      1          6           0        3.425062    4.063129   -0.576343
      2          6           0        2.265190    3.840577    0.165205
      3          6           0        1.574829    2.631146    0.070253
      4          6           0        2.047131    1.627556   -0.785754
      5          6           0        1.369233    0.287107   -0.939969
      6          7           0       -0.092230    0.279954   -0.760198
      7          6           0       -0.407624   -0.860215   -0.257544
      8          6           0       -1.799997   -1.213700    0.034132
      9          6           0       -2.205502   -2.455625    0.499458
     10          6           0       -3.570296   -2.652547    0.729606
     11          6           0       -4.464713   -1.612199    0.506981
     12          6           0       -3.965159   -0.373671    0.043996
     13          7           0       -2.663826   -0.197399   -0.188744
     14          6           0       -4.931882    0.752605   -0.167611
     15          6           0       -6.191115    0.281578   -0.936730
     16          6           0       -6.668333   -1.147291   -0.556999
     17          6           0       -5.953390   -1.703098    0.693107
     18          8           0        0.574051   -1.707374    0.057538
     19          6           0        1.845242   -0.909719   -0.003801
     20          6           0        2.161492   -0.552735    1.443455
     21          6           0        1.273248    0.258865    2.170814
     22          6           0        1.523879    0.547375    3.509622
     23          6           0        2.649796    0.029344    4.151650
     24          6           0        3.520831   -0.795378    3.443817
     25          6           0        3.274400   -1.088827    2.101876
     26          6           0        2.895944   -1.735151   -0.712787
     27          6           0        4.190853   -1.215438   -0.858154
     28          6           0        5.159695   -1.920172   -1.568821
     29          6           0        4.852251   -3.155581   -2.141990
     30          6           0        3.568317   -3.677881   -1.997336
     31          6           0        2.594208   -2.971663   -1.288933
     32          6           0        3.191359    1.871118   -1.558230
     33          6           0        3.885348    3.074362   -1.446724
     34          1           0        3.957143    5.006636   -0.491524
     35          1           0        1.883654    4.614460    0.825352
     36          1           0        0.655377    2.494490    0.633196
     37          1           0        1.550602   -0.049851   -1.967799
     38          1           0       -1.473189   -3.235081    0.673930
     39          1           0       -3.931290   -3.613731    1.085370
     40          1           0       -4.432563    1.578294   -0.682766
     41          1           0       -5.231149    1.116098    0.826728
     42          1           0       -5.974934    0.318719   -2.009166
     43          1           0       -6.988266    1.009558   -0.757489
     44          1           0       -6.472418   -1.835034   -1.387483
     45          1           0       -7.750201   -1.161339   -0.389358
     46          1           0       -6.245716   -1.110541    1.572187
     47          1           0       -6.257577   -2.736195    0.891636
     48          1           0        0.380564    0.685643    1.723917
     49          1           0        0.828855    1.186394    4.046500
     50          1           0        2.841851    0.261606    5.195609
     51          1           0        4.393348   -1.220233    3.932232
     52          1           0        3.954746   -1.745397    1.574099
     53          1           0        4.438932   -0.259821   -0.410077
     54          1           0        6.157595   -1.503337   -1.670695
     55          1           0        5.608607   -3.705779   -2.694154
     56          1           0        3.318173   -4.639843   -2.435740
     57          1           0        1.597673   -3.382164   -1.180320
     58          1           0        3.536636    1.114211   -2.257036
     59          1           0        4.772196    3.244044   -2.050962
     60         28           0       -1.680121    1.587267   -0.565046
     61          9           0       -1.159891    1.972005    1.183891
     62          9           0       -2.844227    2.568283   -1.538345
 ---------------------------------------------------------------------
 Rotational constants (GHZ):           0.1619907           0.0748178           0.0661516
 Unable to Open any file for archive entry.
 1\1\GINC-NOTCH318\FOpt\UB3LYP\Gen\C30H26F2N2Ni1O1(3)\U1365460\06-Mar-2
 026\0\\# B3LYP gen 6D pseudo=read int=(grid=fine) empiricaldispersion=
 GD3BJ opt freq=noraman\\Lig2120.xyz\\0,3\C,-3.6074625542,-2.9906346081
 ,-2.4891005794\C,-2.614484855,-3.2335587036,-1.5405715193\C,-1.7754311
 968,-2.2076853761,-1.1024955101\C,-1.9258214914,-0.9167012097,-1.62571
 0299\C,-1.0699497139,0.2520353848,-1.1994830781\N,0.3086741965,-0.0723
 418183,-0.7964716616\C,0.648064423,0.7725548583,0.1107679507\C,1.97871
 51126,0.7485825164,0.7251982842\C,2.4260060498,1.6829493603,1.64727673
 63\C,3.7236921414,1.5376571731,2.1465842049\C,4.5091206921,0.470599838
 7,1.7266332\C,3.970617207,-0.4436541439,0.7928164407\N,2.7375353694,-0
 .2902577562,0.308370416\C,4.8131125605,-1.6077524572,0.3651407931\C,6.
 2560550524,-1.165328897,0.0169208019\C,6.8142858413,-0.043619249,0.935
 4760797\C,5.9231292135,0.2170841353,2.168644937\O,-0.2656078282,1.6472
 312322,0.5359569117\C,-1.5830798315,1.1628279761,0.001575521\C,-2.2430
 955397,0.437082642,1.1676255407\C,-1.6383787315,-0.7131116509,1.704369
 5483\C,-2.2031474834,-1.3535120465,2.8040891262\C,-3.3672406011,-0.860
 4340947,3.3957024483\C,-3.9578303213,0.2926309282,2.8842919108\C,-3.39
 58494502,0.939399689,1.7826963062\C,-2.3474329749,2.3506965558,-0.5394
 48806\C,-3.6355027267,2.1558060548,-1.0599458659\C,-4.3351236345,3.216
 4404492,-1.6308564625\C,-3.7616812449,4.4881335365,-1.6877711808\C,-2.
 4837731791,4.6877188322,-1.1688034761\C,-1.7787485959,3.6254214716,-0.
 5996536981\C,-2.8996307774,-0.6866008113,-2.6075691845\C,-3.7449725266
 ,-1.7112120559,-3.0287827687\H,-4.2580397153,-3.7955260572,-2.81987169
 54\H,-2.4817315324,-4.2323365436,-1.1342717825\H,-0.9878829,-2.4294862
 032,-0.3872727285\H,-0.9842617867,0.9214574707,-2.0640073106\H,1.77563
 70627,2.491708449,1.9590518709\H,4.1164994353,2.2533103677,2.863732479
 8\H,4.3371198246,-2.121378072,-0.4751484907\H,4.8455405193,-2.31356550
 11,1.2084516279\H,6.2712096889,-0.8236843628,-1.0229266614\H,6.9000210
 001,-2.0490353071,0.0605449477\H,6.8871408223,0.8933623097,0.371708975
 5\H,7.8285274212,-0.2864104831,1.2688021533\H,5.9450979162,-0.66461431
 64,2.8255203438\H,6.3034061354,1.059568298,2.7558774812\H,-0.730697283
 1,-1.1384409424,1.2872958976\H,-1.7235707864,-2.2471031029,3.192859996
 5\H,-3.8052581166,-1.367220846,4.2512659078\H,-4.8550833286,0.69938615
 35,3.3423592236\H,-3.8609756275,1.8437228799,1.4107266846\H,-4.0900276
 952,1.1725755552,-1.0132011523\H,-5.331944498,3.047874993,-2.028181745
 6\H,-4.3084223544,5.3153487291,-2.1310171625\H,-2.0285293116,5.6734413
 218,-1.2040870527\H,-0.7854753934,3.7862376626,-0.1984860212\H,-2.9910
 882321,0.3016511593,-3.0496639033\H,-4.4961910835,-1.5133671744,-3.788
 3374526\Ni,1.6437163849,-1.6490531901,-0.8103545928\F,0.7181198105,-2.
 4566843713,0.5926587266\F,2.858281022,-2.4766866318,-1.8614016324\\Ver
 sion=ES64L-G16RevC.01\State=3-A\HF=-1712.9031803\S2=2.005407\S2-1=0.\S
 2A=2.000017\RMSD=1.293e-09\RMSF=2.879e-06\Dipole=0.2669976,2.7232875,1
 .1493794\Quadrupole=17.6672847,-9.5851328,-8.0821519,7.0256194,16.5185
 573,-4.610808\PG=C01 [X(C30H26F2N2Ni1O1)]\\@
 The archive entry for this job was punched.


 I DON'T EXACTLY UNDERSTAND WHAT YOU ARE SAYING,
 BUT YOU ARE ABSOLUTELY RIGHT.
     M.S.GORDON, IN A NDSU FACULTY MEETING
 Job cpu time:       0 days  2 hours 37 minutes 40.7 seconds.
 Elapsed time:       0 days  0 hours  9 minutes 56.6 seconds.
 File lengths (MBytes):  RWF=    412 Int=      0 D2E=      0 Chk=     41 Scr=      2
 Normal termination of Gaussian 16 at Fri Mar  6 16:34:55 2026.
 Link1:  Proceeding to internal job step number  2.
 ------------------------------------------------------------------
 #N Geom=AllCheck Guess=TCheck SCRF=Check GenChk UB3LYP/ChkBas Freq
 ------------------------------------------------------------------
 1/10=4,29=7,30=1,38=1,40=1/1,3;
 2/12=2,40=1/2;
 3/5=7,6=2,8=2,11=2,14=-4,16=1,17=8,25=1,30=1,67=1,70=2,71=2,74=-5,75=-4,82=7,116=2,124=41,140=1/1,2,3;
 4/5=101/1;
 5/5=2,38=6,98=1/2;
 8/6=4,10=90,11=11/1;
 11/6=1,8=1,9=11,15=111,16=1/1,2,10;
 10/6=1/2;
 6/7=2,8=2,9=2,10=2,28=1/1;
 7/8=1,10=1,25=1/1,2,3,16;
 1/10=4,30=1/3;
 99//99;
 Structure from the checkpoint file:  "Lig2120_xyz_2.chk"
 -----------
 Lig2120.xyz
 -----------
 Charge =  0 Multiplicity = 3
 Redundant internal coordinates found in file.  (old form).
 C,0,-3.6074625542,-2.9906346081,-2.4891005794
 C,0,-2.614484855,-3.2335587036,-1.5405715193
 C,0,-1.7754311968,-2.2076853761,-1.1024955101
 C,0,-1.9258214914,-0.9167012097,-1.625710299
 C,0,-1.0699497139,0.2520353848,-1.1994830781
 N,0,0.3086741965,-0.0723418183,-0.7964716616
 C,0,0.648064423,0.7725548583,0.1107679507
 C,0,1.9787151126,0.7485825164,0.7251982842
 C,0,2.4260060498,1.6829493603,1.6472767363
 C,0,3.7236921414,1.5376571731,2.1465842049
 C,0,4.5091206921,0.4705998387,1.7266332
 C,0,3.970617207,-0.4436541439,0.7928164407
 N,0,2.7375353694,-0.2902577562,0.308370416
 C,0,4.8131125605,-1.6077524572,0.3651407931
 C,0,6.2560550524,-1.165328897,0.0169208019
 C,0,6.8142858413,-0.043619249,0.9354760797
 C,0,5.9231292135,0.2170841353,2.168644937
 O,0,-0.2656078282,1.6472312322,0.5359569117
 C,0,-1.5830798315,1.1628279761,0.001575521
 C,0,-2.2430955397,0.437082642,1.1676255407
 C,0,-1.6383787315,-0.7131116509,1.7043695483
 C,0,-2.2031474834,-1.3535120465,2.8040891262
 C,0,-3.3672406011,-0.8604340947,3.3957024483
 C,0,-3.9578303213,0.2926309282,2.8842919108
 C,0,-3.3958494502,0.939399689,1.7826963062
 C,0,-2.3474329749,2.3506965558,-0.539448806
 C,0,-3.6355027267,2.1558060548,-1.0599458659
 C,0,-4.3351236345,3.2164404492,-1.6308564625
 C,0,-3.7616812449,4.4881335365,-1.6877711808
 C,0,-2.4837731791,4.6877188322,-1.1688034761
 C,0,-1.7787485959,3.6254214716,-0.5996536981
 C,0,-2.8996307774,-0.6866008113,-2.6075691845
 C,0,-3.7449725266,-1.7112120559,-3.0287827687
 H,0,-4.2580397153,-3.7955260572,-2.8198716954
 H,0,-2.4817315324,-4.2323365436,-1.1342717825
 H,0,-0.9878829,-2.4294862032,-0.3872727285
 H,0,-0.9842617867,0.9214574707,-2.0640073106
 H,0,1.7756370627,2.491708449,1.9590518709
 H,0,4.1164994353,2.2533103677,2.8637324798
 H,0,4.3371198246,-2.121378072,-0.4751484907
 H,0,4.8455405193,-2.3135655011,1.2084516279
 H,0,6.2712096889,-0.8236843628,-1.0229266614
 H,0,6.9000210001,-2.0490353071,0.0605449477
 H,0,6.8871408223,0.8933623097,0.3717089755
 H,0,7.8285274212,-0.2864104831,1.2688021533
 H,0,5.9450979162,-0.6646143164,2.8255203438
 H,0,6.3034061354,1.059568298,2.7558774812
 H,0,-0.7306972831,-1.1384409424,1.2872958976
 H,0,-1.7235707864,-2.2471031029,3.1928599965
 H,0,-3.8052581166,-1.367220846,4.2512659078
 H,0,-4.8550833286,0.6993861535,3.3423592236
 H,0,-3.8609756275,1.8437228799,1.4107266846
 H,0,-4.0900276952,1.1725755552,-1.0132011523
 H,0,-5.331944498,3.047874993,-2.0281817456
 H,0,-4.3084223544,5.3153487291,-2.1310171625
 H,0,-2.0285293116,5.6734413218,-1.2040870527
 H,0,-0.7854753934,3.7862376626,-0.1984860212
 H,0,-2.9910882321,0.3016511593,-3.0496639033
 H,0,-4.4961910835,-1.5133671744,-3.7883374526
 Ni,0,1.6437163849,-1.6490531901,-0.8103545928
 F,0,0.7181198105,-2.4566843713,0.5926587266
 F,0,2.858281022,-2.4766866318,-1.8614016324
 Recover connectivity data from disk.

 GradGradGradGradGradGradGradGradGradGradGradGradGradGradGradGradGradGrad
 Berny optimization.
 Initialization pass.
                           ----------------------------
                           !    Initial Parameters    !
                           ! (Angstroms and Degrees)  !
 --------------------------                            --------------------------
 ! Name  Definition              Value          Derivative Info.                !
 --------------------------------------------------------------------------------
 ! R1    R(1,2)                  1.3945         calculate D2E/DX2 analytically  !
 ! R2    R(1,33)                 1.3954         calculate D2E/DX2 analytically  !
 ! R3    R(1,34)                 1.0865         calculate D2E/DX2 analytically  !
 ! R4    R(2,3)                  1.3958         calculate D2E/DX2 analytically  !
 ! R5    R(2,35)                 1.0864         calculate D2E/DX2 analytically  !
 ! R6    R(3,4)                  1.4011         calculate D2E/DX2 analytically  !
 ! R7    R(3,36)                 1.0867         calculate D2E/DX2 analytically  !
 ! R8    R(4,5)                  1.51           calculate D2E/DX2 analytically  !
 ! R9    R(4,32)                 1.4019         calculate D2E/DX2 analytically  !
 ! R10   R(5,6)                  1.4725         calculate D2E/DX2 analytically  !
 ! R11   R(5,19)                 1.5923         calculate D2E/DX2 analytically  !
 ! R12   R(5,37)                 1.0968         calculate D2E/DX2 analytically  !
 ! R13   R(6,7)                  1.2853         calculate D2E/DX2 analytically  !
 ! R14   R(6,60)                 2.066          calculate D2E/DX2 analytically  !
 ! R15   R(7,8)                  1.4659         calculate D2E/DX2 analytically  !
 ! R16   R(7,18)                 1.3344         calculate D2E/DX2 analytically  !
 ! R17   R(8,9)                  1.3868         calculate D2E/DX2 analytically  !
 ! R18   R(8,13)                 1.3523         calculate D2E/DX2 analytically  !
 ! R19   R(9,10)                 1.398          calculate D2E/DX2 analytically  !
 ! R20   R(9,38)                 1.0836         calculate D2E/DX2 analytically  !
 ! R21   R(10,11)                1.3899         calculate D2E/DX2 analytically  !
 ! R22   R(10,39)                1.0866         calculate D2E/DX2 analytically  !
 ! R23   R(11,12)                1.4135         calculate D2E/DX2 analytically  !
 ! R24   R(11,17)                1.503          calculate D2E/DX2 analytically  !
 ! R25   R(12,13)                1.3337         calculate D2E/DX2 analytically  !
 ! R26   R(12,14)                1.4993         calculate D2E/DX2 analytically  !
 ! R27   R(13,60)                2.0723         calculate D2E/DX2 analytically  !
 ! R28   R(14,15)                1.5489         calculate D2E/DX2 analytically  !
 ! R29   R(14,40)                1.0938         calculate D2E/DX2 analytically  !
 ! R30   R(14,41)                1.1002         calculate D2E/DX2 analytically  !
 ! R31   R(15,16)                1.5536         calculate D2E/DX2 analytically  !
 ! R32   R(15,42)                1.0946         calculate D2E/DX2 analytically  !
 ! R33   R(15,43)                1.0943         calculate D2E/DX2 analytically  !
 ! R34   R(16,17)                1.5436         calculate D2E/DX2 analytically  !
 ! R35   R(16,44)                1.0959         calculate D2E/DX2 analytically  !
 ! R36   R(16,45)                1.0949         calculate D2E/DX2 analytically  !
 ! R37   R(17,46)                1.0997         calculate D2E/DX2 analytically  !
 ! R38   R(17,47)                1.0951         calculate D2E/DX2 analytically  !
 ! R39   R(18,19)                1.502          calculate D2E/DX2 analytically  !
 ! R40   R(19,20)                1.5238         calculate D2E/DX2 analytically  !
 ! R41   R(19,26)                1.5126         calculate D2E/DX2 analytically  !
 ! R42   R(20,21)                1.406          calculate D2E/DX2 analytically  !
 ! R43   R(20,25)                1.3998         calculate D2E/DX2 analytically  !
 ! R44   R(21,22)                1.3923         calculate D2E/DX2 analytically  !
 ! R45   R(21,48)                1.0857         calculate D2E/DX2 analytically  !
 ! R46   R(22,23)                1.3958         calculate D2E/DX2 analytically  !
 ! R47   R(22,49)                1.0861         calculate D2E/DX2 analytically  !
 ! R48   R(23,24)                1.3928         calculate D2E/DX2 analytically  !
 ! R49   R(23,50)                1.0866         calculate D2E/DX2 analytically  !
 ! R50   R(24,25)                1.3956         calculate D2E/DX2 analytically  !
 ! R51   R(24,51)                1.0864         calculate D2E/DX2 analytically  !
 ! R52   R(25,52)                1.0828         calculate D2E/DX2 analytically  !
 ! R53   R(26,27)                1.4029         calculate D2E/DX2 analytically  !
 ! R54   R(26,31)                1.3971         calculate D2E/DX2 analytically  !
 ! R55   R(27,28)                1.393          calculate D2E/DX2 analytically  !
 ! R56   R(27,53)                1.0842         calculate D2E/DX2 analytically  !
 ! R57   R(28,29)                1.3962         calculate D2E/DX2 analytically  !
 ! R58   R(28,54)                1.0862         calculate D2E/DX2 analytically  !
 ! R59   R(29,30)                1.3936         calculate D2E/DX2 analytically  !
 ! R60   R(29,55)                1.0861         calculate D2E/DX2 analytically  !
 ! R61   R(30,31)                1.3962         calculate D2E/DX2 analytically  !
 ! R62   R(30,56)                1.0863         calculate D2E/DX2 analytically  !
 ! R63   R(31,57)                1.0832         calculate D2E/DX2 analytically  !
 ! R64   R(32,33)                1.3935         calculate D2E/DX2 analytically  !
 ! R65   R(32,58)                1.0865         calculate D2E/DX2 analytically  !
 ! R66   R(33,59)                1.0865         calculate D2E/DX2 analytically  !
 ! R67   R(60,61)                1.8648         calculate D2E/DX2 analytically  !
 ! R68   R(60,62)                1.8069         calculate D2E/DX2 analytically  !
 ! A1    A(2,1,33)             119.5352         calculate D2E/DX2 analytically  !
 ! A2    A(2,1,34)             120.2903         calculate D2E/DX2 analytically  !
 ! A3    A(33,1,34)            120.1648         calculate D2E/DX2 analytically  !
 ! A4    A(1,2,3)              120.8951         calculate D2E/DX2 analytically  !
 ! A5    A(1,2,35)             120.1016         calculate D2E/DX2 analytically  !
 ! A6    A(3,2,35)             119.0028         calculate D2E/DX2 analytically  !
 ! A7    A(2,3,4)              119.7015         calculate D2E/DX2 analytically  !
 ! A8    A(2,3,36)             119.4839         calculate D2E/DX2 analytically  !
 ! A9    A(4,3,36)             120.7723         calculate D2E/DX2 analytically  !
 ! A10   A(3,4,5)              123.1564         calculate D2E/DX2 analytically  !
 ! A11   A(3,4,32)             119.1666         calculate D2E/DX2 analytically  !
 ! A12   A(5,4,32)             117.6699         calculate D2E/DX2 analytically  !
 ! A13   A(4,5,6)              115.9392         calculate D2E/DX2 analytically  !
 ! A14   A(4,5,19)             118.2281         calculate D2E/DX2 analytically  !
 ! A15   A(4,5,37)             107.1097         calculate D2E/DX2 analytically  !
 ! A16   A(6,5,19)             102.784          calculate D2E/DX2 analytically  !
 ! A17   A(6,5,37)             106.0842         calculate D2E/DX2 analytically  !
 ! A18   A(19,5,37)            105.7015         calculate D2E/DX2 analytically  !
 ! A19   A(5,6,7)              107.1929         calculate D2E/DX2 analytically  !
 ! A20   A(5,6,60)             140.4676         calculate D2E/DX2 analytically  !
 ! A21   A(7,6,60)             109.619          calculate D2E/DX2 analytically  !
 ! A22   A(6,7,8)              121.6547         calculate D2E/DX2 analytically  !
 ! A23   A(6,7,18)             118.3578         calculate D2E/DX2 analytically  !
 ! A24   A(8,7,18)             119.9146         calculate D2E/DX2 analytically  !
 ! A25   A(7,8,9)              124.0868         calculate D2E/DX2 analytically  !
 ! A26   A(7,8,13)             113.1248         calculate D2E/DX2 analytically  !
 ! A27   A(9,8,13)             122.7872         calculate D2E/DX2 analytically  !
 ! A28   A(8,9,10)             117.8285         calculate D2E/DX2 analytically  !
 ! A29   A(8,9,38)             120.0367         calculate D2E/DX2 analytically  !
 ! A30   A(10,9,38)            122.1348         calculate D2E/DX2 analytically  !
 ! A31   A(9,10,11)            119.7632         calculate D2E/DX2 analytically  !
 ! A32   A(9,10,39)            120.1868         calculate D2E/DX2 analytically  !
 ! A33   A(11,10,39)           120.0494         calculate D2E/DX2 analytically  !
 ! A34   A(10,11,12)           118.744          calculate D2E/DX2 analytically  !
 ! A35   A(10,11,17)           124.9081         calculate D2E/DX2 analytically  !
 ! A36   A(12,11,17)           116.3345         calculate D2E/DX2 analytically  !
 ! A37   A(11,12,13)           121.1867         calculate D2E/DX2 analytically  !
 ! A38   A(11,12,14)           118.4627         calculate D2E/DX2 analytically  !
 ! A39   A(13,12,14)           120.347          calculate D2E/DX2 analytically  !
 ! A40   A(8,13,12)            119.6826         calculate D2E/DX2 analytically  !
 ! A41   A(8,13,60)            111.958          calculate D2E/DX2 analytically  !
 ! A42   A(12,13,60)           127.4956         calculate D2E/DX2 analytically  !
 ! A43   A(12,14,15)           111.4596         calculate D2E/DX2 analytically  !
 ! A44   A(12,14,40)           109.8277         calculate D2E/DX2 analytically  !
 ! A45   A(12,14,41)           107.2193         calculate D2E/DX2 analytically  !
 ! A46   A(15,14,40)           111.5192         calculate D2E/DX2 analytically  !
 ! A47   A(15,14,41)           109.1546         calculate D2E/DX2 analytically  !
 ! A48   A(40,14,41)           107.4832         calculate D2E/DX2 analytically  !
 ! A49   A(14,15,16)           114.0825         calculate D2E/DX2 analytically  !
 ! A50   A(14,15,42)           108.3978         calculate D2E/DX2 analytically  !
 ! A51   A(14,15,43)           107.9738         calculate D2E/DX2 analytically  !
 ! A52   A(16,15,42)           109.3499         calculate D2E/DX2 analytically  !
 ! A53   A(16,15,43)           110.3676         calculate D2E/DX2 analytically  !
 ! A54   A(42,15,43)           106.3653         calculate D2E/DX2 analytically  !
 ! A55   A(15,16,17)           112.7578         calculate D2E/DX2 analytically  !
 ! A56   A(15,16,44)           109.6962         calculate D2E/DX2 analytically  !
 ! A57   A(15,16,45)           110.6557         calculate D2E/DX2 analytically  !
 ! A58   A(17,16,44)           107.7543         calculate D2E/DX2 analytically  !
 ! A59   A(17,16,45)           109.2102         calculate D2E/DX2 analytically  !
 ! A60   A(44,16,45)           106.5361         calculate D2E/DX2 analytically  !
 ! A61   A(11,17,16)           109.6742         calculate D2E/DX2 analytically  !
 ! A62   A(11,17,46)           109.2498         calculate D2E/DX2 analytically  !
 ! A63   A(11,17,47)           110.7705         calculate D2E/DX2 analytically  !
 ! A64   A(16,17,46)           109.2833         calculate D2E/DX2 analytically  !
 ! A65   A(16,17,47)           110.9677         calculate D2E/DX2 analytically  !
 ! A66   A(46,17,47)           106.8322         calculate D2E/DX2 analytically  !
 ! A67   A(7,18,19)            106.0114         calculate D2E/DX2 analytically  !
 ! A68   A(5,19,18)             99.7978         calculate D2E/DX2 analytically  !
 ! A69   A(5,19,20)            116.3822         calculate D2E/DX2 analytically  !
 ! A70   A(5,19,26)            110.014          calculate D2E/DX2 analytically  !
 ! A71   A(18,19,20)           105.1458         calculate D2E/DX2 analytically  !
 ! A72   A(18,19,26)           108.4956         calculate D2E/DX2 analytically  !
 ! A73   A(20,19,26)           115.3946         calculate D2E/DX2 analytically  !
 ! A74   A(19,20,21)           119.7005         calculate D2E/DX2 analytically  !
 ! A75   A(19,20,25)           121.4675         calculate D2E/DX2 analytically  !
 ! A76   A(21,20,25)           118.6866         calculate D2E/DX2 analytically  !
 ! A77   A(20,21,22)           120.2226         calculate D2E/DX2 analytically  !
 ! A78   A(20,21,48)           122.2369         calculate D2E/DX2 analytically  !
 ! A79   A(22,21,48)           117.5399         calculate D2E/DX2 analytically  !
 ! A80   A(21,22,23)           120.7042         calculate D2E/DX2 analytically  !
 ! A81   A(21,22,49)           118.8193         calculate D2E/DX2 analytically  !
 ! A82   A(23,22,49)           120.4761         calculate D2E/DX2 analytically  !
 ! A83   A(22,23,24)           119.3711         calculate D2E/DX2 analytically  !
 ! A84   A(22,23,50)           120.3426         calculate D2E/DX2 analytically  !
 ! A85   A(24,23,50)           120.285          calculate D2E/DX2 analytically  !
 ! A86   A(23,24,25)           120.1823         calculate D2E/DX2 analytically  !
 ! A87   A(23,24,51)           120.3535         calculate D2E/DX2 analytically  !
 ! A88   A(25,24,51)           119.4632         calculate D2E/DX2 analytically  !
 ! A89   A(20,25,24)           120.8068         calculate D2E/DX2 analytically  !
 ! A90   A(20,25,52)           120.1647         calculate D2E/DX2 analytically  !
 ! A91   A(24,25,52)           119.0272         calculate D2E/DX2 analytically  !
 ! A92   A(19,26,27)           119.1818         calculate D2E/DX2 analytically  !
 ! A93   A(19,26,31)           121.7518         calculate D2E/DX2 analytically  !
 ! A94   A(27,26,31)           118.9795         calculate D2E/DX2 analytically  !
 ! A95   A(26,27,28)           120.4935         calculate D2E/DX2 analytically  !
 ! A96   A(26,27,53)           119.6635         calculate D2E/DX2 analytically  !
 ! A97   A(28,27,53)           119.8426         calculate D2E/DX2 analytically  !
 ! A98   A(27,28,29)           120.2622         calculate D2E/DX2 analytically  !
 ! A99   A(27,28,54)           119.5156         calculate D2E/DX2 analytically  !
 ! A100  A(29,28,54)           120.2218         calculate D2E/DX2 analytically  !
 ! A101  A(28,29,30)           119.4645         calculate D2E/DX2 analytically  !
 ! A102  A(28,29,55)           120.2384         calculate D2E/DX2 analytically  !
 ! A103  A(30,29,55)           120.2969         calculate D2E/DX2 analytically  !
 ! A104  A(29,30,31)           120.388          calculate D2E/DX2 analytically  !
 ! A105  A(29,30,56)           120.1401         calculate D2E/DX2 analytically  !
 ! A106  A(31,30,56)           119.4719         calculate D2E/DX2 analytically  !
 ! A107  A(26,31,30)           120.4116         calculate D2E/DX2 analytically  !
 ! A108  A(26,31,57)           119.5203         calculate D2E/DX2 analytically  !
 ! A109  A(30,31,57)           120.0678         calculate D2E/DX2 analytically  !
 ! A110  A(4,32,33)            120.8244         calculate D2E/DX2 analytically  !
 ! A111  A(4,32,58)            119.5219         calculate D2E/DX2 analytically  !
 ! A112  A(33,32,58)           119.6525         calculate D2E/DX2 analytically  !
 ! A113  A(1,33,32)            119.8338         calculate D2E/DX2 analytically  !
 ! A114  A(1,33,59)            120.3643         calculate D2E/DX2 analytically  !
 ! A115  A(32,33,59)           119.7933         calculate D2E/DX2 analytically  !
 ! A116  A(6,60,13)             80.6217         calculate D2E/DX2 analytically  !
 ! A117  A(6,60,61)             90.2709         calculate D2E/DX2 analytically  !
 ! A118  A(6,60,62)            141.9823         calculate D2E/DX2 analytically  !
 ! A119  A(13,60,61)            98.0365         calculate D2E/DX2 analytically  !
 ! A120  A(13,60,62)           105.0442         calculate D2E/DX2 analytically  !
 ! A121  A(61,60,62)           124.9535         calculate D2E/DX2 analytically  !
 ! D1    D(33,1,2,3)             1.402          calculate D2E/DX2 analytically  !
 ! D2    D(33,1,2,35)         -178.3413         calculate D2E/DX2 analytically  !
 ! D3    D(34,1,2,3)          -179.727          calculate D2E/DX2 analytically  !
 ! D4    D(34,1,2,35)            0.5296         calculate D2E/DX2 analytically  !
 ! D5    D(2,1,33,32)           -0.6002         calculate D2E/DX2 analytically  !
 ! D6    D(2,1,33,59)          178.3317         calculate D2E/DX2 analytically  !
 ! D7    D(34,1,33,32)        -179.4726         calculate D2E/DX2 analytically  !
 ! D8    D(34,1,33,59)          -0.5407         calculate D2E/DX2 analytically  !
 ! D9    D(1,2,3,4)             -0.3216         calculate D2E/DX2 analytically  !
 ! D10   D(1,2,3,36)          -177.975          calculate D2E/DX2 analytically  !
 ! D11   D(35,2,3,4)           179.4245         calculate D2E/DX2 analytically  !
 ! D12   D(35,2,3,36)            1.7711         calculate D2E/DX2 analytically  !
 ! D13   D(2,3,4,5)            179.4636         calculate D2E/DX2 analytically  !
 ! D14   D(2,3,4,32)            -1.5363         calculate D2E/DX2 analytically  !
 ! D15   D(36,3,4,5)            -2.9138         calculate D2E/DX2 analytically  !
 ! D16   D(36,3,4,32)          176.0863         calculate D2E/DX2 analytically  !
 ! D17   D(3,4,5,6)             31.058          calculate D2E/DX2 analytically  !
 ! D18   D(3,4,5,19)           -91.653          calculate D2E/DX2 analytically  !
 ! D19   D(3,4,5,37)           149.2278         calculate D2E/DX2 analytically  !
 ! D20   D(32,4,5,6)          -147.9562         calculate D2E/DX2 analytically  !
 ! D21   D(32,4,5,19)           89.3328         calculate D2E/DX2 analytically  !
 ! D22   D(32,4,5,37)          -29.7864         calculate D2E/DX2 analytically  !
 ! D23   D(3,4,32,33)            2.3466         calculate D2E/DX2 analytically  !
 ! D24   D(3,4,32,58)         -177.2437         calculate D2E/DX2 analytically  !
 ! D25   D(5,4,32,33)         -178.5985         calculate D2E/DX2 analytically  !
 ! D26   D(5,4,32,58)            1.8111         calculate D2E/DX2 analytically  !
 ! D27   D(4,5,6,7)           -147.9784         calculate D2E/DX2 analytically  !
 ! D28   D(4,5,6,60)            10.0086         calculate D2E/DX2 analytically  !
 ! D29   D(19,5,6,7)           -17.4589         calculate D2E/DX2 analytically  !
 ! D30   D(19,5,6,60)          140.5282         calculate D2E/DX2 analytically  !
 ! D31   D(37,5,6,7)            93.2877         calculate D2E/DX2 analytically  !
 ! D32   D(37,5,6,60)         -108.7253         calculate D2E/DX2 analytically  !
 ! D33   D(4,5,19,18)          152.0192         calculate D2E/DX2 analytically  !
 ! D34   D(4,5,19,20)           39.5848         calculate D2E/DX2 analytically  !
 ! D35   D(4,5,19,26)          -94.0571         calculate D2E/DX2 analytically  !
 ! D36   D(6,5,19,18)           22.9037         calculate D2E/DX2 analytically  !
 ! D37   D(6,5,19,20)          -89.5307         calculate D2E/DX2 analytically  !
 ! D38   D(6,5,19,26)          136.8275         calculate D2E/DX2 analytically  !
 ! D39   D(37,5,19,18)         -88.1283         calculate D2E/DX2 analytically  !
 ! D40   D(37,5,19,20)         159.4373         calculate D2E/DX2 analytically  !
 ! D41   D(37,5,19,26)          25.7954         calculate D2E/DX2 analytically  !
 ! D42   D(5,6,7,8)           -179.1199         calculate D2E/DX2 analytically  !
 ! D43   D(5,6,7,18)             3.989          calculate D2E/DX2 analytically  !
 ! D44   D(60,6,7,8)            15.5518         calculate D2E/DX2 analytically  !
 ! D45   D(60,6,7,18)         -161.3393         calculate D2E/DX2 analytically  !
 ! D46   D(5,6,60,13)         -172.8873         calculate D2E/DX2 analytically  !
 ! D47   D(5,6,60,61)          -74.7863         calculate D2E/DX2 analytically  !
 ! D48   D(5,6,60,62)           84.6452         calculate D2E/DX2 analytically  !
 ! D49   D(7,6,60,13)          -15.2295         calculate D2E/DX2 analytically  !
 ! D50   D(7,6,60,61)           82.8716         calculate D2E/DX2 analytically  !
 ! D51   D(7,6,60,62)         -117.6969         calculate D2E/DX2 analytically  !
 ! D52   D(6,7,8,9)            175.9248         calculate D2E/DX2 analytically  !
 ! D53   D(6,7,8,13)            -4.4578         calculate D2E/DX2 analytically  !
 ! D54   D(18,7,8,9)            -7.2316         calculate D2E/DX2 analytically  !
 ! D55   D(18,7,8,13)          172.3857         calculate D2E/DX2 analytically  !
 ! D56   D(6,7,18,19)           12.5221         calculate D2E/DX2 analytically  !
 ! D57   D(8,7,18,19)         -164.4248         calculate D2E/DX2 analytically  !
 ! D58   D(7,8,9,10)          -179.7467         calculate D2E/DX2 analytically  !
 ! D59   D(7,8,9,38)             0.3151         calculate D2E/DX2 analytically  !
 ! D60   D(13,8,9,10)            0.6719         calculate D2E/DX2 analytically  !
 ! D61   D(13,8,9,38)         -179.2663         calculate D2E/DX2 analytically  !
 ! D62   D(7,8,13,12)         -179.51           calculate D2E/DX2 analytically  !
 ! D63   D(7,8,13,60)           -9.3659         calculate D2E/DX2 analytically  !
 ! D64   D(9,8,13,12)            0.113          calculate D2E/DX2 analytically  !
 ! D65   D(9,8,13,60)          170.2571         calculate D2E/DX2 analytically  !
 ! D66   D(8,9,10,11)           -0.8406         calculate D2E/DX2 analytically  !
 ! D67   D(8,9,10,39)          179.4229         calculate D2E/DX2 analytically  !
 ! D68   D(38,9,10,11)         179.0962         calculate D2E/DX2 analytically  !
 ! D69   D(38,9,10,39)          -0.6403         calculate D2E/DX2 analytically  !
 ! D70   D(9,10,11,12)           0.2728         calculate D2E/DX2 analytically  !
 ! D71   D(9,10,11,17)         178.8851         calculate D2E/DX2 analytically  !
 ! D72   D(39,10,11,12)       -179.9904         calculate D2E/DX2 analytically  !
 ! D73   D(39,10,11,17)         -1.378          calculate D2E/DX2 analytically  !
 ! D74   D(10,11,12,13)          0.5301         calculate D2E/DX2 analytically  !
 ! D75   D(10,11,12,14)       -178.784          calculate D2E/DX2 analytically  !
 ! D76   D(17,11,12,13)       -178.2002         calculate D2E/DX2 analytically  !
 ! D77   D(17,11,12,14)          2.4857         calculate D2E/DX2 analytically  !
 ! D78   D(10,11,17,16)       -130.8026         calculate D2E/DX2 analytically  !
 ! D79   D(10,11,17,46)        109.4392         calculate D2E/DX2 analytically  !
 ! D80   D(10,11,17,47)         -7.9792         calculate D2E/DX2 analytically  !
 ! D81   D(12,11,17,16)         47.8399         calculate D2E/DX2 analytically  !
 ! D82   D(12,11,17,46)        -71.9183         calculate D2E/DX2 analytically  !
 ! D83   D(12,11,17,47)        170.6633         calculate D2E/DX2 analytically  !
 ! D84   D(11,12,13,8)          -0.7239         calculate D2E/DX2 analytically  !
 ! D85   D(11,12,13,60)       -169.1815         calculate D2E/DX2 analytically  !
 ! D86   D(14,12,13,8)         178.5774         calculate D2E/DX2 analytically  !
 ! D87   D(14,12,13,60)         10.1198         calculate D2E/DX2 analytically  !
 ! D88   D(11,12,14,15)        -46.2769         calculate D2E/DX2 analytically  !
 ! D89   D(11,12,14,40)       -170.3819         calculate D2E/DX2 analytically  !
 ! D90   D(11,12,14,41)         73.1249         calculate D2E/DX2 analytically  !
 ! D91   D(13,12,14,15)        134.4031         calculate D2E/DX2 analytically  !
 ! D92   D(13,12,14,40)         10.2981         calculate D2E/DX2 analytically  !
 ! D93   D(13,12,14,41)       -106.1952         calculate D2E/DX2 analytically  !
 ! D94   D(8,13,60,6)           13.4452         calculate D2E/DX2 analytically  !
 ! D95   D(8,13,60,61)         -75.4959         calculate D2E/DX2 analytically  !
 ! D96   D(8,13,60,62)         154.9298         calculate D2E/DX2 analytically  !
 ! D97   D(12,13,60,6)        -177.3579         calculate D2E/DX2 analytically  !
 ! D98   D(12,13,60,61)         93.701          calculate D2E/DX2 analytically  !
 ! D99   D(12,13,60,62)        -35.8732         calculate D2E/DX2 analytically  !
 ! D100  D(12,14,15,16)         37.2174         calculate D2E/DX2 analytically  !
 ! D101  D(12,14,15,42)        -84.8649         calculate D2E/DX2 analytically  !
 ! D102  D(12,14,15,43)        160.2956         calculate D2E/DX2 analytically  !
 ! D103  D(40,14,15,16)        160.3626         calculate D2E/DX2 analytically  !
 ! D104  D(40,14,15,42)         38.2802         calculate D2E/DX2 analytically  !
 ! D105  D(40,14,15,43)        -76.5592         calculate D2E/DX2 analytically  !
 ! D106  D(41,14,15,16)        -81.0289         calculate D2E/DX2 analytically  !
 ! D107  D(41,14,15,42)        156.8887         calculate D2E/DX2 analytically  !
 ! D108  D(41,14,15,43)         42.0493         calculate D2E/DX2 analytically  !
 ! D109  D(14,15,16,17)         10.7806         calculate D2E/DX2 analytically  !
 ! D110  D(14,15,16,44)       -109.312          calculate D2E/DX2 analytically  !
 ! D111  D(14,15,16,45)        133.4281         calculate D2E/DX2 analytically  !
 ! D112  D(42,15,16,17)        132.3384         calculate D2E/DX2 analytically  !
 ! D113  D(42,15,16,44)         12.2457         calculate D2E/DX2 analytically  !
 ! D114  D(42,15,16,45)       -105.0141         calculate D2E/DX2 analytically  !
 ! D115  D(43,15,16,17)       -110.9872         calculate D2E/DX2 analytically  !
 ! D116  D(43,15,16,44)        128.9202         calculate D2E/DX2 analytically  !
 ! D117  D(43,15,16,45)         11.6603         calculate D2E/DX2 analytically  !
 ! D118  D(15,16,17,11)        -53.1811         calculate D2E/DX2 analytically  !
 ! D119  D(15,16,17,46)         66.5567         calculate D2E/DX2 analytically  !
 ! D120  D(15,16,17,47)       -175.8876         calculate D2E/DX2 analytically  !
 ! D121  D(44,16,17,11)         68.0225         calculate D2E/DX2 analytically  !
 ! D122  D(44,16,17,46)       -172.2397         calculate D2E/DX2 analytically  !
 ! D123  D(44,16,17,47)        -54.684          calculate D2E/DX2 analytically  !
 ! D124  D(45,16,17,11)       -176.6343         calculate D2E/DX2 analytically  !
 ! D125  D(45,16,17,46)        -56.8965         calculate D2E/DX2 analytically  !
 ! D126  D(45,16,17,47)         60.6592         calculate D2E/DX2 analytically  !
 ! D127  D(7,18,19,5)          -21.2359         calculate D2E/DX2 analytically  !
 ! D128  D(7,18,19,20)          99.6884         calculate D2E/DX2 analytically  !
 ! D129  D(7,18,19,26)        -136.3232         calculate D2E/DX2 analytically  !
 ! D130  D(5,19,20,21)          46.1841         calculate D2E/DX2 analytically  !
 ! D131  D(5,19,20,25)        -138.2558         calculate D2E/DX2 analytically  !
 ! D132  D(18,19,20,21)        -63.1486         calculate D2E/DX2 analytically  !
 ! D133  D(18,19,20,25)        112.4116         calculate D2E/DX2 analytically  !
 ! D134  D(26,19,20,21)        177.3599         calculate D2E/DX2 analytically  !
 ! D135  D(26,19,20,25)         -7.08           calculate D2E/DX2 analytically  !
 ! D136  D(5,19,26,27)          73.6951         calculate D2E/DX2 analytically  !
 ! D137  D(5,19,26,31)        -102.8805         calculate D2E/DX2 analytically  !
 ! D138  D(18,19,26,27)       -178.0758         calculate D2E/DX2 analytically  !
 ! D139  D(18,19,26,31)          5.3486         calculate D2E/DX2 analytically  !
 ! D140  D(20,19,26,27)        -60.445          calculate D2E/DX2 analytically  !
 ! D141  D(20,19,26,31)        122.9794         calculate D2E/DX2 analytically  !
 ! D142  D(19,20,21,22)        177.3992         calculate D2E/DX2 analytically  !
 ! D143  D(19,20,21,48)         -2.8999         calculate D2E/DX2 analytically  !
 ! D144  D(25,20,21,22)          1.7157         calculate D2E/DX2 analytically  !
 ! D145  D(25,20,21,48)       -178.5834         calculate D2E/DX2 analytically  !
 ! D146  D(19,20,25,24)       -177.3721         calculate D2E/DX2 analytically  !
 ! D147  D(19,20,25,52)          2.225          calculate D2E/DX2 analytically  !
 ! D148  D(21,20,25,24)         -1.7682         calculate D2E/DX2 analytically  !
 ! D149  D(21,20,25,52)        177.829          calculate D2E/DX2 analytically  !
 ! D150  D(20,21,22,23)         -0.5215         calculate D2E/DX2 analytically  !
 ! D151  D(20,21,22,49)        179.2785         calculate D2E/DX2 analytically  !
 ! D152  D(48,21,22,23)        179.7638         calculate D2E/DX2 analytically  !
 ! D153  D(48,21,22,49)         -0.4362         calculate D2E/DX2 analytically  !
 ! D154  D(21,22,23,24)         -0.6552         calculate D2E/DX2 analytically  !
 ! D155  D(21,22,23,50)        179.7496         calculate D2E/DX2 analytically  !
 ! D156  D(49,22,23,24)        179.5481         calculate D2E/DX2 analytically  !
 ! D157  D(49,22,23,50)         -0.0471         calculate D2E/DX2 analytically  !
 ! D158  D(22,23,24,25)          0.6098         calculate D2E/DX2 analytically  !
 ! D159  D(22,23,24,51)       -179.0115         calculate D2E/DX2 analytically  !
 ! D160  D(50,23,24,25)       -179.7947         calculate D2E/DX2 analytically  !
 ! D161  D(50,23,24,51)          0.5839         calculate D2E/DX2 analytically  !
 ! D162  D(23,24,25,20)          0.6162         calculate D2E/DX2 analytically  !
 ! D163  D(23,24,25,52)       -178.9854         calculate D2E/DX2 analytically  !
 ! D164  D(51,24,25,20)       -179.7591         calculate D2E/DX2 analytically  !
 ! D165  D(51,24,25,52)          0.6393         calculate D2E/DX2 analytically  !
 ! D166  D(19,26,27,28)       -176.5176         calculate D2E/DX2 analytically  !
 ! D167  D(19,26,27,53)          3.7257         calculate D2E/DX2 analytically  !
 ! D168  D(31,26,27,28)          0.1538         calculate D2E/DX2 analytically  !
 ! D169  D(31,26,27,53)       -179.6029         calculate D2E/DX2 analytically  !
 ! D170  D(19,26,31,30)        176.6223         calculate D2E/DX2 analytically  !
 ! D171  D(19,26,31,57)         -3.546          calculate D2E/DX2 analytically  !
 ! D172  D(27,26,31,30)          0.04           calculate D2E/DX2 analytically  !
 ! D173  D(27,26,31,57)        179.8717         calculate D2E/DX2 analytically  !
 ! D174  D(26,27,28,29)         -0.1746         calculate D2E/DX2 analytically  !
 ! D175  D(26,27,28,54)       -179.9407         calculate D2E/DX2 analytically  !
 ! D176  D(53,27,28,29)        179.5817         calculate D2E/DX2 analytically  !
 ! D177  D(53,27,28,54)         -0.1843         calculate D2E/DX2 analytically  !
 ! D178  D(27,28,29,30)         -0.0003         calculate D2E/DX2 analytically  !
 ! D179  D(27,28,29,55)       -179.8636         calculate D2E/DX2 analytically  !
 ! D180  D(54,28,29,30)        179.7641         calculate D2E/DX2 analytically  !
 ! D181  D(54,28,29,55)         -0.0992         calculate D2E/DX2 analytically  !
 ! D182  D(28,29,30,31)          0.1941         calculate D2E/DX2 analytically  !
 ! D183  D(28,29,30,56)       -179.7795         calculate D2E/DX2 analytically  !
 ! D184  D(55,29,30,31)       -179.9426         calculate D2E/DX2 analytically  !
 ! D185  D(55,29,30,56)          0.0837         calculate D2E/DX2 analytically  !
 ! D186  D(29,30,31,26)         -0.2148         calculate D2E/DX2 analytically  !
 ! D187  D(29,30,31,57)        179.9544         calculate D2E/DX2 analytically  !
 ! D188  D(56,30,31,26)        179.759          calculate D2E/DX2 analytically  !
 ! D189  D(56,30,31,57)         -0.0718         calculate D2E/DX2 analytically  !
 ! D190  D(4,32,33,1)           -1.2794         calculate D2E/DX2 analytically  !
 ! D191  D(4,32,33,59)         179.7825         calculate D2E/DX2 analytically  !
 ! D192  D(58,32,33,1)         178.3104         calculate D2E/DX2 analytically  !
 ! D193  D(58,32,33,59)         -0.6277         calculate D2E/DX2 analytically  !
 --------------------------------------------------------------------------------
 Trust Radius=3.00D-01 FncErr=1.00D-07 GrdErr=1.00D-07 EigMax=2.50D+02 EigMin=1.00D-04
 Number of steps in this run=      2 maximum allowed number of steps=      2.
 GradGradGradGradGradGradGradGradGradGradGradGradGradGradGradGradGradGrad

 Stoichiometry    C30H26F2N2NiO(3)
 Framework group  C1[X(C30H26F2N2NiO)]
 Deg. of freedom   180
 Full point group                 C1      NOp   1
 Largest Abelian subgroup         C1      NOp   1
 Largest concise Abelian subgroup C1      NOp   1
                         Standard orientation:                         
 ---------------------------------------------------------------------
 Center     Atomic      Atomic             Coordinates (Angstroms)
 Number     Number       Type             X           Y           Z
 ---------------------------------------------------------------------
      1          6           0        3.425062    4.063129   -0.576343
      2          6           0        2.265190    3.840577    0.165205
      3          6           0        1.574829    2.631146    0.070253
      4          6           0        2.047131    1.627556   -0.785754
      5          6           0        1.369233    0.287107   -0.939969
      6          7           0       -0.092230    0.279954   -0.760198
      7          6           0       -0.407624   -0.860215   -0.257544
      8          6           0       -1.799997   -1.213700    0.034132
      9          6           0       -2.205502   -2.455625    0.499458
     10          6           0       -3.570296   -2.652547    0.729606
     11          6           0       -4.464713   -1.612199    0.506981
     12          6           0       -3.965159   -0.373671    0.043996
     13          7           0       -2.663826   -0.197399   -0.188744
     14          6           0       -4.931882    0.752605   -0.167611
     15          6           0       -6.191115    0.281578   -0.936730
     16          6           0       -6.668333   -1.147291   -0.556999
     17          6           0       -5.953390   -1.703098    0.693107
     18          8           0        0.574051   -1.707374    0.057538
     19          6           0        1.845242   -0.909719   -0.003801
     20          6           0        2.161492   -0.552735    1.443455
     21          6           0        1.273248    0.258865    2.170814
     22          6           0        1.523879    0.547375    3.509622
     23          6           0        2.649796    0.029344    4.151650
     24          6           0        3.520831   -0.795378    3.443817
     25          6           0        3.274400   -1.088827    2.101876
     26          6           0        2.895944   -1.735151   -0.712787
     27          6           0        4.190853   -1.215438   -0.858154
     28          6           0        5.159695   -1.920172   -1.568821
     29          6           0        4.852251   -3.155581   -2.141990
     30          6           0        3.568317   -3.677881   -1.997336
     31          6           0        2.594208   -2.971663   -1.288933
     32          6           0        3.191359    1.871118   -1.558230
     33          6           0        3.885348    3.074362   -1.446724
     34          1           0        3.957143    5.006636   -0.491524
     35          1           0        1.883654    4.614460    0.825352
     36          1           0        0.655377    2.494490    0.633196
     37          1           0        1.550602   -0.049851   -1.967799
     38          1           0       -1.473189   -3.235081    0.673930
     39          1           0       -3.931290   -3.613731    1.085370
     40          1           0       -4.432563    1.578294   -0.682766
     41          1           0       -5.231149    1.116098    0.826728
     42          1           0       -5.974934    0.318719   -2.009166
     43          1           0       -6.988266    1.009558   -0.757489
     44          1           0       -6.472418   -1.835034   -1.387483
     45          1           0       -7.750201   -1.161339   -0.389358
     46          1           0       -6.245716   -1.110541    1.572187
     47          1           0       -6.257577   -2.736195    0.891636
     48          1           0        0.380564    0.685643    1.723917
     49          1           0        0.828855    1.186394    4.046500
     50          1           0        2.841851    0.261606    5.195609
     51          1           0        4.393348   -1.220233    3.932232
     52          1           0        3.954746   -1.745397    1.574099
     53          1           0        4.438932   -0.259821   -0.410077
     54          1           0        6.157595   -1.503337   -1.670695
     55          1           0        5.608607   -3.705779   -2.694154
     56          1           0        3.318173   -4.639843   -2.435740
     57          1           0        1.597673   -3.382164   -1.180320
     58          1           0        3.536636    1.114211   -2.257036
     59          1           0        4.772196    3.244044   -2.050962
     60         28           0       -1.680121    1.587267   -0.565046
     61          9           0       -1.159891    1.972005    1.183891
     62          9           0       -2.844227    2.568283   -1.538345
 ---------------------------------------------------------------------
 Rotational constants (GHZ):           0.1619907           0.0748178           0.0661516
 Basis read from chk: "Lig2120_xyz_2.chk" (6D, 7F)
 Pseudo-potential data read from chk file.
 There are   654 symmetry adapted cartesian basis functions of A   symmetry.
 There are   651 symmetry adapted basis functions of A   symmetry.
   651 basis functions,  1238 primitive gaussians,   654 cartesian basis functions
   133 alpha electrons      131 beta electrons
       nuclear repulsion energy      4220.6209576745 Hartrees.
 NAtoms=   62 NActive=   62 NUniq=   62 SFac= 1.00D+00 NAtFMM=   60 NAOKFM=T Big=T
 Integral buffers will be    131072 words long.
 Raffenetti 2 integral format.
 Two-electron integral symmetry is turned on.
 Nuclear repulsion after empirical dispersion term =     4220.4544280700 Hartrees.
 One-electron integrals computed using PRISM.
 PrsmSu:  requested number of processors reduced to:  12 ShMem   1 Linda.
   1 Symmetry operations used in ECPInt.
 ECPInt:  NShTT=   22791 NPrTT=  142008 LenC2=   18078 LenP2D=   59381.
 LDataN:  DoStor=T MaxTD1= 6 Len=  172
 Number of processors reduced to  11 by ecpmxn.
 NBasis=   651 RedAO= T EigKep=  1.02D-06  NBF=   651
 NBsUse=   651 1.00D-06 EigRej= -1.00D+00 NBFU=   651
 Initial guess from the checkpoint file:  "Lig2120_xyz_2.chk"
 B after Tr=     0.000000   -0.000000    0.000000
         Rot=    1.000000   -0.000000   -0.000000    0.000000 Ang=   0.00 deg.
 Initial guess <Sx>= 0.0000 <Sy>= 0.0000 <Sz>= 1.0000 <S**2>= 2.0054 S= 1.0018
 Requested convergence on RMS density matrix=1.00D-08 within 128 cycles.
 Requested convergence on MAX density matrix=1.00D-06.
 Requested convergence on             energy=1.00D-06.
 No special actions if energy rises.
 SCF Done:  E(UB3LYP) =  -1712.90318031     A.U. after    2 cycles
            NFock=  2  Conv=0.24D-09     -V/T= 2.0467
 <Sx>= 0.0000 <Sy>= 0.0000 <Sz>= 1.0000 <S**2>= 2.0054 S= 1.0018
 <L.S>=  0.00000000000    
 Annihilation of the first spin contaminant:
 S**2 before annihilation     2.0054,   after     2.0000
 DoSCS=F DFT=T ScalE2(SS,OS)=  1.000000  1.000000
 Range of M.O.s used for correlation:     1   651
 NBasis=   651 NAE=   133 NBE=   131 NFC=     0 NFV=     0
 NROrb=    651 NOA=   133 NOB=   131 NVA=   518 NVB=   520

 **** Warning!!: The largest alpha MO coefficient is  0.18313268D+03


 **** Warning!!: The largest beta MO coefficient is  0.18666752D+03

 PrsmSu:  requested number of processors reduced to:  10 ShMem   1 Linda.
 PrsmSu:  requested number of processors reduced to:   2 ShMem   1 Linda.
   1 Symmetry operations used in ECPInt.
 ECPInt:  NShTT=   22791 NPrTT=  142008 LenC2=   18078 LenP2D=   59381.
 LDataN:  DoStor=T MaxTD1= 7 Len=  274
 Number of processors reduced to   1 by ecpmxn.
 Symmetrizing basis deriv contribution to polar:
 IMax=3 JMax=2 DiffMx= 0.00D+00
 G2DrvN: will do     1 centers at a time, making   63 passes.
 Estimated number of processors is:   15
 Calling FoFCou, ICntrl=  3107 FMM=T I1Cent=   0 AccDes= 0.00D+00.
 Calling FoFCou, ICntrl=  3107 FMM=T I1Cent=   0 AccDes= 0.00D+00.
 CoulSu:  requested number of processors reduced to:  15 ShMem   1 Linda.
 Calling FoFCou, ICntrl=  3107 FMM=T I1Cent=   0 AccDes= 0.00D+00.
 CoulSu:  requested number of processors reduced to:  15 ShMem   1 Linda.
 Calling FoFCou, ICntrl=  3107 FMM=T I1Cent=   0 AccDes= 0.00D+00.
 CoulSu:  requested number of processors reduced to:  15 ShMem   1 Linda.
 Calling FoFCou, ICntrl=  3107 FMM=T I1Cent=   0 AccDes= 0.00D+00.
 CoulSu:  requested number of processors reduced to:  15 ShMem   1 Linda.
 Calling FoFCou, ICntrl=  3107 FMM=T I1Cent=   0 AccDes= 0.00D+00.
 CoulSu:  requested number of processors reduced to:  15 ShMem   1 Linda.
 Calling FoFCou, ICntrl=  3107 FMM=T I1Cent=   0 AccDes= 0.00D+00.
 CoulSu:  requested number of processors reduced to:  15 ShMem   1 Linda.
 Calling FoFCou, ICntrl=  3107 FMM=T I1Cent=   0 AccDes= 0.00D+00.
 CoulSu:  requested number of processors reduced to:  15 ShMem   1 Linda.
 Calling FoFCou, ICntrl=  3107 FMM=T I1Cent=   0 AccDes= 0.00D+00.
 CoulSu:  requested number of processors reduced to:  15 ShMem   1 Linda.
 Calling FoFCou, ICntrl=  3107 FMM=T I1Cent=   0 AccDes= 0.00D+00.
 CoulSu:  requested number of processors reduced to:  15 ShMem   1 Linda.
 Calling FoFCou, ICntrl=  3107 FMM=T I1Cent=   0 AccDes= 0.00D+00.
 CoulSu:  requested number of processors reduced to:  15 ShMem   1 Linda.
 Calling FoFCou, ICntrl=  3107 FMM=T I1Cent=   0 AccDes= 0.00D+00.
 CoulSu:  requested number of processors reduced to:  15 ShMem   1 Linda.
 Calling FoFCou, ICntrl=  3107 FMM=T I1Cent=   0 AccDes= 0.00D+00.
 CoulSu:  requested number of processors reduced to:  15 ShMem   1 Linda.
 Calling FoFCou, ICntrl=  3107 FMM=T I1Cent=   0 AccDes= 0.00D+00.
 CoulSu:  requested number of processors reduced to:  15 ShMem   1 Linda.
 Calling FoFCou, ICntrl=  3107 FMM=T I1Cent=   0 AccDes= 0.00D+00.
 CoulSu:  requested number of processors reduced to:  15 ShMem   1 Linda.
 Calling FoFCou, ICntrl=  3107 FMM=T I1Cent=   0 AccDes= 0.00D+00.
 CoulSu:  requested number of processors reduced to:  15 ShMem   1 Linda.
 Calling FoFCou, ICntrl=  3107 FMM=T I1Cent=   0 AccDes= 0.00D+00.
 CoulSu:  requested number of processors reduced to:  15 ShMem   1 Linda.
 Calling FoFCou, ICntrl=  3107 FMM=T I1Cent=   0 AccDes= 0.00D+00.
 CoulSu:  requested number of processors reduced to:  15 ShMem   1 Linda.
 Calling FoFCou, ICntrl=  3107 FMM=T I1Cent=   0 AccDes= 0.00D+00.
 CoulSu:  requested number of processors reduced to:  15 ShMem   1 Linda.
 Calling FoFCou, ICntrl=  3107 FMM=T I1Cent=   0 AccDes= 0.00D+00.
 CoulSu:  requested number of processors reduced to:  15 ShMem   1 Linda.
 Calling FoFCou, ICntrl=  3107 FMM=T I1Cent=   0 AccDes= 0.00D+00.
 CoulSu:  requested number of processors reduced to:  15 ShMem   1 Linda.
 Calling FoFCou, ICntrl=  3107 FMM=T I1Cent=   0 AccDes= 0.00D+00.
 CoulSu:  requested number of processors reduced to:  15 ShMem   1 Linda.
 Calling FoFCou, ICntrl=  3107 FMM=T I1Cent=   0 AccDes= 0.00D+00.
 CoulSu:  requested number of processors reduced to:  15 ShMem   1 Linda.
 Calling FoFCou, ICntrl=  3107 FMM=T I1Cent=   0 AccDes= 0.00D+00.
 CoulSu:  requested number of processors reduced to:  15 ShMem   1 Linda.
 Calling FoFCou, ICntrl=  3107 FMM=T I1Cent=   0 AccDes= 0.00D+00.
 CoulSu:  requested number of processors reduced to:  15 ShMem   1 Linda.
 Calling FoFCou, ICntrl=  3107 FMM=T I1Cent=   0 AccDes= 0.00D+00.
 CoulSu:  requested number of processors reduced to:  15 ShMem   1 Linda.
 Calling FoFCou, ICntrl=  3107 FMM=T I1Cent=   0 AccDes= 0.00D+00.
 CoulSu:  requested number of processors reduced to:  15 ShMem   1 Linda.
 Calling FoFCou, ICntrl=  3107 FMM=T I1Cent=   0 AccDes= 0.00D+00.
 CoulSu:  requested number of processors reduced to:  15 ShMem   1 Linda.
 Calling FoFCou, ICntrl=  3107 FMM=T I1Cent=   0 AccDes= 0.00D+00.
 CoulSu:  requested number of processors reduced to:  15 ShMem   1 Linda.
 Calling FoFCou, ICntrl=  3107 FMM=T I1Cent=   0 AccDes= 0.00D+00.
 CoulSu:  requested number of processors reduced to:  15 ShMem   1 Linda.
 Calling FoFCou, ICntrl=  3107 FMM=T I1Cent=   0 AccDes= 0.00D+00.
 CoulSu:  requested number of processors reduced to:  15 ShMem   1 Linda.
 Calling FoFCou, ICntrl=  3107 FMM=T I1Cent=   0 AccDes= 0.00D+00.
 CoulSu:  requested number of processors reduced to:  15 ShMem   1 Linda.
 Calling FoFCou, ICntrl=  3107 FMM=T I1Cent=   0 AccDes= 0.00D+00.
 CoulSu:  requested number of processors reduced to:  15 ShMem   1 Linda.
 Calling FoFCou, ICntrl=  3107 FMM=T I1Cent=   0 AccDes= 0.00D+00.
 CoulSu:  requested number of processors reduced to:  15 ShMem   1 Linda.
 Calling FoFCou, ICntrl=  3107 FMM=T I1Cent=   0 AccDes= 0.00D+00.
 CoulSu:  requested number of processors reduced to:  15 ShMem   1 Linda.
 Calling FoFCou, ICntrl=  3107 FMM=T I1Cent=   0 AccDes= 0.00D+00.
 CoulSu:  requested number of processors reduced to:  15 ShMem   1 Linda.
 Calling FoFCou, ICntrl=  3107 FMM=T I1Cent=   0 AccDes= 0.00D+00.
 CoulSu:  requested number of processors reduced to:  15 ShMem   1 Linda.
 Calling FoFCou, ICntrl=  3107 FMM=T I1Cent=   0 AccDes= 0.00D+00.
 CoulSu:  requested number of processors reduced to:  15 ShMem   1 Linda.
 Calling FoFCou, ICntrl=  3107 FMM=T I1Cent=   0 AccDes= 0.00D+00.
 CoulSu:  requested number of processors reduced to:  15 ShMem   1 Linda.
 Calling FoFCou, ICntrl=  3107 FMM=T I1Cent=   0 AccDes= 0.00D+00.
 CoulSu:  requested number of processors reduced to:  15 ShMem   1 Linda.
 Calling FoFCou, ICntrl=  3107 FMM=T I1Cent=   0 AccDes= 0.00D+00.
 CoulSu:  requested number of processors reduced to:  15 ShMem   1 Linda.
 Calling FoFCou, ICntrl=  3107 FMM=T I1Cent=   0 AccDes= 0.00D+00.
 CoulSu:  requested number of processors reduced to:  15 ShMem   1 Linda.
 Calling FoFCou, ICntrl=  3107 FMM=T I1Cent=   0 AccDes= 0.00D+00.
 CoulSu:  requested number of processors reduced to:  15 ShMem   1 Linda.
 Calling FoFCou, ICntrl=  3107 FMM=T I1Cent=   0 AccDes= 0.00D+00.
 CoulSu:  requested number of processors reduced to:  15 ShMem   1 Linda.
 Calling FoFCou, ICntrl=  3107 FMM=T I1Cent=   0 AccDes= 0.00D+00.
 CoulSu:  requested number of processors reduced to:  15 ShMem   1 Linda.
 Calling FoFCou, ICntrl=  3107 FMM=T I1Cent=   0 AccDes= 0.00D+00.
 CoulSu:  requested number of processors reduced to:  15 ShMem   1 Linda.
 Calling FoFCou, ICntrl=  3107 FMM=T I1Cent=   0 AccDes= 0.00D+00.
 CoulSu:  requested number of processors reduced to:  15 ShMem   1 Linda.
 Calling FoFCou, ICntrl=  3107 FMM=T I1Cent=   0 AccDes= 0.00D+00.
 CoulSu:  requested number of processors reduced to:  15 ShMem   1 Linda.
 Calling FoFCou, ICntrl=  3107 FMM=T I1Cent=   0 AccDes= 0.00D+00.
 CoulSu:  requested number of processors reduced to:  15 ShMem   1 Linda.
 Calling FoFCou, ICntrl=  3107 FMM=T I1Cent=   0 AccDes= 0.00D+00.
 CoulSu:  requested number of processors reduced to:  15 ShMem   1 Linda.
 Calling FoFCou, ICntrl=  3107 FMM=T I1Cent=   0 AccDes= 0.00D+00.
 CoulSu:  requested number of processors reduced to:  15 ShMem   1 Linda.
 Calling FoFCou, ICntrl=  3107 FMM=T I1Cent=   0 AccDes= 0.00D+00.
 CoulSu:  requested number of processors reduced to:  15 ShMem   1 Linda.
 Calling FoFCou, ICntrl=  3107 FMM=T I1Cent=   0 AccDes= 0.00D+00.
 CoulSu:  requested number of processors reduced to:  15 ShMem   1 Linda.
 Calling FoFCou, ICntrl=  3107 FMM=T I1Cent=   0 AccDes= 0.00D+00.
 CoulSu:  requested number of processors reduced to:  15 ShMem   1 Linda.
 Calling FoFCou, ICntrl=  3107 FMM=T I1Cent=   0 AccDes= 0.00D+00.
 CoulSu:  requested number of processors reduced to:  15 ShMem   1 Linda.
 Calling FoFCou, ICntrl=  3107 FMM=T I1Cent=   0 AccDes= 0.00D+00.
 CoulSu:  requested number of processors reduced to:  15 ShMem   1 Linda.
 Calling FoFCou, ICntrl=  3107 FMM=T I1Cent=   0 AccDes= 0.00D+00.
 CoulSu:  requested number of processors reduced to:  15 ShMem   1 Linda.
 Calling FoFCou, ICntrl=  3107 FMM=T I1Cent=   0 AccDes= 0.00D+00.
 CoulSu:  requested number of processors reduced to:  15 ShMem   1 Linda.
 Calling FoFCou, ICntrl=  3107 FMM=T I1Cent=   0 AccDes= 0.00D+00.
 CoulSu:  requested number of processors reduced to:  15 ShMem   1 Linda.
 Calling FoFCou, ICntrl=  3107 FMM=T I1Cent=   0 AccDes= 0.00D+00.
 CoulSu:  requested number of processors reduced to:  15 ShMem   1 Linda.
 Calling FoFCou, ICntrl=  3107 FMM=T I1Cent=   0 AccDes= 0.00D+00.
 CoulSu:  requested number of processors reduced to:  15 ShMem   1 Linda.
 Calling FoFCou, ICntrl=  3107 FMM=T I1Cent=   0 AccDes= 0.00D+00.
 CoulSu:  requested number of processors reduced to:  15 ShMem   1 Linda.
 Calling FoFCou, ICntrl=  3107 FMM=T I1Cent=   0 AccDes= 0.00D+00.
 CoulSu:  requested number of processors reduced to:  15 ShMem   1 Linda.
 End of G2Drv F.D. properties file   721 does not exist.
 End of G2Drv F.D. properties file   722 does not exist.
 End of G2Drv F.D. properties file   788 does not exist.
          IDoAtm=11111111111111111111111111111111111111111111111111
          IDoAtm=111111111111
          Differentiating once with respect to electric field.
                with respect to dipole field.
          Differentiating once with respect to nuclear coordinates.
 CalDSu exits because no D1Ps are significant.
          There are   189 degrees of freedom in the 1st order CPHF.  IDoFFX=6 NUNeed=     3.
    189 vectors produced by pass  0 Test12= 1.37D-13 1.00D-09 XBig12= 8.96D+02 7.28D+00.
 AX will form     3 AO Fock derivatives at one time.
    189 vectors produced by pass  1 Test12= 1.37D-13 1.00D-09 XBig12= 1.85D+02 1.36D+00.
