 Entering Gaussian System, Link 0=g16
 Input=Lig2224_xyz_4.com
 Output=Lig2224_xyz_4.log
 Initial command:
 /uufs/chpc.utah.edu/sys/installdir/gaussian16/C01/AVX/g16/l1.exe "/scratch/general/vast/u1365460/GAUSSSCRDIR/11267761-notchpeak.peaks/Gau-778096.inp" -scrdir="/scratch/general/vast/u1365460/GAUSSSCRDIR/11267761-notchpeak.peaks/"
 Entering Link 1 = /uufs/chpc.utah.edu/sys/installdir/gaussian16/C01/AVX/g16/l1.exe PID=    778097.
  
 Copyright (c) 1988-2019, Gaussian, Inc.  All Rights Reserved.
  
 This is part of the Gaussian(R) 16 program.  It is based on
 the Gaussian(R) 09 system (copyright 2009, Gaussian, Inc.),
 the Gaussian(R) 03 system (copyright 2003, Gaussian, Inc.),
 the Gaussian(R) 98 system (copyright 1998, Gaussian, Inc.),
 the Gaussian(R) 94 system (copyright 1995, Gaussian, Inc.),
 the Gaussian 92(TM) system (copyright 1992, Gaussian, Inc.),
 the Gaussian 90(TM) system (copyright 1990, Gaussian, Inc.),
 the Gaussian 88(TM) system (copyright 1988, Gaussian, Inc.),
 the Gaussian 86(TM) system (copyright 1986, Carnegie Mellon
 University), and the Gaussian 82(TM) system (copyright 1983,
 Carnegie Mellon University). Gaussian is a federally registered
 trademark of Gaussian, Inc.
  
 This software contains proprietary and confidential information,
 including trade secrets, belonging to Gaussian, Inc.
  
 This software is provided under written license and may be
 used, copied, transmitted, or stored only in accord with that
 written license.
  
 The following legend is applicable only to US Government
 contracts under FAR:
  
                    RESTRICTED RIGHTS LEGEND
  
 Use, reproduction and disclosure by the US Government is
 subject to restrictions as set forth in subparagraphs (a)
 and (c) of the Commercial Computer Software - Restricted
 Rights clause in FAR 52.227-19.
  
 Gaussian, Inc.
 340 Quinnipiac St., Bldg. 40, Wallingford CT 06492
  
  
 ---------------------------------------------------------------
 Warning -- This program may not be used in any manner that
 competes with the business of Gaussian, Inc. or will provide
 assistance to any competitor of Gaussian, Inc.  The licensee
 of this program is prohibited from giving any competitor of
 Gaussian, Inc. access to this program.  By using this program,
 the user acknowledges that Gaussian, Inc. is engaged in the
 business of creating and licensing software in the field of
 computational chemistry and represents and warrants to the
 licensee that it is not a competitor of Gaussian, Inc. and that
 it will not use this program in any manner prohibited above.
 ---------------------------------------------------------------
  

 Cite this work as:
 Gaussian 16, Revision C.01,
 M. J. Frisch, G. W. Trucks, H. B. Schlegel, G. E. Scuseria, 
 M. A. Robb, J. R. Cheeseman, G. Scalmani, V. Barone, 
 G. A. Petersson, H. Nakatsuji, X. Li, M. Caricato, A. V. Marenich, 
 J. Bloino, B. G. Janesko, R. Gomperts, B. Mennucci, H. P. Hratchian, 
 J. V. Ortiz, A. F. Izmaylov, J. L. Sonnenberg, D. Williams-Young, 
 F. Ding, F. Lipparini, F. Egidi, J. Goings, B. Peng, A. Petrone, 
 T. Henderson, D. Ranasinghe, V. G. Zakrzewski, J. Gao, N. Rega, 
 G. Zheng, W. Liang, M. Hada, M. Ehara, K. Toyota, R. Fukuda, 
 J. Hasegawa, M. Ishida, T. Nakajima, Y. Honda, O. Kitao, H. Nakai, 
 T. Vreven, K. Throssell, J. A. Montgomery, Jr., J. E. Peralta, 
 F. Ogliaro, M. J. Bearpark, J. J. Heyd, E. N. Brothers, K. N. Kudin, 
 V. N. Staroverov, T. A. Keith, R. Kobayashi, J. Normand, 
 K. Raghavachari, A. P. Rendell, J. C. Burant, S. S. Iyengar, 
 J. Tomasi, M. Cossi, J. M. Millam, M. Klene, C. Adamo, R. Cammi, 
 J. W. Ochterski, R. L. Martin, K. Morokuma, O. Farkas, 
 J. B. Foresman, and D. J. Fox, Gaussian, Inc., Wallingford CT, 2019.
 
 ******************************************
 Gaussian 16:  ES64L-G16RevC.01  3-Jul-2019
                 6-Mar-2026 
 ******************************************
 %NProcShared=16
 Will use up to   16 processors via shared memory.
 %chk=Lig2224_xyz_4.chk
 ----------------------------------------------------------------------
 # B3LYP gen 6D pseudo=read int=(grid=fine) empiricaldispersion=GD3BJ o
 pt freq=noraman
 ----------------------------------------------------------------------
 1/18=20,19=15,26=3,38=1/1,3;
 2/9=110,12=2,17=6,18=5,40=1/2;
 3/5=7,8=2,11=2,16=1,17=8,25=1,30=1,71=1,74=-5,75=-4,124=41/1,2,3;
 4//1;
 5/5=2,38=5/2;
 6/7=2,8=2,9=2,10=2,28=1/1;
 7//1,2,3,16;
 1/18=20,19=15,26=3/3(2);
 2/9=110/2;
 99//99;
 2/9=110/2;
 3/5=7,6=1,8=2,11=2,16=1,17=8,25=1,30=1,71=1,74=-5,75=-4,82=7,124=41/1,2,3;
 4/5=5,16=3,69=1/1;
 5/5=2,38=5/2;
 7//1,2,3,16;
 1/18=20,19=15,26=3/3(-5);
 2/9=110/2;
 6/7=2,8=2,9=2,10=2,19=2,28=1/1;
 99/9=1/99;
 -----------
 Lig2224.xyz
 -----------
 Symbolic Z-matrix:
 Charge =  0 Multiplicity = 3
 C                     3.32324  -1.75042   3.50682 
 C                     3.95568  -0.513     2.83921 
 C                     5.28154  -0.18339   3.55173 
 C                     2.98679   0.67567   2.96321 
 C                     4.31459  -0.76669   1.35551 
 C                     3.20087  -0.87888   0.30113 
 C                     3.79925  -1.09243  -1.11533 
 O                     3.61547  -2.52472  -1.3699 
 C                     2.71033  -2.91978  -0.46078 
 C                     2.11245  -4.25742  -0.53785 
 C                     2.49353  -5.21596  -1.464 
 C                     1.84633  -6.45519  -1.41601 
 C                     0.86224  -6.66606  -0.46294 
 C                     0.53032  -5.63909   0.43878 
 C                    -0.5892   -5.85187   1.45042 
 C                    -1.91969  -5.92887   0.71104 
 C                    -2.77387  -7.01259   0.93526 
 C                    -3.99492  -7.10302   0.26618 
 C                    -4.36792  -6.10628  -0.6359 
 C                    -3.51657  -5.02256  -0.86119 
 C                    -2.29285  -4.92833  -0.19817 
 C                    -0.53676  -4.85258   2.60206 
 C                     0.52478  -4.94264   3.5165 
 C                     0.62342  -4.0545    4.58448 
 C                    -0.33793  -3.05622   4.75392 
 C                    -1.39469  -2.95797   3.85471 
 C                    -1.49892  -3.85124   2.78422 
 N                     1.15511  -4.46459   0.39425 
 N                     2.37852  -2.09045   0.45803 
 H                     3.85674  -2.67161   3.23869 
 H                     3.36854  -1.64656   4.5984 
 H                     2.27087  -1.84008   3.23518 
 H                     5.99434  -1.01442   3.47173 
 H                     5.10698   0.00509   4.61694 
 H                     5.75596   0.70996   3.12624 
 H                     2.86654   0.95419   4.01696 
 H                     1.99768   0.40394   2.58346 
 H                     3.36472   1.55794   2.42894 
 H                     4.94512   0.06976   1.01976 
 H                     4.93873  -1.66978   1.28461 
 H                     2.54468  -0.00722   0.33795 
 H                     3.25961  -0.55545  -1.9005 
 H                     4.86766  -0.8838   -1.18133 
 H                     3.26502  -4.99451  -2.19184 
 H                     2.10963  -7.23885  -2.11953 
 H                     0.32528  -7.60744  -0.40977 
 H                    -0.41057  -6.84415   1.88523 
 H                    -2.48471  -7.78733   1.64216 
 H                    -4.65089  -7.94955   0.44977 
 H                    -5.31801  -6.17316  -1.15891 
 H                    -3.80454  -4.239    -1.55659 
 H                    -1.64694  -4.06428  -0.36051 
 H                     1.28127  -5.71252   3.3807 
 H                     1.45887  -4.13126   5.27418 
 H                    -0.24679  -2.34352   5.56724 
 H                    -2.12662  -2.16409   3.9572 
 H                    -2.32171  -3.7602    2.08534 
 Ni                    0.5575   -2.55907   1.25945 
 F                    -0.5645   -2.4163   -0.20188 
 F                     0.41859  -1.18274   2.45255 
 

 GradGradGradGradGradGradGradGradGradGradGradGradGradGradGradGradGradGrad
 Berny optimization.
 Initialization pass.
                           ----------------------------
                           !    Initial Parameters    !
                           ! (Angstroms and Degrees)  !
 --------------------------                            --------------------------
 ! Name  Definition              Value          Derivative Info.                !
 --------------------------------------------------------------------------------
 ! R1    R(1,2)                  1.5417         estimate D2E/DX2                !
 ! R2    R(1,30)                 1.0978         estimate D2E/DX2                !
 ! R3    R(1,31)                 1.0974         estimate D2E/DX2                !
 ! R4    R(1,32)                 1.0906         estimate D2E/DX2                !
 ! R5    R(2,3)                  1.5408         estimate D2E/DX2                !
 ! R6    R(2,4)                  1.5385         estimate D2E/DX2                !
 ! R7    R(2,5)                  1.5474         estimate D2E/DX2                !
 ! R8    R(3,33)                 1.0978         estimate D2E/DX2                !
 ! R9    R(3,34)                 1.0958         estimate D2E/DX2                !
 ! R10   R(3,35)                 1.0974         estimate D2E/DX2                !
 ! R11   R(4,36)                 1.0965         estimate D2E/DX2                !
 ! R12   R(4,37)                 1.0938         estimate D2E/DX2                !
 ! R13   R(4,38)                 1.0985         estimate D2E/DX2                !
 ! R14   R(5,6)                  1.5377         estimate D2E/DX2                !
 ! R15   R(5,39)                 1.1            estimate D2E/DX2                !
 ! R16   R(5,40)                 1.1001         estimate D2E/DX2                !
 ! R17   R(6,7)                  1.5524         estimate D2E/DX2                !
 ! R18   R(6,29)                 1.4727         estimate D2E/DX2                !
 ! R19   R(6,41)                 1.0917         estimate D2E/DX2                !
 ! R20   R(7,8)                  1.4663         estimate D2E/DX2                !
 ! R21   R(7,42)                 1.0936         estimate D2E/DX2                !
 ! R22   R(7,43)                 1.0906         estimate D2E/DX2                !
 ! R23   R(8,9)                  1.3423         estimate D2E/DX2                !
 ! R24   R(9,10)                 1.4672         estimate D2E/DX2                !
 ! R25   R(9,29)                 1.2814         estimate D2E/DX2                !
 ! R26   R(10,11)                1.3863         estimate D2E/DX2                !
 ! R27   R(10,28)                1.3521         estimate D2E/DX2                !
 ! R28   R(11,12)                1.3989         estimate D2E/DX2                !
 ! R29   R(11,44)                1.0835         estimate D2E/DX2                !
 ! R30   R(12,13)                1.3861         estimate D2E/DX2                !
 ! R31   R(12,45)                1.0855         estimate D2E/DX2                !
 ! R32   R(13,14)                1.4064         estimate D2E/DX2                !
 ! R33   R(13,46)                1.0851         estimate D2E/DX2                !
 ! R34   R(14,15)                1.5238         estimate D2E/DX2                !
 ! R35   R(14,28)                1.3311         estimate D2E/DX2                !
 ! R36   R(15,16)                1.5241         estimate D2E/DX2                !
 ! R37   R(15,22)                1.5256         estimate D2E/DX2                !
 ! R38   R(15,47)                1.098          estimate D2E/DX2                !
 ! R39   R(16,17)                1.398          estimate D2E/DX2                !
 ! R40   R(16,21)                1.4025         estimate D2E/DX2                !
 ! R41   R(17,18)                1.3953         estimate D2E/DX2                !
 ! R42   R(17,48)                1.0879         estimate D2E/DX2                !
 ! R43   R(18,19)                1.3951         estimate D2E/DX2                !
 ! R44   R(18,49)                1.0866         estimate D2E/DX2                !
 ! R45   R(19,20)                1.3964         estimate D2E/DX2                !
 ! R46   R(19,50)                1.0866         estimate D2E/DX2                !
 ! R47   R(20,21)                1.395          estimate D2E/DX2                !
 ! R48   R(20,51)                1.0865         estimate D2E/DX2                !
 ! R49   R(21,52)                1.0909         estimate D2E/DX2                !
 ! R50   R(22,23)                1.404          estimate D2E/DX2                !
 ! R51   R(22,27)                1.4006         estimate D2E/DX2                !
 ! R52   R(23,24)                1.3925         estimate D2E/DX2                !
 ! R53   R(23,53)                1.0879         estimate D2E/DX2                !
 ! R54   R(24,25)                1.3962         estimate D2E/DX2                !
 ! R55   R(24,54)                1.0861         estimate D2E/DX2                !
 ! R56   R(25,26)                1.391          estimate D2E/DX2                !
 ! R57   R(25,55)                1.0852         estimate D2E/DX2                !
 ! R58   R(26,27)                1.3981         estimate D2E/DX2                !
 ! R59   R(26,56)                1.0846         estimate D2E/DX2                !
 ! R60   R(27,57)                1.0834         estimate D2E/DX2                !
 ! R61   R(29,58)                2.044          estimate D2E/DX2                !
 ! R62   R(58,59)                1.8479         estimate D2E/DX2                !
 ! R63   R(58,60)                1.8268         estimate D2E/DX2                !
 ! A1    A(2,1,30)             111.6164         estimate D2E/DX2                !
 ! A2    A(2,1,31)             109.7448         estimate D2E/DX2                !
 ! A3    A(2,1,32)             110.7315         estimate D2E/DX2                !
 ! A4    A(30,1,31)            107.5956         estimate D2E/DX2                !
 ! A5    A(30,1,32)            109.8238         estimate D2E/DX2                !
 ! A6    A(31,1,32)            107.1794         estimate D2E/DX2                !
 ! A7    A(1,2,3)              108.931          estimate D2E/DX2                !
 ! A8    A(1,2,4)              109.0788         estimate D2E/DX2                !
 ! A9    A(1,2,5)              112.257          estimate D2E/DX2                !
 ! A10   A(3,2,4)              109.8366         estimate D2E/DX2                !
 ! A11   A(3,2,5)              106.193          estimate D2E/DX2                !
 ! A12   A(4,2,5)              110.4877         estimate D2E/DX2                !
 ! A13   A(2,3,33)             111.2898         estimate D2E/DX2                !
 ! A14   A(2,3,34)             110.442          estimate D2E/DX2                !
 ! A15   A(2,3,35)             111.5218         estimate D2E/DX2                !
 ! A16   A(33,3,34)            107.7278         estimate D2E/DX2                !
 ! A17   A(33,3,35)            107.8969         estimate D2E/DX2                !
 ! A18   A(34,3,35)            107.8042         estimate D2E/DX2                !
 ! A19   A(2,4,36)             110.0444         estimate D2E/DX2                !
 ! A20   A(2,4,37)             110.4601         estimate D2E/DX2                !
 ! A21   A(2,4,38)             111.3869         estimate D2E/DX2                !
 ! A22   A(36,4,37)            107.312          estimate D2E/DX2                !
 ! A23   A(36,4,38)            107.5245         estimate D2E/DX2                !
 ! A24   A(37,4,38)            109.9859         estimate D2E/DX2                !
 ! A25   A(2,5,6)              120.0928         estimate D2E/DX2                !
 ! A26   A(2,5,39)             107.5146         estimate D2E/DX2                !
 ! A27   A(2,5,40)             109.1457         estimate D2E/DX2                !
 ! A28   A(6,5,39)             105.1502         estimate D2E/DX2                !
 ! A29   A(6,5,40)             107.8687         estimate D2E/DX2                !
 ! A30   A(39,5,40)            106.2225         estimate D2E/DX2                !
 ! A31   A(5,6,7)              110.8842         estimate D2E/DX2                !
 ! A32   A(5,6,29)             113.0415         estimate D2E/DX2                !
 ! A33   A(5,6,41)             110.7303         estimate D2E/DX2                !
 ! A34   A(7,6,29)             101.4946         estimate D2E/DX2                !
 ! A35   A(7,6,41)             111.8571         estimate D2E/DX2                !
 ! A36   A(29,6,41)            108.5214         estimate D2E/DX2                !
 ! A37   A(6,7,8)              104.1501         estimate D2E/DX2                !
 ! A38   A(6,7,42)             113.4111         estimate D2E/DX2                !
 ! A39   A(6,7,43)             113.9861         estimate D2E/DX2                !
 ! A40   A(8,7,42)             107.0452         estimate D2E/DX2                !
 ! A41   A(8,7,43)             107.406          estimate D2E/DX2                !
 ! A42   A(42,7,43)            110.2445         estimate D2E/DX2                !
 ! A43   A(7,8,9)              104.7386         estimate D2E/DX2                !
 ! A44   A(8,9,10)             120.4986         estimate D2E/DX2                !
 ! A45   A(8,9,29)             118.0177         estimate D2E/DX2                !
 ! A46   A(10,9,29)            121.4787         estimate D2E/DX2                !
 ! A47   A(9,10,11)            123.6049         estimate D2E/DX2                !
 ! A48   A(9,10,28)            113.0786         estimate D2E/DX2                !
 ! A49   A(11,10,28)           123.3152         estimate D2E/DX2                !
 ! A50   A(10,11,12)           117.544          estimate D2E/DX2                !
 ! A51   A(10,11,44)           120.2118         estimate D2E/DX2                !
 ! A52   A(12,11,44)           122.2441         estimate D2E/DX2                !
 ! A53   A(11,12,13)           119.1328         estimate D2E/DX2                !
 ! A54   A(11,12,45)           120.3359         estimate D2E/DX2                !
 ! A55   A(13,12,45)           120.5308         estimate D2E/DX2                !
 ! A56   A(12,13,14)           119.8235         estimate D2E/DX2                !
 ! A57   A(12,13,46)           121.1327         estimate D2E/DX2                !
 ! A58   A(14,13,46)           119.0333         estimate D2E/DX2                !
 ! A59   A(13,14,15)           119.8072         estimate D2E/DX2                !
 ! A60   A(13,14,28)           120.8024         estimate D2E/DX2                !
 ! A61   A(15,14,28)           119.3586         estimate D2E/DX2                !
 ! A62   A(14,15,16)           109.047          estimate D2E/DX2                !
 ! A63   A(14,15,22)           112.608          estimate D2E/DX2                !
 ! A64   A(14,15,47)           105.6388         estimate D2E/DX2                !
 ! A65   A(16,15,22)           115.423          estimate D2E/DX2                !
 ! A66   A(16,15,47)           106.7669         estimate D2E/DX2                !
 ! A67   A(22,15,47)           106.7034         estimate D2E/DX2                !
 ! A68   A(15,16,17)           119.6536         estimate D2E/DX2                !
 ! A69   A(15,16,21)           120.7127         estimate D2E/DX2                !
 ! A70   A(17,16,21)           119.6326         estimate D2E/DX2                !
 ! A71   A(16,17,18)           120.5337         estimate D2E/DX2                !
 ! A72   A(16,17,48)           119.5951         estimate D2E/DX2                !
 ! A73   A(18,17,48)           119.8702         estimate D2E/DX2                !
 ! A74   A(17,18,19)           119.85           estimate D2E/DX2                !
 ! A75   A(17,18,49)           119.8541         estimate D2E/DX2                !
 ! A76   A(19,18,49)           120.2959         estimate D2E/DX2                !
 ! A77   A(18,19,20)           119.7209         estimate D2E/DX2                !
 ! A78   A(18,19,50)           120.0676         estimate D2E/DX2                !
 ! A79   A(20,19,50)           120.2114         estimate D2E/DX2                !
 ! A80   A(19,20,21)           120.7011         estimate D2E/DX2                !
 ! A81   A(19,20,51)           120.0898         estimate D2E/DX2                !
 ! A82   A(21,20,51)           119.2088         estimate D2E/DX2                !
 ! A83   A(16,21,20)           119.5601         estimate D2E/DX2                !
 ! A84   A(16,21,52)           120.2635         estimate D2E/DX2                !
 ! A85   A(20,21,52)           120.1424         estimate D2E/DX2                !
 ! A86   A(15,22,23)           118.4            estimate D2E/DX2                !
 ! A87   A(15,22,27)           122.8779         estimate D2E/DX2                !
 ! A88   A(23,22,27)           118.722          estimate D2E/DX2                !
 ! A89   A(22,23,24)           120.8084         estimate D2E/DX2                !
 ! A90   A(22,23,53)           119.3321         estimate D2E/DX2                !
 ! A91   A(24,23,53)           119.8578         estimate D2E/DX2                !
 ! A92   A(23,24,25)           120.021          estimate D2E/DX2                !
 ! A93   A(23,24,54)           119.7652         estimate D2E/DX2                !
 ! A94   A(25,24,54)           120.206          estimate D2E/DX2                !
 ! A95   A(24,25,26)           119.6777         estimate D2E/DX2                !
 ! A96   A(24,25,55)           120.1771         estimate D2E/DX2                !
 ! A97   A(26,25,55)           120.1244         estimate D2E/DX2                !
 ! A98   A(25,26,27)           120.4282         estimate D2E/DX2                !
 ! A99   A(25,26,56)           120.2158         estimate D2E/DX2                !
 ! A100  A(27,26,56)           119.3192         estimate D2E/DX2                !
 ! A101  A(22,27,26)           120.3417         estimate D2E/DX2                !
 ! A102  A(22,27,57)           119.8615         estimate D2E/DX2                !
 ! A103  A(26,27,57)           119.7924         estimate D2E/DX2                !
 ! A104  A(10,28,14)           119.3798         estimate D2E/DX2                !
 ! A105  A(6,29,9)             108.1472         estimate D2E/DX2                !
 ! A106  A(6,29,58)            136.7081         estimate D2E/DX2                !
 ! A107  A(9,29,58)            111.3114         estimate D2E/DX2                !
 ! A108  A(29,58,59)           102.3076         estimate D2E/DX2                !
 ! A109  A(29,58,60)            98.6899         estimate D2E/DX2                !
 ! A110  A(59,58,60)           114.3379         estimate D2E/DX2                !
 ! D1    D(30,1,2,3)           -73.8073         estimate D2E/DX2                !
 ! D2    D(30,1,2,4)           166.3104         estimate D2E/DX2                !
 ! D3    D(30,1,2,5)            43.5102         estimate D2E/DX2                !
 ! D4    D(31,1,2,3)            45.3828         estimate D2E/DX2                !
 ! D5    D(31,1,2,4)           -74.4996         estimate D2E/DX2                !
 ! D6    D(31,1,2,5)           162.7002         estimate D2E/DX2                !
 ! D7    D(32,1,2,3)           163.5077         estimate D2E/DX2                !
 ! D8    D(32,1,2,4)            43.6253         estimate D2E/DX2                !
 ! D9    D(32,1,2,5)           -79.1749         estimate D2E/DX2                !
 ! D10   D(1,2,3,33)            60.9864         estimate D2E/DX2                !
 ! D11   D(1,2,3,34)           -58.6179         estimate D2E/DX2                !
 ! D12   D(1,2,3,35)          -178.4696         estimate D2E/DX2                !
 ! D13   D(4,2,3,33)          -179.6016         estimate D2E/DX2                !
 ! D14   D(4,2,3,34)            60.7941         estimate D2E/DX2                !
 ! D15   D(4,2,3,35)           -59.0576         estimate D2E/DX2                !
 ! D16   D(5,2,3,33)           -60.1155         estimate D2E/DX2                !
 ! D17   D(5,2,3,34)          -179.7197         estimate D2E/DX2                !
 ! D18   D(5,2,3,35)            60.4285         estimate D2E/DX2                !
 ! D19   D(1,2,4,36)            65.4211         estimate D2E/DX2                !
 ! D20   D(1,2,4,37)           -52.887          estimate D2E/DX2                !
 ! D21   D(1,2,4,38)          -175.4275         estimate D2E/DX2                !
 ! D22   D(3,2,4,36)           -53.9004         estimate D2E/DX2                !
 ! D23   D(3,2,4,37)          -172.2085         estimate D2E/DX2                !
 ! D24   D(3,2,4,38)            65.251          estimate D2E/DX2                !
 ! D25   D(5,2,4,36)          -170.7256         estimate D2E/DX2                !
 ! D26   D(5,2,4,37)            70.9663         estimate D2E/DX2                !
 ! D27   D(5,2,4,38)           -51.5742         estimate D2E/DX2                !
 ! D28   D(1,2,5,6)             71.9088         estimate D2E/DX2                !
 ! D29   D(1,2,5,39)          -168.1156         estimate D2E/DX2                !
 ! D30   D(1,2,5,40)           -53.3024         estimate D2E/DX2                !
 ! D31   D(3,2,5,6)           -169.1526         estimate D2E/DX2                !
 ! D32   D(3,2,5,39)           -49.177          estimate D2E/DX2                !
 ! D33   D(3,2,5,40)            65.6363         estimate D2E/DX2                !
 ! D34   D(4,2,5,6)            -50.0929         estimate D2E/DX2                !
 ! D35   D(4,2,5,39)            69.8827         estimate D2E/DX2                !
 ! D36   D(4,2,5,40)          -175.3041         estimate D2E/DX2                !
 ! D37   D(2,5,6,7)            178.3879         estimate D2E/DX2                !
 ! D38   D(2,5,6,29)           -68.4046         estimate D2E/DX2                !
 ! D39   D(2,5,6,41)            53.6056         estimate D2E/DX2                !
 ! D40   D(39,5,6,7)            57.2389         estimate D2E/DX2                !
 ! D41   D(39,5,6,29)          170.4463         estimate D2E/DX2                !
 ! D42   D(39,5,6,41)          -67.5435         estimate D2E/DX2                !
 ! D43   D(40,5,6,7)           -55.8019         estimate D2E/DX2                !
 ! D44   D(40,5,6,29)           57.4056         estimate D2E/DX2                !
 ! D45   D(40,5,6,41)          179.4158         estimate D2E/DX2                !
 ! D46   D(5,6,7,8)            102.3605         estimate D2E/DX2                !
 ! D47   D(5,6,7,42)          -141.6267         estimate D2E/DX2                !
 ! D48   D(5,6,7,43)           -14.3726         estimate D2E/DX2                !
 ! D49   D(29,6,7,8)           -17.9763         estimate D2E/DX2                !
 ! D50   D(29,6,7,42)           98.0365         estimate D2E/DX2                !
 ! D51   D(29,6,7,43)         -134.7094         estimate D2E/DX2                !
 ! D52   D(41,6,7,8)          -133.4971         estimate D2E/DX2                !
 ! D53   D(41,6,7,42)          -17.4843         estimate D2E/DX2                !
 ! D54   D(41,6,7,43)          109.7699         estimate D2E/DX2                !
 ! D55   D(5,6,29,9)          -105.2091         estimate D2E/DX2                !
 ! D56   D(5,6,29,58)           99.878          estimate D2E/DX2                !
 ! D57   D(7,6,29,9)            13.5943         estimate D2E/DX2                !
 ! D58   D(7,6,29,58)         -141.3186         estimate D2E/DX2                !
 ! D59   D(41,6,29,9)          131.5502         estimate D2E/DX2                !
 ! D60   D(41,6,29,58)         -23.3628         estimate D2E/DX2                !
 ! D61   D(6,7,8,9)             16.4054         estimate D2E/DX2                !
 ! D62   D(42,7,8,9)          -103.9844         estimate D2E/DX2                !
 ! D63   D(43,7,8,9)           137.6296         estimate D2E/DX2                !
 ! D64   D(7,8,9,10)           170.4013         estimate D2E/DX2                !
 ! D65   D(7,8,9,29)            -8.7988         estimate D2E/DX2                !
 ! D66   D(8,9,10,11)            4.693          estimate D2E/DX2                !
 ! D67   D(8,9,10,28)         -175.7099         estimate D2E/DX2                !
 ! D68   D(29,9,10,11)        -176.135          estimate D2E/DX2                !
 ! D69   D(29,9,10,28)           3.4621         estimate D2E/DX2                !
 ! D70   D(8,9,29,6)            -3.7242         estimate D2E/DX2                !
 ! D71   D(8,9,29,58)          158.0911         estimate D2E/DX2                !
 ! D72   D(10,9,29,6)          177.084          estimate D2E/DX2                !
 ! D73   D(10,9,29,58)         -21.1007         estimate D2E/DX2                !
 ! D74   D(9,10,11,12)         179.4388         estimate D2E/DX2                !
 ! D75   D(9,10,11,44)          -0.6674         estimate D2E/DX2                !
 ! D76   D(28,10,11,12)         -0.1177         estimate D2E/DX2                !
 ! D77   D(28,10,11,44)        179.7762         estimate D2E/DX2                !
 ! D78   D(9,10,28,14)        -179.8993         estimate D2E/DX2                !
 ! D79   D(11,10,28,14)         -0.3008         estimate D2E/DX2                !
 ! D80   D(10,11,12,13)          0.2989         estimate D2E/DX2                !
 ! D81   D(10,11,12,45)       -179.9634         estimate D2E/DX2                !
 ! D82   D(44,11,12,13)       -179.5926         estimate D2E/DX2                !
 ! D83   D(44,11,12,45)          0.1451         estimate D2E/DX2                !
 ! D84   D(11,12,13,14)         -0.0828         estimate D2E/DX2                !
 ! D85   D(11,12,13,46)        178.7268         estimate D2E/DX2                !
 ! D86   D(45,12,13,14)       -179.82           estimate D2E/DX2                !
 ! D87   D(45,12,13,46)         -1.0104         estimate D2E/DX2                !
 ! D88   D(12,13,14,15)        177.5931         estimate D2E/DX2                !
 ! D89   D(12,13,14,28)         -0.3415         estimate D2E/DX2                !
 ! D90   D(46,13,14,15)         -1.2415         estimate D2E/DX2                !
 ! D91   D(46,13,14,28)       -179.176          estimate D2E/DX2                !
 ! D92   D(13,14,15,16)        -68.2352         estimate D2E/DX2                !
 ! D93   D(13,14,15,22)        162.2902         estimate D2E/DX2                !
 ! D94   D(13,14,15,47)         46.1938         estimate D2E/DX2                !
 ! D95   D(28,14,15,16)        109.7293         estimate D2E/DX2                !
 ! D96   D(28,14,15,22)        -19.7453         estimate D2E/DX2                !
 ! D97   D(28,14,15,47)       -135.8417         estimate D2E/DX2                !
 ! D98   D(13,14,28,10)          0.5268         estimate D2E/DX2                !
 ! D99   D(15,14,28,10)       -177.417          estimate D2E/DX2                !
 ! D100  D(14,15,16,17)        127.684          estimate D2E/DX2                !
 ! D101  D(14,15,16,21)        -51.9216         estimate D2E/DX2                !
 ! D102  D(22,15,16,17)       -104.4077         estimate D2E/DX2                !
 ! D103  D(22,15,16,21)         75.9868         estimate D2E/DX2                !
 ! D104  D(47,15,16,17)         13.9891         estimate D2E/DX2                !
 ! D105  D(47,15,16,21)       -165.6164         estimate D2E/DX2                !
 ! D106  D(14,15,22,23)        -68.5494         estimate D2E/DX2                !
 ! D107  D(14,15,22,27)        111.372          estimate D2E/DX2                !
 ! D108  D(16,15,22,23)        165.3398         estimate D2E/DX2                !
 ! D109  D(16,15,22,27)        -14.7388         estimate D2E/DX2                !
 ! D110  D(47,15,22,23)         46.9077         estimate D2E/DX2                !
 ! D111  D(47,15,22,27)       -133.1709         estimate D2E/DX2                !
 ! D112  D(15,16,17,18)       -179.8627         estimate D2E/DX2                !
 ! D113  D(15,16,17,48)          0.5127         estimate D2E/DX2                !
 ! D114  D(21,16,17,18)         -0.2528         estimate D2E/DX2                !
 ! D115  D(21,16,17,48)       -179.8774         estimate D2E/DX2                !
 ! D116  D(15,16,21,20)       -179.9671         estimate D2E/DX2                !
 ! D117  D(15,16,21,52)         -2.0865         estimate D2E/DX2                !
 ! D118  D(17,16,21,20)          0.4273         estimate D2E/DX2                !
 ! D119  D(17,16,21,52)        178.3079         estimate D2E/DX2                !
 ! D120  D(16,17,18,19)          0.0979         estimate D2E/DX2                !
 ! D121  D(16,17,18,49)       -179.9226         estimate D2E/DX2                !
 ! D122  D(48,17,18,19)        179.7215         estimate D2E/DX2                !
 ! D123  D(48,17,18,49)         -0.2991         estimate D2E/DX2                !
 ! D124  D(17,18,19,20)         -0.1185         estimate D2E/DX2                !
 ! D125  D(17,18,19,50)        179.9982         estimate D2E/DX2                !
 ! D126  D(49,18,19,20)        179.9021         estimate D2E/DX2                !
 ! D127  D(49,18,19,50)          0.0189         estimate D2E/DX2                !
 ! D128  D(18,19,20,21)          0.299          estimate D2E/DX2                !
 ! D129  D(18,19,20,51)       -179.5223         estimate D2E/DX2                !
 ! D130  D(50,19,20,21)       -179.8179         estimate D2E/DX2                !
 ! D131  D(50,19,20,51)          0.3608         estimate D2E/DX2                !
 ! D132  D(19,20,21,16)         -0.4535         estimate D2E/DX2                !
 ! D133  D(19,20,21,52)       -178.3367         estimate D2E/DX2                !
 ! D134  D(51,20,21,16)        179.3693         estimate D2E/DX2                !
 ! D135  D(51,20,21,52)          1.4861         estimate D2E/DX2                !
 ! D136  D(15,22,23,24)        179.8577         estimate D2E/DX2                !
 ! D137  D(15,22,23,53)          0.3255         estimate D2E/DX2                !
 ! D138  D(27,22,23,24)         -0.067          estimate D2E/DX2                !
 ! D139  D(27,22,23,53)       -179.5993         estimate D2E/DX2                !
 ! D140  D(15,22,27,26)       -179.627          estimate D2E/DX2                !
 ! D141  D(15,22,27,57)         -0.3861         estimate D2E/DX2                !
 ! D142  D(23,22,27,26)          0.2941         estimate D2E/DX2                !
 ! D143  D(23,22,27,57)        179.5351         estimate D2E/DX2                !
 ! D144  D(22,23,24,25)         -0.2043         estimate D2E/DX2                !
 ! D145  D(22,23,24,54)       -179.1901         estimate D2E/DX2                !
 ! D146  D(53,23,24,25)        179.3255         estimate D2E/DX2                !
 ! D147  D(53,23,24,54)          0.3397         estimate D2E/DX2                !
 ! D148  D(23,24,25,26)          0.2484         estimate D2E/DX2                !
 ! D149  D(23,24,25,55)       -178.0923         estimate D2E/DX2                !
 ! D150  D(54,24,25,26)        179.2297         estimate D2E/DX2                !
 ! D151  D(54,24,25,55)          0.889          estimate D2E/DX2                !
 ! D152  D(24,25,26,27)         -0.0215         estimate D2E/DX2                !
 ! D153  D(24,25,26,56)       -177.7978         estimate D2E/DX2                !
 ! D154  D(55,25,26,27)        178.3201         estimate D2E/DX2                !
 ! D155  D(55,25,26,56)          0.5438         estimate D2E/DX2                !
 ! D156  D(25,26,27,22)         -0.2527         estimate D2E/DX2                !
 ! D157  D(25,26,27,57)       -179.4942         estimate D2E/DX2                !
 ! D158  D(56,26,27,22)        177.5435         estimate D2E/DX2                !
 ! D159  D(56,26,27,57)         -1.698          estimate D2E/DX2                !
 ! D160  D(6,29,58,59)          93.0871         estimate D2E/DX2                !
 ! D161  D(6,29,58,60)         -24.3037         estimate D2E/DX2                !
 ! D162  D(9,29,58,59)         -61.2879         estimate D2E/DX2                !
 ! D163  D(9,29,58,60)        -178.6787         estimate D2E/DX2                !
 --------------------------------------------------------------------------------
 Trust Radius=3.00D-01 FncErr=1.00D-07 GrdErr=1.00D-06 EigMax=2.50D+02 EigMin=1.00D-04
 Number of steps in this run=    346 maximum allowed number of steps=    360.
 GradGradGradGradGradGradGradGradGradGradGradGradGradGradGradGradGradGrad

 Stoichiometry    C26H28F2N2NiO(3)
 Framework group  C1[X(C26H28F2N2NiO)]
 Deg. of freedom   174
 Full point group                 C1      NOp   1
 Largest Abelian subgroup         C1      NOp   1
 Largest concise Abelian subgroup C1      NOp   1
                         Standard orientation:                         
 ---------------------------------------------------------------------
 Center     Atomic      Atomic             Coordinates (Angstroms)
 Number     Number       Type             X           Y           Z
 ---------------------------------------------------------------------
      1          6           0       -3.392649   -1.374317    1.077379
      2          6           0       -4.526636   -0.772914    0.223410
      3          6           0       -5.859861   -0.931896    0.979356
      4          6           0       -4.595536   -1.520524   -1.119505
      5          6           0       -4.341791    0.745467   -0.010862
      6          6           0       -3.239117    1.251204   -0.955854
      7          6           0       -3.270693    2.799496   -1.064634
      8          8           0       -2.165212    3.241589   -0.208761
      9          6           0       -1.416823    2.142871   -0.022811
     10          6           0       -0.099500    2.238558    0.616098
     11          6           0        0.413271    3.412951    1.144909
     12          6           0        1.679686    3.357223    1.736479
     13          6           0        2.359814    2.149746    1.762425
     14          6           0        1.771383    1.003292    1.199089
     15          6           0        2.541789   -0.311261    1.178596
     16          6           0        3.721452   -0.181551    0.222354
     17          6           0        5.007272   -0.510237    0.661637
     18          6           0        6.100751   -0.395622   -0.197418
     19          6           0        5.912443    0.052299   -1.505192
     20          6           0        4.628931    0.380791   -1.946417
     21          6           0        3.532208    0.271881   -1.091251
     22          6           0        1.637584   -1.517367    0.943410
     23          6           0        0.730655   -1.878872    1.952348
     24          6           0       -0.120192   -2.969099    1.789351
     25          6           0       -0.081249   -3.715410    0.609962
     26          6           0        0.813925   -3.367164   -0.396208
     27          6           0        1.672698   -2.275953   -0.233429
     28          7           0        0.562480    1.059927    0.644878
     29          7           0       -1.881732    1.021374   -0.432929
     30          1           0       -3.144652   -0.730715    1.931418
     31          1           0       -3.704886   -2.348167    1.475505
     32          1           0       -2.501913   -1.544554    0.471628
     33          1           0       -5.839265   -0.400710    1.939826
     34          1           0       -6.058290   -1.989321    1.187072
     35          1           0       -6.702741   -0.540692    0.395648
     36          1           0       -4.889828   -2.563827   -0.954182
     37          1           0       -3.613810   -1.531752   -1.601660
     38          1           0       -5.338619   -1.069716   -1.791279
     39          1           0       -5.281324    1.132176   -0.432401
     40          1           0       -4.210936    1.246943    0.959472
     41          1           0       -3.319404    0.773334   -1.934080
     42          1           0       -3.062882    3.168586   -2.072915
     43          1           0       -4.184151    3.252575   -0.677728
     44          1           0       -0.159724    4.330974    1.091058
     45          1           0        2.124275    4.249885    2.165304
     46          1           0        3.352199    2.074024    2.194609
     47          1           0        2.962104   -0.423752    2.186696
     48          1           0        5.153094   -0.863811    1.680105
     49          1           0        7.095162   -0.655289    0.155203
     50          1           0        6.761505    0.142918   -2.177181
     51          1           0        4.474331    0.722832   -2.966021
     52          1           0        2.529882    0.504969   -1.453402
     53          1           0        0.690421   -1.292583    2.867824
     54          1           0       -0.824361   -3.225744    2.575385
     55          1           0       -0.764422   -4.546501    0.467496
     56          1           0        0.826997   -3.918644   -1.330104
     57          1           0        2.360090   -2.008857   -1.027063
     58         28           0       -0.385996   -0.340932   -0.724319
     59          9           0        0.638105    0.471792   -2.030242
     60          9           0       -1.398482   -1.738666   -1.322886
 ---------------------------------------------------------------------
 Rotational constants (GHZ):           0.2272714           0.1037003           0.0862684
 General basis read from cards:  (6D, 7F)
 ======================================================================================================
                                       Pseudopotential Parameters
 ======================================================================================================
  Center     Atomic      Valence      Angular      Power
  Number     Number     Electrons     Momentum     of R      Exponent        Coefficient   SO-Coeffient
 ======================================================================================================
    1          6
                                   No pseudopotential on this center.
    2          6
                                   No pseudopotential on this center.
    3          6
                                   No pseudopotential on this center.
    4          6
                                   No pseudopotential on this center.
    5          6
                                   No pseudopotential on this center.
    6          6
                                   No pseudopotential on this center.
    7          6
                                   No pseudopotential on this center.
    8          8
                                   No pseudopotential on this center.
    9          6
                                   No pseudopotential on this center.
   10          6
                                   No pseudopotential on this center.
   11          6
                                   No pseudopotential on this center.
   12          6
                                   No pseudopotential on this center.
   13          6
                                   No pseudopotential on this center.
   14          6
                                   No pseudopotential on this center.
   15          6
                                   No pseudopotential on this center.
   16          6
                                   No pseudopotential on this center.
   17          6
                                   No pseudopotential on this center.
   18          6
                                   No pseudopotential on this center.
   19          6
                                   No pseudopotential on this center.
   20          6
                                   No pseudopotential on this center.
   21          6
                                   No pseudopotential on this center.
   22          6
                                   No pseudopotential on this center.
   23          6
                                   No pseudopotential on this center.
   24          6
                                   No pseudopotential on this center.
   25          6
                                   No pseudopotential on this center.
   26          6
                                   No pseudopotential on this center.
   27          6
                                   No pseudopotential on this center.
   28          7
                                   No pseudopotential on this center.
   29          7
                                   No pseudopotential on this center.
   30          1
                                   No pseudopotential on this center.
   31          1
                                   No pseudopotential on this center.
   32          1
                                   No pseudopotential on this center.
   33          1
                                   No pseudopotential on this center.
   34          1
                                   No pseudopotential on this center.
   35          1
                                   No pseudopotential on this center.
   36          1
                                   No pseudopotential on this center.
   37          1
                                   No pseudopotential on this center.
   38          1
                                   No pseudopotential on this center.
   39          1
                                   No pseudopotential on this center.
   40          1
                                   No pseudopotential on this center.
   41          1
                                   No pseudopotential on this center.
   42          1
                                   No pseudopotential on this center.
   43          1
                                   No pseudopotential on this center.
   44          1
                                   No pseudopotential on this center.
   45          1
                                   No pseudopotential on this center.
   46          1
                                   No pseudopotential on this center.
   47          1
                                   No pseudopotential on this center.
   48          1
                                   No pseudopotential on this center.
   49          1
                                   No pseudopotential on this center.
   50          1
                                   No pseudopotential on this center.
   51          1
                                   No pseudopotential on this center.
   52          1
                                   No pseudopotential on this center.
   53          1
                                   No pseudopotential on this center.
   54          1
                                   No pseudopotential on this center.
   55          1
                                   No pseudopotential on this center.
   56          1
                                   No pseudopotential on this center.
   57          1
                                   No pseudopotential on this center.
   58         28           18
                                      D and up 
                                                     1      469.9324331      -10.00000000    0.00000000
                                                     2       85.4236411      -69.40848050    0.00000000
                                                     2       21.2674984      -12.09510200    0.00000000
                                      S - D
                                                     0      162.1686097        3.00000000    0.00000000
                                                     1      176.5333232       22.02536180    0.00000000
                                                     2       68.9562010      443.01810880    0.00000000
                                                     2       13.5792838      145.56964110    0.00000000
                                      P - D
                                                     0       69.0181506        5.00000000    0.00000000
                                                     1      275.5955596        4.98828240    0.00000000
                                                     2       47.1315453      256.69458530    0.00000000
                                                     2       12.9874075       78.47544500    0.00000000
   59          9
                                   No pseudopotential on this center.
   60          9
                                   No pseudopotential on this center.
 ======================================================================================================
 There are   598 symmetry adapted cartesian basis functions of A   symmetry.
 There are   595 symmetry adapted basis functions of A   symmetry.
   595 basis functions,  1134 primitive gaussians,   598 cartesian basis functions
   122 alpha electrons      120 beta electrons
       nuclear repulsion energy      3764.4136176827 Hartrees.
 NAtoms=   60 NActive=   60 NUniq=   60 SFac= 1.00D+00 NAtFMM=   60 NAOKFM=T Big=T
 Integral buffers will be    131072 words long.
 Raffenetti 2 integral format.
 Two-electron integral symmetry is turned on.
 Nuclear repulsion after empirical dispersion term =     3764.2562833854 Hartrees.
 One-electron integrals computed using PRISM.
 PrsmSu:  requested number of processors reduced to:  12 ShMem   1 Linda.
   1 Symmetry operations used in ECPInt.
 ECPInt:  NShTT=   20301 NPrTT=  123456 LenC2=   17174 LenP2D=   56656.
 LDataN:  DoStor=T MaxTD1= 6 Len=  172
 Number of processors reduced to  12 by ecpmxn.
 NBasis=   595 RedAO= T EigKep=  6.97D-06  NBF=   595
 NBsUse=   594 1.00D-06 EigRej=  9.33D-07 NBFU=   594
 ExpMin= 2.40D-02 ExpMax= 7.14D+04 ExpMxC= 1.07D+04 IAcc=3 IRadAn=         5 AccDes= 0.00D+00
 Harris functional with IExCor=  402 and IRadAn=       5 diagonalized for initial guess.
 HarFok:  IExCor=  402 AccDes= 0.00D+00 IRadAn=         5 IDoV= 1 UseB2=F ITyADJ=14
 ICtDFT=  3500011 ScaDFX=  1.000000  1.000000  1.000000  1.000000
 FoFCou: FMM=F IPFlag=           0 FMFlag=      100000 FMFlg1=        2001
         NFxFlg=           0 DoJE=T BraDBF=F KetDBF=T FulRan=T
         wScrn=  0.000000 ICntrl=       500 IOpCl=  0 I1Cent=   200000004 NGrid=           0
         NMat0=    1 NMatS0=      1 NMatT0=    0 NMatD0=    1 NMtDS0=    0 NMtDT0=    0
 Petite list used in FoFCou.
 Initial guess <Sx>= 0.0000 <Sy>= 0.0000 <Sz>= 1.0000 <S**2>= 2.0000 S= 1.0000
 Requested convergence on RMS density matrix=1.00D-08 within 128 cycles.
 Requested convergence on MAX density matrix=1.00D-06.
 Requested convergence on             energy=1.00D-06.
 No special actions if energy rises.
 EnCoef did     2 forward-backward iterations
 Restarting incremental Fock formation.
 SCF Done:  E(UB3LYP) =  -1561.66771363     A.U. after   31 cycles
            NFock= 31  Conv=0.98D-08     -V/T= 2.0504
 <Sx>= 0.0000 <Sy>= 0.0000 <Sz>= 1.0000 <S**2>= 2.0053 S= 1.0018
 <L.S>=  0.00000000000    
 Annihilation of the first spin contaminant:
 S**2 before annihilation     2.0053,   after     2.0000

 **********************************************************************

            Population analysis using the SCF Density.

 **********************************************************************

 Orbital symmetries:
 Alpha Orbitals:
       Occupied  (A) (A) (A) (A) (A) (A) (A) (A) (A) (A) (A) (A)
                 (A) (A) (A) (A) (A) (A) (A) (A) (A) (A) (A) (A)
                 (A) (A) (A) (A) (A) (A) (A) (A) (A) (A) (A) (A)
                 (A) (A) (A) (A) (A) (A) (A) (A) (A) (A) (A) (A)
                 (A) (A) (A) (A) (A) (A) (A) (A) (A) (A) (A) (A)
                 (A) (A) (A) (A) (A) (A) (A) (A) (A) (A) (A) (A)
                 (A) (A) (A) (A) (A) (A) (A) (A) (A) (A) (A) (A)
                 (A) (A) (A) (A) (A) (A) (A) (A) (A) (A) (A) (A)
                 (A) (A) (A) (A) (A) (A) (A) (A) (A) (A) (A) (A)
                 (A) (A) (A) (A) (A) (A) (A) (A) (A) (A) (A) (A)
                 (A) (A)
       Virtual   (A) (A) (A) (A) (A) (A) (A) (A) (A) (A) (A) (A)
                 (A) (A) (A) (A) (A) (A) (A) (A) (A) (A) (A) (A)
                 (A) (A) (A) (A) (A) (A) (A) (A) (A) (A) (A) (A)
                 (A) (A) (A) (A) (A) (A) (A) (A) (A) (A) (A) (A)
                 (A) (A) (A) (A) (A) (A) (A) (A) (A) (A) (A) (A)
                 (A) (A) (A) (A) (A) (A) (A) (A) (A) (A) (A) (A)
                 (A) (A) (A) (A) (A) (A) (A) (A) (A) (A) (A) (A)
                 (A) (A) (A) (A) (A) (A) (A) (A) (A) (A) (A) (A)
                 (A) (A) (A) (A) (A) (A) (A) (A) (A) (A) (A) (A)
                 (A) (A) (A) (A) (A) (A) (A) (A) (A) (A) (A) (A)
                 (A) (A) (A) (A) (A) (A) (A) (A) (A) (A) (A) (A)
                 (A) (A) (A) (A) (A) (A) (A) (A) (A) (A) (A) (A)
                 (A) (A) (A) (A) (A) (A) (A) (A) (A) (A) (A) (A)
                 (A) (A) (A) (A) (A) (A) (A) (A) (A) (A) (A) (A)
                 (A) (A) (A) (A) (A) (A) (A) (A) (A) (A) (A) (A)
                 (A) (A) (A) (A) (A) (A) (A) (A) (A) (A) (A) (A)
                 (A) (A) (A) (A) (A) (A) (A) (A) (A) (A) (A) (A)
                 (A) (A) (A) (A) (A) (A) (A) (A) (A) (A) (A) (A)
                 (A) (A) (A) (A) (A) (A) (A) (A) (A) (A) (A) (A)
                 (A) (A) (A) (A) (A) (A) (A) (A) (A) (A) (A) (A)
                 (A) (A) (A) (A) (A) (A) (A) (A) (A) (A) (A) (A)
                 (A) (A) (A) (A) (A) (A) (A) (A) (A) (A) (A) (A)
                 (A) (A) (A) (A) (A) (A) (A) (A) (A) (A) (A) (A)
                 (A) (A) (A) (A) (A) (A) (A) (A) (A) (A) (A) (A)
                 (A) (A) (A) (A) (A) (A) (A) (A) (A) (A) (A) (A)
                 (A) (A) (A) (A) (A) (A) (A) (A) (A) (A) (A) (A)
                 (A) (A) (A) (A) (A) (A) (A) (A) (A) (A) (A) (A)
                 (A) (A) (A) (A) (A) (A) (A) (A) (A) (A) (A) (A)
                 (A) (A) (A) (A) (A) (A) (A) (A) (A) (A) (A) (A)
                 (A) (A) (A) (A) (A) (A) (A) (A) (A) (A) (A) (A)
                 (A) (A) (A) (A) (A) (A) (A) (A) (A) (A) (A) (A)
                 (A) (A) (A) (A) (A) (A) (A) (A) (A) (A) (A) (A)
                 (A) (A) (A) (A) (A) (A) (A) (A) (A) (A) (A) (A)
                 (A) (A) (A) (A) (A) (A) (A) (A) (A) (A) (A) (A)
                 (A) (A) (A) (A) (A) (A) (A) (A) (A) (A) (A) (A)
                 (A) (A) (A) (A) (A) (A) (A) (A) (A) (A) (A) (A)
                 (A) (A) (A) (A) (A) (A) (A) (A) (A) (A) (A) (A)
                 (A) (A) (A) (A) (A) (A) (A) (A) (A) (A) (A) (A)
                 (A) (A) (A) (A) (A) (A) (A) (A) (A) (A) (A) (A)
                 (A) (A) (A) (A)
 Beta  Orbitals:
       Occupied  (A) (A) (A) (A) (A) (A) (A) (A) (A) (A) (A) (A)
                 (A) (A) (A) (A) (A) (A) (A) (A) (A) (A) (A) (A)
                 (A) (A) (A) (A) (A) (A) (A) (A) (A) (A) (A) (A)
                 (A) (A) (A) (A) (A) (A) (A) (A) (A) (A) (A) (A)
                 (A) (A) (A) (A) (A) (A) (A) (A) (A) (A) (A) (A)
                 (A) (A) (A) (A) (A) (A) (A) (A) (A) (A) (A) (A)
                 (A) (A) (A) (A) (A) (A) (A) (A) (A) (A) (A) (A)
                 (A) (A) (A) (A) (A) (A) (A) (A) (A) (A) (A) (A)
                 (A) (A) (A) (A) (A) (A) (A) (A) (A) (A) (A) (A)
                 (A) (A) (A) (A) (A) (A) (A) (A) (A) (A) (A) (A)
       Virtual   (A) (A) (A) (A) (A) (A) (A) (A) (A) (A) (A) (A)
                 (A) (A) (A) (A) (A) (A) (A) (A) (A) (A) (A) (A)
                 (A) (A) (A) (A) (A) (A) (A) (A) (A) (A) (A) (A)
                 (A) (A) (A) (A) (A) (A) (A) (A) (A) (A) (A) (A)
                 (A) (A) (A) (A) (A) (A) (A) (A) (A) (A) (A) (A)
                 (A) (A) (A) (A) (A) (A) (A) (A) (A) (A) (A) (A)
                 (A) (A) (A) (A) (A) (A) (A) (A) (A) (A) (A) (A)
                 (A) (A) (A) (A) (A) (A) (A) (A) (A) (A) (A) (A)
                 (A) (A) (A) (A) (A) (A) (A) (A) (A) (A) (A) (A)
                 (A) (A) (A) (A) (A) (A) (A) (A) (A) (A) (A) (A)
                 (A) (A) (A) (A) (A) (A) (A) (A) (A) (A) (A) (A)
                 (A) (A) (A) (A) (A) (A) (A) (A) (A) (A) (A) (A)
                 (A) (A) (A) (A) (A) (A) (A) (A) (A) (A) (A) (A)
                 (A) (A) (A) (A) (A) (A) (A) (A) (A) (A) (A) (A)
                 (A) (A) (A) (A) (A) (A) (A) (A) (A) (A) (A) (A)
                 (A) (A) (A) (A) (A) (A) (A) (A) (A) (A) (A) (A)
                 (A) (A) (A) (A) (A) (A) (A) (A) (A) (A) (A) (A)
                 (A) (A) (A) (A) (A) (A) (A) (A) (A) (A) (A) (A)
                 (A) (A) (A) (A) (A) (A) (A) (A) (A) (A) (A) (A)
                 (A) (A) (A) (A) (A) (A) (A) (A) (A) (A) (A) (A)
                 (A) (A) (A) (A) (A) (A) (A) (A) (A) (A) (A) (A)
                 (A) (A) (A) (A) (A) (A) (A) (A) (A) (A) (A) (A)
                 (A) (A) (A) (A) (A) (A) (A) (A) (A) (A) (A) (A)
                 (A) (A) (A) (A) (A) (A) (A) (A) (A) (A) (A) (A)
                 (A) (A) (A) (A) (A) (A) (A) (A) (A) (A) (A) (A)
                 (A) (A) (A) (A) (A) (A) (A) (A) (A) (A) (A) (A)
                 (A) (A) (A) (A) (A) (A) (A) (A) (A) (A) (A) (A)
                 (A) (A) (A) (A) (A) (A) (A) (A) (A) (A) (A) (A)
                 (A) (A) (A) (A) (A) (A) (A) (A) (A) (A) (A) (A)
                 (A) (A) (A) (A) (A) (A) (A) (A) (A) (A) (A) (A)
                 (A) (A) (A) (A) (A) (A) (A) (A) (A) (A) (A) (A)
                 (A) (A) (A) (A) (A) (A) (A) (A) (A) (A) (A) (A)
                 (A) (A) (A) (A) (A) (A) (A) (A) (A) (A) (A) (A)
                 (A) (A) (A) (A) (A) (A) (A) (A) (A) (A) (A) (A)
                 (A) (A) (A) (A) (A) (A) (A) (A) (A) (A) (A) (A)
                 (A) (A) (A) (A) (A) (A) (A) (A) (A) (A) (A) (A)
                 (A) (A) (A) (A) (A) (A) (A) (A) (A) (A) (A) (A)
                 (A) (A) (A) (A) (A) (A) (A) (A) (A) (A) (A) (A)
                 (A) (A) (A) (A) (A) (A) (A) (A) (A) (A) (A) (A)
                 (A) (A) (A) (A) (A) (A)
 The electronic state is 3-A.
 Alpha  occ. eigenvalues --  -24.55425 -24.54847 -19.21859 -14.38149 -14.35868
 Alpha  occ. eigenvalues --  -10.31293 -10.26958 -10.26584 -10.26437 -10.23966
 Alpha  occ. eigenvalues --  -10.23895 -10.23279 -10.22847 -10.21821 -10.20165
 Alpha  occ. eigenvalues --  -10.19565 -10.18951 -10.18877 -10.18790 -10.18761
 Alpha  occ. eigenvalues --  -10.18661 -10.18650 -10.18482 -10.18332 -10.18275
 Alpha  occ. eigenvalues --  -10.18220 -10.18125 -10.17143 -10.16404 -10.14792
 Alpha  occ. eigenvalues --  -10.14663  -4.08633  -2.70209  -2.69103  -2.67375
 Alpha  occ. eigenvalues --   -1.12343  -1.01387  -1.00746  -0.99163  -0.93935
 Alpha  occ. eigenvalues --   -0.86875  -0.84680  -0.83742  -0.83594  -0.81444
 Alpha  occ. eigenvalues --   -0.79179  -0.76753  -0.74269  -0.73933  -0.73578
 Alpha  occ. eigenvalues --   -0.70664  -0.69274  -0.68418  -0.67038  -0.66161
 Alpha  occ. eigenvalues --   -0.64819  -0.62218  -0.60735  -0.60425  -0.59329
 Alpha  occ. eigenvalues --   -0.59170  -0.57070  -0.55214  -0.53622  -0.52690
 Alpha  occ. eigenvalues --   -0.51930  -0.51136  -0.50411  -0.49799  -0.48015
 Alpha  occ. eigenvalues --   -0.47325  -0.46760  -0.45626  -0.45386  -0.44841
 Alpha  occ. eigenvalues --   -0.44545  -0.43849  -0.43497  -0.43300  -0.43028
 Alpha  occ. eigenvalues --   -0.42515  -0.41659  -0.41408  -0.41272  -0.40752
 Alpha  occ. eigenvalues --   -0.40037  -0.39789  -0.39377  -0.39109  -0.38774
 Alpha  occ. eigenvalues --   -0.38422  -0.37574  -0.36996  -0.36293  -0.35981
 Alpha  occ. eigenvalues --   -0.35615  -0.35230  -0.35011  -0.34593  -0.34179
 Alpha  occ. eigenvalues --   -0.34041  -0.33811  -0.33267  -0.32984  -0.32596
 Alpha  occ. eigenvalues --   -0.32192  -0.31686  -0.31002  -0.30560  -0.30456
 Alpha  occ. eigenvalues --   -0.29255  -0.28077  -0.27076  -0.26682  -0.25467
 Alpha  occ. eigenvalues --   -0.25091  -0.24663  -0.24286  -0.23936  -0.23866
 Alpha  occ. eigenvalues --   -0.23613  -0.22979
 Alpha virt. eigenvalues --   -0.08235  -0.04974  -0.00823   0.00132   0.00505
 Alpha virt. eigenvalues --    0.00646   0.01915   0.02570   0.02586   0.03720
 Alpha virt. eigenvalues --    0.04265   0.07852   0.08696   0.09441   0.09939
 Alpha virt. eigenvalues --    0.10618   0.10871   0.11790   0.12416   0.13441
 Alpha virt. eigenvalues --    0.13537   0.13858   0.14096   0.14542   0.14593
 Alpha virt. eigenvalues --    0.15055   0.15489   0.15885   0.15985   0.16303
 Alpha virt. eigenvalues --    0.16778   0.16948   0.17184   0.17861   0.18552
 Alpha virt. eigenvalues --    0.18694   0.18730   0.19264   0.19525   0.19968
 Alpha virt. eigenvalues --    0.20446   0.20686   0.21122   0.21989   0.22332
 Alpha virt. eigenvalues --    0.22666   0.23352   0.24132   0.24305   0.24751
 Alpha virt. eigenvalues --    0.25078   0.25509   0.26050   0.26413   0.26689
 Alpha virt. eigenvalues --    0.27122   0.27503   0.27883   0.28355   0.28940
 Alpha virt. eigenvalues --    0.30001   0.30504   0.30982   0.31495   0.31649
 Alpha virt. eigenvalues --    0.32604   0.33425   0.34178   0.34367   0.34945
 Alpha virt. eigenvalues --    0.35878   0.37833   0.38055   0.38965   0.39390
 Alpha virt. eigenvalues --    0.41828   0.44764   0.46021   0.46678   0.48467
 Alpha virt. eigenvalues --    0.48906   0.49774   0.50386   0.50773   0.51868
 Alpha virt. eigenvalues --    0.52065   0.52652   0.52910   0.53081   0.53864
 Alpha virt. eigenvalues --    0.54482   0.55095   0.55407   0.55709   0.56300
 Alpha virt. eigenvalues --    0.56735   0.57067   0.57683   0.57914   0.58254
 Alpha virt. eigenvalues --    0.58561   0.58971   0.59299   0.59561   0.60077
 Alpha virt. eigenvalues --    0.60483   0.60782   0.61328   0.61512   0.61841
 Alpha virt. eigenvalues --    0.62109   0.62728   0.63104   0.63207   0.64112
 Alpha virt. eigenvalues --    0.64286   0.65355   0.65698   0.65972   0.66562
 Alpha virt. eigenvalues --    0.66975   0.67574   0.67985   0.68850   0.69165
 Alpha virt. eigenvalues --    0.69924   0.70412   0.70862   0.71482   0.72981
 Alpha virt. eigenvalues --    0.73305   0.73957   0.74777   0.75867   0.76277
 Alpha virt. eigenvalues --    0.77268   0.78263   0.79060   0.79872   0.80134
 Alpha virt. eigenvalues --    0.80754   0.80977   0.81721   0.82271   0.82941
 Alpha virt. eigenvalues --    0.83659   0.84240   0.84424   0.84571   0.85281
 Alpha virt. eigenvalues --    0.85566   0.85879   0.86133   0.87118   0.87346
 Alpha virt. eigenvalues --    0.87791   0.88301   0.88440   0.89236   0.89696
 Alpha virt. eigenvalues --    0.90438   0.90579   0.91147   0.91586   0.91962
 Alpha virt. eigenvalues --    0.92144   0.92715   0.92781   0.93143   0.94432
 Alpha virt. eigenvalues --    0.94835   0.95364   0.95962   0.96495   0.96625
 Alpha virt. eigenvalues --    0.97306   0.97512   0.97851   0.98689   0.98942
 Alpha virt. eigenvalues --    0.99491   0.99755   1.00394   1.00857   1.01482
 Alpha virt. eigenvalues --    1.02739   1.03391   1.04803   1.05904   1.06221
 Alpha virt. eigenvalues --    1.07414   1.09027   1.09530   1.11350   1.11608
 Alpha virt. eigenvalues --    1.12942   1.13657   1.14240   1.14632   1.16107
 Alpha virt. eigenvalues --    1.17034   1.17978   1.18556   1.19121   1.20681
 Alpha virt. eigenvalues --    1.21508   1.22158   1.23098   1.24093   1.25307
 Alpha virt. eigenvalues --    1.25825   1.26762   1.27069   1.27890   1.30315
 Alpha virt. eigenvalues --    1.30597   1.31328   1.32618   1.35843   1.37828
 Alpha virt. eigenvalues --    1.39830   1.40449   1.41578   1.42417   1.42609
 Alpha virt. eigenvalues --    1.43843   1.43871   1.44136   1.44528   1.45369
 Alpha virt. eigenvalues --    1.45947   1.46807   1.47275   1.48219   1.48813
 Alpha virt. eigenvalues --    1.49614   1.50046   1.50653   1.50724   1.51835
 Alpha virt. eigenvalues --    1.52316   1.52526   1.52794   1.53655   1.54983
 Alpha virt. eigenvalues --    1.55583   1.56802   1.58614   1.59356   1.60909
 Alpha virt. eigenvalues --    1.62932   1.64087   1.65206   1.67464   1.68274
 Alpha virt. eigenvalues --    1.69864   1.70782   1.71517   1.73069   1.73747
 Alpha virt. eigenvalues --    1.74840   1.75379   1.76062   1.77227   1.78561
 Alpha virt. eigenvalues --    1.79037   1.79884   1.80312   1.81421   1.82174
 Alpha virt. eigenvalues --    1.83382   1.83726   1.84280   1.85467   1.85648
 Alpha virt. eigenvalues --    1.87387   1.87702   1.88142   1.88898   1.89972
 Alpha virt. eigenvalues --    1.90267   1.90839   1.91242   1.92192   1.92985
 Alpha virt. eigenvalues --    1.93176   1.93766   1.94313   1.94952   1.95756
 Alpha virt. eigenvalues --    1.96701   1.97223   1.98296   1.98787   1.99954
 Alpha virt. eigenvalues --    2.00782   2.01457   2.01870   2.03760   2.04141
 Alpha virt. eigenvalues --    2.05739   2.06248   2.07305   2.08123   2.08910
 Alpha virt. eigenvalues --    2.09909   2.10178   2.10594   2.11338   2.12794
 Alpha virt. eigenvalues --    2.13183   2.13376   2.14145   2.14221   2.15479
 Alpha virt. eigenvalues --    2.16003   2.16089   2.16310   2.17173   2.17769
 Alpha virt. eigenvalues --    2.18177   2.18854   2.19039   2.20226   2.21258
 Alpha virt. eigenvalues --    2.21993   2.22640   2.22919   2.24258   2.25506
 Alpha virt. eigenvalues --    2.26150   2.26799   2.26864   2.27424   2.28003
 Alpha virt. eigenvalues --    2.28395   2.29165   2.29449   2.30285   2.30980
 Alpha virt. eigenvalues --    2.31516   2.32249   2.33119   2.33693   2.34242
 Alpha virt. eigenvalues --    2.35630   2.36008   2.37696   2.39116   2.41593
 Alpha virt. eigenvalues --    2.43105   2.43621   2.44019   2.46813   2.47414
 Alpha virt. eigenvalues --    2.48828   2.50511   2.51327   2.54234   2.55833
 Alpha virt. eigenvalues --    2.56829   2.57175   2.57571   2.59047   2.59885
 Alpha virt. eigenvalues --    2.60659   2.60758   2.61511   2.63926   2.63958
 Alpha virt. eigenvalues --    2.65588   2.65760   2.66322   2.67610   2.68237
 Alpha virt. eigenvalues --    2.69304   2.70471   2.72489   2.72923   2.73228
 Alpha virt. eigenvalues --    2.74177   2.74503   2.75341   2.75535   2.76630
 Alpha virt. eigenvalues --    2.76897   2.77833   2.78037   2.78752   2.79475
 Alpha virt. eigenvalues --    2.80992   2.81408   2.82139   2.84109   2.85769
 Alpha virt. eigenvalues --    2.86676   2.89466   2.92031   2.93792   2.97688
 Alpha virt. eigenvalues --    2.98464   3.04834   3.07566   3.10623   3.12718
 Alpha virt. eigenvalues --    3.26721   3.35343   3.41528   3.42840   3.43002
 Alpha virt. eigenvalues --    3.49652   3.65355   3.82134   3.86003   4.08165
 Alpha virt. eigenvalues --    4.10584   4.12075   4.12570   4.13873   4.16953
 Alpha virt. eigenvalues --    4.18208   4.19412   4.20965   4.22986   4.26724
 Alpha virt. eigenvalues --    4.29406   4.31127   4.33319   4.35747   4.36284
 Alpha virt. eigenvalues --    4.38459   4.38746   4.40928   4.44861   4.46061
 Alpha virt. eigenvalues --    4.49563   4.57392   4.59928   4.65811   4.70520
 Alpha virt. eigenvalues --    4.71289   4.75686   4.77293   4.81280   4.89396
 Alpha virt. eigenvalues --    5.15017   5.97615   6.02268   6.09633   6.22108
 Alpha virt. eigenvalues --    6.32438  11.10738  17.63993  17.77270  18.03375
 Alpha virt. eigenvalues --   18.51836  18.92150  22.87830  23.00391  23.07837
 Alpha virt. eigenvalues --   26.07612  56.88265 118.93525 119.04430 119.10073
 Alpha virt. eigenvalues --  134.91665 379.94182 926.94901 927.76377 928.05967
 Alpha virt. eigenvalues -- 1461.28143**********
  Beta  occ. eigenvalues --  -24.55141 -24.54543 -19.21847 -14.38053 -14.35697
  Beta  occ. eigenvalues --  -10.31290 -10.26959 -10.26578 -10.26435 -10.23961
  Beta  occ. eigenvalues --  -10.23894 -10.23278 -10.22844 -10.21820 -10.20149
  Beta  occ. eigenvalues --  -10.19565 -10.18956 -10.18877 -10.18790 -10.18750
  Beta  occ. eigenvalues --  -10.18660 -10.18650 -10.18483 -10.18325 -10.18273
  Beta  occ. eigenvalues --  -10.18223 -10.18124 -10.17143 -10.16404 -10.14792
  Beta  occ. eigenvalues --  -10.14664  -3.97803  -2.57809  -2.57373  -2.57173
  Beta  occ. eigenvalues --   -1.12300  -1.00684  -1.00010  -0.99022  -0.93751
  Beta  occ. eigenvalues --   -0.86862  -0.84672  -0.83711  -0.83578  -0.81431
  Beta  occ. eigenvalues --   -0.79166  -0.76735  -0.74259  -0.73926  -0.73571
  Beta  occ. eigenvalues --   -0.70648  -0.69267  -0.68385  -0.67037  -0.66162
  Beta  occ. eigenvalues --   -0.64784  -0.62180  -0.60726  -0.60382  -0.59300
  Beta  occ. eigenvalues --   -0.59157  -0.57030  -0.55069  -0.53608  -0.52616
  Beta  occ. eigenvalues --   -0.51830  -0.51130  -0.50393  -0.49788  -0.47958
  Beta  occ. eigenvalues --   -0.47266  -0.46735  -0.45567  -0.45320  -0.44771
  Beta  occ. eigenvalues --   -0.44382  -0.43838  -0.43423  -0.43274  -0.42921
  Beta  occ. eigenvalues --   -0.42448  -0.41649  -0.41283  -0.41243  -0.40462
  Beta  occ. eigenvalues --   -0.39749  -0.39564  -0.39127  -0.38391  -0.37494
  Beta  occ. eigenvalues --   -0.36712  -0.36115  -0.35917  -0.35635  -0.35183
  Beta  occ. eigenvalues --   -0.34958  -0.34367  -0.34073  -0.33668  -0.33582
  Beta  occ. eigenvalues --   -0.33079  -0.32449  -0.32347  -0.31869  -0.31165
  Beta  occ. eigenvalues --   -0.30901  -0.30529  -0.30142  -0.29698  -0.29242
  Beta  occ. eigenvalues --   -0.28915  -0.26574  -0.26234  -0.25558  -0.24506
  Beta  occ. eigenvalues --   -0.24101  -0.24018  -0.23406  -0.22736  -0.22059
  Beta virt. eigenvalues --   -0.08376  -0.05127  -0.02805  -0.01467  -0.00569
  Beta virt. eigenvalues --    0.00368   0.00562   0.00739   0.01958   0.02592
  Beta virt. eigenvalues --    0.02885   0.03732   0.04416   0.07953   0.08750
  Beta virt. eigenvalues --    0.09800   0.10041   0.10884   0.11180   0.11807
  Beta virt. eigenvalues --    0.12461   0.13462   0.13693   0.13911   0.14182
  Beta virt. eigenvalues --    0.14570   0.14617   0.15090   0.15519   0.15903
  Beta virt. eigenvalues --    0.16045   0.16357   0.16800   0.17009   0.17232
  Beta virt. eigenvalues --    0.17983   0.18575   0.18731   0.18811   0.19288
  Beta virt. eigenvalues --    0.19597   0.19988   0.20468   0.20699   0.21144
  Beta virt. eigenvalues --    0.22015   0.22358   0.22686   0.23519   0.24169
  Beta virt. eigenvalues --    0.24441   0.24785   0.25204   0.25697   0.26149
  Beta virt. eigenvalues --    0.26457   0.26807   0.27218   0.27706   0.28008
  Beta virt. eigenvalues --    0.28387   0.29019   0.30058   0.30516   0.31004
  Beta virt. eigenvalues --    0.31515   0.31718   0.33024   0.33480   0.34235
  Beta virt. eigenvalues --    0.34435   0.35242   0.35908   0.38092   0.38207
  Beta virt. eigenvalues --    0.39063   0.39537   0.41912   0.44818   0.46086
  Beta virt. eigenvalues --    0.46735   0.48534   0.49082   0.49825   0.50461
  Beta virt. eigenvalues --    0.50829   0.51935   0.52151   0.52735   0.53003
  Beta virt. eigenvalues --    0.53124   0.53909   0.54565   0.55202   0.55485
  Beta virt. eigenvalues --    0.55735   0.56320   0.56822   0.57157   0.57725
  Beta virt. eigenvalues --    0.57988   0.58461   0.58635   0.59048   0.59375
  Beta virt. eigenvalues --    0.59676   0.60146   0.60531   0.60824   0.61378
  Beta virt. eigenvalues --    0.61551   0.61867   0.62182   0.62773   0.63141
  Beta virt. eigenvalues --    0.63276   0.64163   0.64410   0.65731   0.65882
  Beta virt. eigenvalues --    0.66129   0.66673   0.67104   0.67730   0.68103
  Beta virt. eigenvalues --    0.68896   0.69263   0.70121   0.70670   0.70980
  Beta virt. eigenvalues --    0.71556   0.73086   0.73413   0.74220   0.74898
  Beta virt. eigenvalues --    0.75994   0.76579   0.77353   0.78394   0.79141
  Beta virt. eigenvalues --    0.79906   0.80192   0.80890   0.81061   0.81847
  Beta virt. eigenvalues --    0.82452   0.83005   0.83687   0.84304   0.84462
  Beta virt. eigenvalues --    0.84593   0.85318   0.85639   0.85958   0.86153
  Beta virt. eigenvalues --    0.87155   0.87499   0.87991   0.88398   0.88566
  Beta virt. eigenvalues --    0.89375   0.89752   0.90467   0.90598   0.91238
  Beta virt. eigenvalues --    0.91630   0.92044   0.92232   0.92799   0.92863
  Beta virt. eigenvalues --    0.93285   0.94475   0.94878   0.95400   0.96005
  Beta virt. eigenvalues --    0.96524   0.96649   0.97422   0.97525   0.97966
  Beta virt. eigenvalues --    0.98742   0.99005   0.99720   0.99936   1.00455
  Beta virt. eigenvalues --    1.00948   1.01564   1.02851   1.03470   1.04964
  Beta virt. eigenvalues --    1.05942   1.06471   1.07508   1.09247   1.09605
  Beta virt. eigenvalues --    1.11643   1.12369   1.13107   1.13901   1.14335
  Beta virt. eigenvalues --    1.14904   1.16358   1.17111   1.18102   1.18619
  Beta virt. eigenvalues --    1.19190   1.20746   1.21682   1.22349   1.23164
  Beta virt. eigenvalues --    1.24387   1.25341   1.26046   1.27067   1.27130
  Beta virt. eigenvalues --    1.27949   1.30516   1.30977   1.31534   1.32697
  Beta virt. eigenvalues --    1.36014   1.38086   1.39939   1.40526   1.41739
  Beta virt. eigenvalues --    1.42468   1.42715   1.43894   1.43982   1.44273
  Beta virt. eigenvalues --    1.44609   1.45453   1.46007   1.46935   1.47443
  Beta virt. eigenvalues --    1.48272   1.48875   1.49657   1.50064   1.50703
  Beta virt. eigenvalues --    1.50827   1.51927   1.52351   1.52627   1.52878
  Beta virt. eigenvalues --    1.53754   1.55071   1.55676   1.57033   1.58781
  Beta virt. eigenvalues --    1.59606   1.61087   1.63060   1.64209   1.65385
  Beta virt. eigenvalues --    1.67712   1.68341   1.70159   1.71000   1.71669
  Beta virt. eigenvalues --    1.73304   1.73802   1.75039   1.75496   1.76181
  Beta virt. eigenvalues --    1.77325   1.78616   1.79138   1.80138   1.80453
  Beta virt. eigenvalues --    1.81553   1.82265   1.83463   1.83922   1.84381
  Beta virt. eigenvalues --    1.85631   1.85720   1.87495   1.87851   1.88276
  Beta virt. eigenvalues --    1.88976   1.90049   1.90353   1.90889   1.91301
  Beta virt. eigenvalues --    1.92364   1.93218   1.93303   1.93960   1.94456
  Beta virt. eigenvalues --    1.95155   1.95946   1.96998   1.97464   1.98421
  Beta virt. eigenvalues --    1.98827   2.00007   2.01088   2.02020   2.02238
  Beta virt. eigenvalues --    2.03992   2.04417   2.05895   2.06504   2.07464
  Beta virt. eigenvalues --    2.08222   2.09028   2.09976   2.10309   2.10857
  Beta virt. eigenvalues --    2.11370   2.13048   2.13247   2.13726   2.14378
  Beta virt. eigenvalues --    2.14708   2.15572   2.16081   2.16243   2.16403
  Beta virt. eigenvalues --    2.17270   2.17841   2.18212   2.19021   2.19162
  Beta virt. eigenvalues --    2.20614   2.21340   2.22077   2.22938   2.23133
  Beta virt. eigenvalues --    2.24437   2.25802   2.26173   2.26918   2.26964
  Beta virt. eigenvalues --    2.27645   2.28169   2.28435   2.29301   2.29735
  Beta virt. eigenvalues --    2.30365   2.31029   2.31548   2.32312   2.33266
  Beta virt. eigenvalues --    2.33807   2.34465   2.35756   2.36178   2.38040
  Beta virt. eigenvalues --    2.39428   2.41723   2.43706   2.44179   2.44354
  Beta virt. eigenvalues --    2.46921   2.47890   2.49225   2.50733   2.51909
  Beta virt. eigenvalues --    2.54924   2.56147   2.57062   2.57603   2.58455
  Beta virt. eigenvalues --    2.59322   2.59939   2.60816   2.60926   2.61823
  Beta virt. eigenvalues --    2.64209   2.64542   2.65686   2.66078   2.67071
  Beta virt. eigenvalues --    2.67897   2.69487   2.70480   2.71498   2.72790
  Beta virt. eigenvalues --    2.73249   2.74221   2.74389   2.74704   2.75511
  Beta virt. eigenvalues --    2.76019   2.76981   2.77503   2.78143   2.78364
  Beta virt. eigenvalues --    2.79609   2.80164   2.81319   2.81851   2.82502
  Beta virt. eigenvalues --    2.84814   2.86431   2.87253   2.90494   2.92671
  Beta virt. eigenvalues --    2.95495   2.97837   2.98940   3.05639   3.07590
  Beta virt. eigenvalues --    3.10788   3.13259   3.26839   3.38376   3.41571
  Beta virt. eigenvalues --    3.42976   3.43410   3.53108   3.69070   3.86650
  Beta virt. eigenvalues --    3.90217   4.08243   4.10591   4.12308   4.12675
  Beta virt. eigenvalues --    4.13917   4.17056   4.18231   4.19474   4.21055
  Beta virt. eigenvalues --    4.23172   4.26863   4.29492   4.31183   4.33339
  Beta virt. eigenvalues --    4.35768   4.36310   4.38485   4.38810   4.41014
  Beta virt. eigenvalues --    4.44891   4.46215   4.49623   4.57559   4.59967
  Beta virt. eigenvalues --    4.65866   4.70654   4.71332   4.75951   4.77442
  Beta virt. eigenvalues --    4.81492   4.92197   5.15603   6.00683   6.04752
  Beta virt. eigenvalues --    6.13199   6.33183   6.42714  11.16420  17.65661
  Beta virt. eigenvalues --   17.78571  18.05230  18.57617  18.97237  22.99114
  Beta virt. eigenvalues --   23.13195  23.19694  26.16509  56.98289 118.99147
  Beta virt. eigenvalues --  119.11440 119.17166 134.99149 379.41107 923.93782
  Beta virt. eigenvalues --  924.60259 924.608791452.20807**********
          Condensed to atoms (all electrons):
          Atomic-Atomic Spin Densities.
 Mulliken charges and spin densities:
               1          2
     1  C   -0.494496  -0.000054
     2  C    0.112822   0.000043
     3  C   -0.442103  -0.000017
     4  C   -0.486284   0.000021
     5  C   -0.267364   0.000008
     6  C   -0.013537   0.000499
     7  C   -0.083589   0.003087
     8  O   -0.513732   0.002838
     9  C    0.599976   0.001736
    10  C    0.332544   0.000311
    11  C   -0.164925   0.000309
    12  C   -0.103263   0.000384
    13  C   -0.162694   0.000872
    14  C    0.379156   0.000093
    15  C   -0.347267   0.000895
    16  C    0.139105  -0.000101
    17  C   -0.189287  -0.000149
    18  C   -0.132309   0.000106
    19  C   -0.125421  -0.000103
    20  C   -0.150942   0.000078
    21  C   -0.211018   0.000174
    22  C    0.130471   0.009479
    23  C   -0.168938  -0.005542
    24  C   -0.131098   0.008661
    25  C   -0.104145  -0.005256
    26  C   -0.089930   0.008897
    27  C   -0.220114  -0.004098
    28  N   -0.612492   0.027162
    29  N   -0.519250   0.052213
    30  H    0.126561   0.000059
    31  H    0.129258   0.000184
    32  H    0.216152  -0.001877
    33  H    0.132244  -0.000000
    34  H    0.141212   0.000001
    35  H    0.130880  -0.000004
    36  H    0.137963  -0.000005
    37  H    0.216617  -0.000277
    38  H    0.117095   0.000021
    39  H    0.131183  -0.000087
    40  H    0.133998  -0.000017
    41  H    0.199294   0.000690
    42  H    0.186498  -0.000209
    43  H    0.173800   0.000436
    44  H    0.178813   0.000189
    45  H    0.161890  -0.000052
    46  H    0.163085   0.000516
    47  H    0.157824  -0.000059
    48  H    0.121741   0.000020
    49  H    0.127320  -0.000009
    50  H    0.128079   0.000006
    51  H    0.142743   0.000000
    52  H    0.236888  -0.000272
    53  H    0.131810   0.000235
    54  H    0.137954  -0.000397
    55  H    0.141761   0.000209
    56  H    0.156103  -0.000423
    57  H    0.179320   0.000283
    58  Ni   0.618369   1.737067
    59  F   -0.455032   0.084093
    60  F   -0.461299   0.077132
 Sum of Mulliken charges =  -0.00000   2.00000
 Mulliken charges and spin densities with hydrogens summed into heavy atoms:
               1          2
     1  C   -0.022526  -0.001688
     2  C    0.112822   0.000043
     3  C   -0.037768  -0.000020
     4  C   -0.014610  -0.000240
     5  C   -0.002183  -0.000095
     6  C    0.185758   0.001189
     7  C    0.276709   0.003314
     8  O   -0.513732   0.002838
     9  C    0.599976   0.001736
    10  C    0.332544   0.000311
    11  C    0.013888   0.000498
    12  C    0.058627   0.000332
    13  C    0.000391   0.001388
    14  C    0.379156   0.000093
    15  C   -0.189444   0.000836
    16  C    0.139105  -0.000101
    17  C   -0.067545  -0.000130
    18  C   -0.004989   0.000097
    19  C    0.002658  -0.000098
    20  C   -0.008199   0.000078
    21  C    0.025870  -0.000098
    22  C    0.130471   0.009479
    23  C   -0.037128  -0.005308
    24  C    0.006856   0.008265
    25  C    0.037616  -0.005048
    26  C    0.066173   0.008475
    27  C   -0.040793  -0.003815
    28  N   -0.612492   0.027162
    29  N   -0.519250   0.052213
    58  Ni   0.618369   1.737067
    59  F   -0.455032   0.084093
    60  F   -0.461299   0.077132
 Electronic spatial extent (au):  <R**2>=          13161.5444
 Charge=             -0.0000 electrons
 Dipole moment (field-independent basis, Debye):
    X=              0.3174    Y=              5.0469    Z=              5.3053  Tot=              7.3293
 Quadrupole moment (field-independent basis, Debye-Ang):
   XX=           -174.7620   YY=           -179.5381   ZZ=           -193.5391
   XY=             -6.1483   XZ=              7.4222   YZ=              0.4316
 Traceless Quadrupole moment (field-independent basis, Debye-Ang):
   XX=              7.8510   YY=              3.0749   ZZ=            -10.9260
   XY=             -6.1483   XZ=              7.4222   YZ=              0.4316
 Octapole moment (field-independent basis, Debye-Ang**2):
  XXX=              2.9269  YYY=             37.9459  ZZZ=            -28.5948  XYY=            -27.5389
  XXY=             43.7200  XXZ=            -31.6197  XZZ=              7.9049  YZZ=             16.4243
  YYZ=              0.8399  XYZ=             34.2029
 Hexadecapole moment (field-independent basis, Debye-Ang**3):
 XXXX=         -11286.1653 YYYY=          -4061.2058 ZZZZ=          -1777.4305 XXXY=           -190.4406
 XXXZ=             80.1107 YYYX=             86.1615 YYYZ=            114.2099 ZZZX=             23.5856
 ZZZY=             -3.6945 XXYY=          -2670.5701 XXZZ=          -2146.0178 YYZZ=           -975.2181
 XXYZ=            -50.9200 YYXZ=             48.6136 ZZXY=             -1.3146
 N-N= 3.764256283385D+03 E-N=-1.118126377460D+04  KE= 1.486724065059D+03
                          Isotropic Fermi Contact Couplings
        Atom                 a.u.       MegaHertz       Gauss      10(-4) cm-1
     1  C(13)             -0.00070      -0.39314      -0.14028      -0.13114
     2  C(13)              0.00001       0.00536       0.00191       0.00179
     3  C(13)             -0.00008      -0.04679      -0.01670      -0.01561
     4  C(13)             -0.00003      -0.01643      -0.00586      -0.00548
     5  C(13)             -0.00000      -0.00224      -0.00080      -0.00075
     6  C(13)              0.00326       1.83401       0.65442       0.61176
     7  C(13)              0.00245       1.37566       0.49087       0.45887
     8  O(17)              0.00316      -0.95895      -0.34218      -0.31987
     9  C(13)             -0.00096      -0.53844      -0.19213      -0.17961
    10  C(13)             -0.00125      -0.70276      -0.25076      -0.23442
    11  C(13)              0.00033       0.18517       0.06607       0.06177
    12  C(13)              0.00030       0.16876       0.06022       0.05629
    13  C(13)              0.00135       0.75819       0.27054       0.25291
    14  C(13)             -0.00011      -0.06200      -0.02212      -0.02068
    15  C(13)              0.00070       0.39140       0.13966       0.13056
    16  C(13)             -0.00012      -0.06818      -0.02433      -0.02274
    17  C(13)             -0.00000      -0.00142      -0.00051      -0.00047
    18  C(13)              0.00001       0.00354       0.00126       0.00118
    19  C(13)             -0.00002      -0.01154      -0.00412      -0.00385
    20  C(13)              0.00000       0.00007       0.00003       0.00002
    21  C(13)              0.00004       0.02345       0.00837       0.00782
    22  C(13)              0.00142       0.79928       0.28520       0.26661
    23  C(13)             -0.00070      -0.39280      -0.14016      -0.13102
    24  C(13)              0.00090       0.50361       0.17970       0.16798
    25  C(13)             -0.00074      -0.41492      -0.14805      -0.13840
    26  C(13)              0.00086       0.48191       0.17196       0.16075
    27  C(13)              0.00062       0.35060       0.12510       0.11695
    28  N(14)              0.05577       9.01031       3.21510       3.00552
    29  N(14)              0.10457      16.89383       6.02814       5.63518
    30  H(1)               0.00005       0.10490       0.03743       0.03499
    31  H(1)               0.00009       0.20717       0.07392       0.06910
    32  H(1)               0.00013       0.29764       0.10621       0.09928
    33  H(1)               0.00000       0.00091       0.00033       0.00031
    34  H(1)               0.00000       0.00500       0.00178       0.00167
    35  H(1)               0.00000       0.00563       0.00201       0.00188
    36  H(1)               0.00000       0.00930       0.00332       0.00310
    37  H(1)               0.00001       0.01740       0.00621       0.00580
    38  H(1)               0.00001       0.02062       0.00736       0.00688
    39  H(1)              -0.00003      -0.06006      -0.02143      -0.02003
    40  H(1)               0.00000       0.00088       0.00032       0.00029
    41  H(1)               0.00030       0.66993       0.23905       0.22346
    42  H(1)              -0.00007      -0.15443      -0.05511      -0.05151
    43  H(1)               0.00016       0.35185       0.12555       0.11736
    44  H(1)               0.00012       0.27415       0.09782       0.09145
    45  H(1)              -0.00002      -0.05034      -0.01796      -0.01679
    46  H(1)               0.00019       0.42776       0.15264       0.14269
    47  H(1)               0.00002       0.04001       0.01428       0.01335
    48  H(1)               0.00000       0.00993       0.00354       0.00331
    49  H(1)              -0.00000      -0.00653      -0.00233      -0.00218
    50  H(1)               0.00000       0.00250       0.00089       0.00083
    51  H(1)               0.00000       0.00069       0.00024       0.00023
    52  H(1)              -0.00001      -0.03006      -0.01073      -0.01003
    53  H(1)               0.00007       0.16185       0.05775       0.05399
    54  H(1)              -0.00013      -0.28025      -0.10000      -0.09348
    55  H(1)               0.00007       0.15138       0.05402       0.05050
    56  H(1)              -0.00014      -0.32069      -0.11443      -0.10697
    57  H(1)               0.00016       0.35342       0.12611       0.11789
    58  Ni(61)             0.00000      -0.00022      -0.00008      -0.00007
    59  F(19)              0.04562      95.97065      34.24472      32.01236
    60  F(19)              0.03443      72.43365      25.84613      24.16127
 --------------------------------------------------------
       Center         ----  Spin Dipole Couplings  ----
                      3XX-RR        3YY-RR        3ZZ-RR
 --------------------------------------------------------
     1   Atom        0.005517     -0.004042     -0.001475
     2   Atom        0.006809     -0.003570     -0.003239
     3   Atom        0.002598     -0.001453     -0.001145
     4   Atom        0.006267     -0.002703     -0.003564
     5   Atom        0.007176     -0.003232     -0.003943
     6   Atom        0.014147     -0.005415     -0.008732
     7   Atom       -0.000827      0.006076     -0.005249
     8   Atom       -0.010017      0.021161     -0.011144
     9   Atom        0.000799      0.016799     -0.017598
    10   Atom       -0.010726      0.015953     -0.005227
    11   Atom       -0.003225      0.005056     -0.001831
    12   Atom       -0.001184      0.001778     -0.000595
    13   Atom       -0.000326      0.000324      0.000002
    14   Atom        0.011145     -0.005866     -0.005279
    15   Atom        0.007092     -0.005870     -0.001222
    16   Atom        0.006765     -0.003730     -0.003034
    17   Atom        0.003059     -0.001715     -0.001343
    18   Atom        0.002047     -0.000979     -0.001068
    19   Atom        0.002273     -0.001217     -0.001056
    20   Atom        0.003723     -0.001908     -0.001815
    21   Atom        0.008776     -0.004454     -0.004322
    22   Atom        0.008526     -0.007940     -0.000586
    23   Atom       -0.005936     -0.002937      0.008873
    24   Atom       -0.004186      0.003510      0.000676
    25   Atom       -0.006471      0.008647     -0.002176
    26   Atom       -0.003716      0.014416     -0.010699
    27   Atom        0.006353      0.004860     -0.011213
    28   Atom       -0.016914      0.038945     -0.022030
    29   Atom       -0.006059      0.077048     -0.070989
    30   Atom        0.002465     -0.004754      0.002289
    31   Atom        0.002080     -0.001334     -0.000746
    32   Atom        0.011112     -0.005966     -0.005146
    33   Atom        0.001849     -0.001299     -0.000550
    34   Atom        0.001845     -0.000967     -0.000878
    35   Atom        0.002126     -0.001101     -0.001026
    36   Atom        0.003447     -0.001049     -0.002398
    37   Atom        0.010415     -0.004646     -0.005769
    38   Atom        0.003975     -0.002031     -0.001944
    39   Atom        0.003954     -0.001666     -0.002288
    40   Atom        0.004063     -0.002186     -0.001877
    41   Atom        0.008890     -0.004985     -0.003905
    42   Atom       -0.000332      0.002209     -0.001877
    43   Atom        0.001458      0.000881     -0.002340
    44   Atom       -0.002234      0.003711     -0.001477
    45   Atom       -0.000621      0.001133     -0.000512
    46   Atom        0.001023     -0.000783     -0.000240
    47   Atom        0.002216     -0.003126      0.000910
    48   Atom        0.001984     -0.001273     -0.000711
    49   Atom        0.001340     -0.000680     -0.000660
    50   Atom        0.001419     -0.000748     -0.000671
    51   Atom        0.002651     -0.001672     -0.000979
    52   Atom        0.016176     -0.008207     -0.007969
    53   Atom       -0.003615     -0.003883      0.007498
    54   Atom       -0.003105      0.000572      0.002534
    55   Atom       -0.003472      0.005863     -0.002391
    56   Atom       -0.003602      0.008131     -0.004529
    57   Atom        0.009925     -0.001718     -0.008207
    58   Atom        0.385979      0.538465     -0.924444
    59   Atom        0.079917     -0.175321      0.095404
    60   Atom       -0.153755      0.229120     -0.075365
 --------------------------------------------------------
                        XY            XZ            YZ
 --------------------------------------------------------
     1   Atom        0.004339     -0.006965     -0.002544
     2   Atom        0.001101     -0.002449     -0.000220
     3   Atom        0.000438     -0.001300     -0.000139
     4   Atom        0.002446      0.000904      0.000304
     5   Atom       -0.002691     -0.001940      0.000488
     6   Atom       -0.010084      0.005372     -0.001243
     7   Atom       -0.005402      0.000985     -0.000585
     8   Atom        0.003491     -0.000940     -0.011333
     9   Atom       -0.005957     -0.004009      0.007097
    10   Atom        0.002278      0.003965      0.009654
    11   Atom        0.002019      0.000949      0.004715
    12   Atom        0.002619      0.001335      0.002716
    13   Atom        0.003616      0.003809      0.004335
    14   Atom        0.006469      0.008838      0.006146
    15   Atom       -0.000653      0.008970      0.000006
    16   Atom        0.000483      0.002567      0.000059
    17   Atom       -0.000229      0.001162     -0.000108
    18   Atom       -0.000029      0.000280      0.000040
    19   Atom        0.000175     -0.000397     -0.000065
    20   Atom        0.000818     -0.001288     -0.000169
    21   Atom        0.001772     -0.000772     -0.000353
    22   Atom       -0.015362      0.020948     -0.012301
    23   Atom       -0.000849      0.004707     -0.007444
    24   Atom       -0.006109      0.004367     -0.011920
    25   Atom        0.001071     -0.001154     -0.004480
    26   Atom       -0.014121      0.004249     -0.005569
    27   Atom       -0.017097      0.004004     -0.003673
    28   Atom        0.060595      0.029682      0.046408
    29   Atom       -0.100734     -0.011547      0.005601
    30   Atom        0.001084     -0.007457     -0.001132
    31   Atom        0.003202     -0.003691     -0.002166
    32   Atom        0.014217     -0.015091     -0.007578
    33   Atom        0.000051     -0.001577     -0.000025
    34   Atom        0.000883     -0.001065     -0.000298
    35   Atom        0.000111     -0.000588     -0.000015
    36   Atom        0.002732      0.000232      0.000141
    37   Atom        0.005094      0.004555      0.001576
    38   Atom        0.000840      0.001351      0.000209
    39   Atom       -0.001715     -0.000364      0.000101
    40   Atom       -0.002890     -0.003462      0.001271
    41   Atom       -0.006051      0.007716     -0.002347
    42   Atom       -0.003764      0.001471     -0.002282
    43   Atom       -0.003226     -0.000133      0.000006
    44   Atom        0.000296      0.000189      0.002297
    45   Atom        0.001398      0.000824      0.001501
    46   Atom        0.001829      0.002335      0.001458
    47   Atom       -0.000175      0.004963     -0.000064
    48   Atom       -0.000305      0.001420     -0.000132
    49   Atom       -0.000089      0.000245     -0.000010
    50   Atom        0.000134     -0.000422     -0.000029
    51   Atom        0.000919     -0.001979     -0.000421
    52   Atom        0.006671     -0.004325     -0.001760
    53   Atom       -0.000820      0.003616     -0.003440
    54   Atom        0.000553     -0.001053     -0.005195
    55   Atom        0.000611     -0.000250     -0.002819
    56   Atom       -0.004937     -0.000542      0.002610
    57   Atom       -0.010869     -0.002087      0.001136
    58   Atom        0.967565     -0.558616      0.353214
    59   Atom        0.142429     -0.410474     -0.165907
    60   Atom        0.262426     -0.110104     -0.058968
 --------------------------------------------------------


 ---------------------------------------------------------------------------------
              Anisotropic Spin Dipole Couplings in Principal Axis System
 ---------------------------------------------------------------------------------

       Atom             a.u.   MegaHertz   Gauss  10(-4) cm-1        Axes

              Baa    -0.0058    -0.784    -0.280    -0.261  0.5823 -0.5167  0.6277
     1 C(13)  Bbb    -0.0056    -0.752    -0.268    -0.251  0.0633  0.7985  0.5986
              Bcc     0.0114     1.536     0.548     0.512  0.8105  0.3088 -0.4977
 
              Baa    -0.0038    -0.512    -0.183    -0.171  0.2419 -0.2461  0.9386
     2 C(13)  Bbb    -0.0037    -0.493    -0.176    -0.165 -0.0398  0.9640  0.2630
              Bcc     0.0075     1.005     0.359     0.335  0.9695  0.1009 -0.2234
 
              Baa    -0.0016    -0.208    -0.074    -0.069  0.2953  0.0359  0.9547
     3 C(13)  Bbb    -0.0015    -0.201    -0.072    -0.067 -0.1076  0.9942 -0.0041
              Bcc     0.0031     0.410     0.146     0.137  0.9493  0.1015 -0.2974
 
              Baa    -0.0037    -0.492    -0.175    -0.164 -0.0341 -0.2216  0.9745
     4 C(13)  Bbb    -0.0033    -0.444    -0.159    -0.148 -0.2603  0.9434  0.2054
              Bcc     0.0070     0.936     0.334     0.312  0.9649  0.2467  0.0899
 
              Baa    -0.0043    -0.574    -0.205    -0.191  0.1488 -0.0776  0.9858
     5 C(13)  Bbb    -0.0039    -0.521    -0.186    -0.174  0.2427  0.9693  0.0397
              Bcc     0.0082     1.095     0.391     0.365  0.9586 -0.2334 -0.1631
 
              Baa    -0.0107    -1.431    -0.511    -0.477 -0.3911 -0.5826  0.7125
     6 C(13)  Bbb    -0.0088    -1.181    -0.421    -0.394  0.1583  0.7201  0.6756
              Bcc     0.0195     2.612     0.932     0.871  0.9067 -0.3770  0.1894
 
              Baa    -0.0055    -0.740    -0.264    -0.247 -0.3107 -0.0971  0.9455
     7 C(13)  Bbb    -0.0036    -0.482    -0.172    -0.161  0.8192  0.4771  0.3182
              Bcc     0.0091     1.222     0.436     0.407 -0.4820  0.8735 -0.0687
 
              Baa    -0.0147     1.066     0.380     0.356 -0.0353  0.3041  0.9520
     8 O(17)  Bbb    -0.0104     0.751     0.268     0.251  0.9941 -0.0868  0.0646
              Bcc     0.0251    -1.817    -0.648    -0.606  0.1023  0.9487 -0.2992
 
              Baa    -0.0194    -2.604    -0.929    -0.869  0.1441 -0.1674  0.9753
     9 C(13)  Bbb    -0.0011    -0.141    -0.050    -0.047  0.9357  0.3438 -0.0793
              Bcc     0.0205     2.745     0.980     0.916 -0.3220  0.9240  0.2062
 
              Baa    -0.0131    -1.759    -0.628    -0.587  0.8182  0.1225 -0.5617
    10 C(13)  Bbb    -0.0070    -0.939    -0.335    -0.313  0.5632 -0.3672  0.7402
              Bcc     0.0201     2.698     0.963     0.900  0.1156  0.9220  0.3695
 
              Baa    -0.0042    -0.568    -0.203    -0.190  0.1167 -0.4696  0.8752
    11 C(13)  Bbb    -0.0037    -0.492    -0.175    -0.164  0.9735 -0.1203 -0.1944
              Bcc     0.0079     1.060     0.378     0.354  0.1966  0.8747  0.4431
 
              Baa    -0.0028    -0.373    -0.133    -0.124  0.7417 -0.6023  0.2953
    12 C(13)  Bbb    -0.0022    -0.291    -0.104    -0.097 -0.5141 -0.2276  0.8270
              Bcc     0.0050     0.664     0.237     0.222  0.4308  0.7652  0.4784
 
              Baa    -0.0042    -0.570    -0.203    -0.190 -0.2857 -0.5308  0.7979
    13 C(13)  Bbb    -0.0036    -0.486    -0.173    -0.162  0.7920 -0.5996 -0.1153
              Bcc     0.0079     1.055     0.377     0.352  0.5396  0.5990  0.5917
 
              Baa    -0.0119    -1.593    -0.569    -0.531 -0.1036 -0.6546  0.7489
    14 C(13)  Bbb    -0.0061    -0.820    -0.293    -0.274 -0.5202  0.6774  0.5201
              Bcc     0.0180     2.414     0.861     0.805  0.8477  0.3357  0.4107
 
              Baa    -0.0071    -0.947    -0.338    -0.316 -0.5218 -0.2906  0.8020
    15 C(13)  Bbb    -0.0058    -0.775    -0.277    -0.259 -0.1328  0.9564  0.2602
              Bcc     0.0128     1.723     0.615     0.575  0.8427 -0.0292  0.5376
 
              Baa    -0.0038    -0.507    -0.181    -0.169 -0.1459  0.8900  0.4320
    16 C(13)  Bbb    -0.0036    -0.488    -0.174    -0.163 -0.1936 -0.4539  0.8698
              Bcc     0.0074     0.995     0.355     0.332  0.9702  0.0433  0.2385
 
              Baa    -0.0017    -0.235    -0.084    -0.078 -0.0509  0.9188  0.3914
    17 C(13)  Bbb    -0.0016    -0.216    -0.077    -0.072 -0.2403 -0.3916  0.8882
              Bcc     0.0034     0.451     0.161     0.150  0.9694 -0.0488  0.2407
 
              Baa    -0.0011    -0.149    -0.053    -0.050 -0.0867 -0.3164  0.9447
    18 C(13)  Bbb    -0.0010    -0.129    -0.046    -0.043 -0.0201  0.9486  0.3159
              Bcc     0.0021     0.278     0.099     0.093  0.9960 -0.0084  0.0886
 
              Baa    -0.0012    -0.166    -0.059    -0.056 -0.0123  0.9506  0.3101
    19 C(13)  Bbb    -0.0011    -0.146    -0.052    -0.049  0.1272 -0.3061  0.9435
              Bcc     0.0023     0.312     0.111     0.104  0.9918  0.0510 -0.1172
 
              Baa    -0.0021    -0.282    -0.101    -0.094  0.2329 -0.1445  0.9617
    20 C(13)  Bbb    -0.0020    -0.271    -0.097    -0.090 -0.1011  0.9800  0.1717
              Bcc     0.0041     0.553     0.197     0.185  0.9672  0.1372 -0.2136
 
              Baa    -0.0048    -0.647    -0.231    -0.216 -0.0864  0.8727  0.4806
    21 C(13)  Bbb    -0.0042    -0.568    -0.203    -0.190  0.1159 -0.4703  0.8749
              Bcc     0.0091     1.216     0.434     0.405  0.9895  0.1313 -0.0605
 
              Baa    -0.0175    -2.345    -0.837    -0.782 -0.6652 -0.1214  0.7367
    22 C(13)  Bbb    -0.0171    -2.288    -0.816    -0.763  0.2407  0.8992  0.3655
              Bcc     0.0345     4.633     1.653     1.545  0.7068 -0.4205  0.5689
 
              Baa    -0.0081    -1.081    -0.386    -0.360  0.7531 -0.4989 -0.4288
    23 C(13)  Bbb    -0.0055    -0.739    -0.264    -0.247  0.6160  0.7636  0.1936
              Bcc     0.0136     1.820     0.649     0.607  0.2309 -0.4100  0.8824
 
              Baa    -0.0101    -1.353    -0.483    -0.451  0.2147  0.6966  0.6845
    24 C(13)  Bbb    -0.0067    -0.896    -0.320    -0.299  0.9170  0.0974 -0.3867
              Bcc     0.0168     2.249     0.803     0.750 -0.3361  0.7108 -0.6179
 
              Baa    -0.0068    -0.907    -0.324    -0.303  0.9686  0.0049  0.2485
    25 C(13)  Bbb    -0.0036    -0.485    -0.173    -0.162 -0.2344  0.3516  0.9063
              Bcc     0.0104     1.393     0.497     0.465  0.0829  0.9361 -0.3417
 
              Baa    -0.0129    -1.725    -0.616    -0.575 -0.5921 -0.1447  0.7927
    26 C(13)  Bbb    -0.0107    -1.433    -0.511    -0.478  0.6508  0.4942  0.5764
              Bcc     0.0235     3.158     1.127     1.053 -0.4752  0.8572 -0.1985
 
              Baa    -0.0121    -1.622    -0.579    -0.541 -0.2440 -0.0361  0.9691
    27 C(13)  Bbb    -0.0115    -1.541    -0.550    -0.514  0.6562  0.7297  0.1924
              Bcc     0.0236     3.163     1.128     1.055  0.7141 -0.6829  0.1543
 
              Baa    -0.0557    -2.148    -0.767    -0.717  0.8417 -0.5399  0.0022
    28 N(14)  Bbb    -0.0465    -1.792    -0.639    -0.598 -0.2206 -0.3402  0.9141
              Bcc     0.1022     3.941     1.406     1.314  0.4928  0.7699  0.4055
 
              Baa    -0.0791    -3.049    -1.088    -1.017  0.6472  0.3942  0.6524
    29 N(14)  Bbb    -0.0660    -2.544    -0.908    -0.849 -0.5208 -0.3964  0.7561
              Bcc     0.1450     5.594     1.996     1.866 -0.5567  0.8291  0.0513
 
              Baa    -0.0051    -2.717    -0.969    -0.906  0.6637  0.2419  0.7078
    30 H(1)   Bbb    -0.0049    -2.620    -0.935    -0.874 -0.2439  0.9645 -0.1009
              Bcc     0.0100     5.336     1.904     1.780  0.7071  0.1056 -0.6992
 
              Baa    -0.0033    -1.760    -0.628    -0.587  0.6647 -0.3648  0.6520
    31 H(1)   Bbb    -0.0032    -1.720    -0.614    -0.574 -0.1028  0.8197  0.5635
              Bcc     0.0065     3.480     1.242     1.161  0.7400  0.4415 -0.5074
 
              Baa    -0.0147    -7.818    -2.790    -2.608  0.6268 -0.5183  0.5818
    32 H(1)   Bbb    -0.0131    -7.013    -2.502    -2.339 -0.0141  0.7390  0.6735
              Bcc     0.0278    14.831     5.292     4.947  0.7791  0.4304 -0.4559
 
              Baa    -0.0013    -0.711    -0.254    -0.237  0.4444 -0.0129  0.8957
    33 H(1)   Bbb    -0.0013    -0.693    -0.247    -0.231 -0.0073  0.9998  0.0180
              Bcc     0.0026     1.404     0.501     0.468  0.8958  0.0145 -0.4442
 
              Baa    -0.0012    -0.665    -0.237    -0.222  0.3698 -0.2006  0.9072
    34 H(1)   Bbb    -0.0012    -0.650    -0.232    -0.217 -0.1746  0.9440  0.2799
              Bcc     0.0025     1.315     0.469     0.439  0.9126  0.2619 -0.3140
 
              Baa    -0.0011    -0.604    -0.216    -0.202  0.1806 -0.1680  0.9691
    35 H(1)   Bbb    -0.0011    -0.589    -0.210    -0.196 -0.0026  0.9852  0.1712
              Bcc     0.0022     1.193     0.426     0.398  0.9836  0.0334 -0.1775
 
              Baa    -0.0024    -1.290    -0.460    -0.430  0.1104 -0.3171  0.9419
    36 H(1)   Bbb    -0.0023    -1.243    -0.443    -0.414 -0.4139  0.8470  0.3336
              Bcc     0.0047     2.533     0.904     0.845  0.9036  0.4267  0.0378
 
              Baa    -0.0070    -3.749    -1.338    -1.250 -0.1718 -0.2613  0.9499
    37 H(1)   Bbb    -0.0062    -3.294    -1.175    -1.099 -0.3360  0.9219  0.1928
              Bcc     0.0132     7.042     2.513     2.349  0.9260  0.2861  0.2462
 
              Baa    -0.0022    -1.198    -0.427    -0.399 -0.1722 -0.2553  0.9514
    38 H(1)   Bbb    -0.0021    -1.142    -0.408    -0.381 -0.1811  0.9576  0.2241
              Bcc     0.0044     2.340     0.835     0.781  0.9683  0.1337  0.2111
 
              Baa    -0.0023    -1.232    -0.440    -0.411  0.0559 -0.0077  0.9984
    39 H(1)   Bbb    -0.0021    -1.146    -0.409    -0.382  0.2702  0.9628 -0.0077
              Bcc     0.0045     2.378     0.849     0.793  0.9612 -0.2702 -0.0560
 
              Baa    -0.0035    -1.858    -0.663    -0.620  0.4801  0.2441  0.8425
    40 H(1)   Bbb    -0.0033    -1.753    -0.626    -0.585  0.1844  0.9109 -0.3690
              Bcc     0.0068     3.611     1.288     1.204  0.8576 -0.3325 -0.3924
 
              Baa    -0.0078    -4.162    -1.485    -1.388 -0.5063 -0.5066  0.6979
    41 H(1)   Bbb    -0.0069    -3.656    -1.304    -1.219  0.0169  0.8033  0.5954
              Bcc     0.0147     7.817     2.789     2.608  0.8622 -0.3133  0.3981
 
              Baa    -0.0031    -1.651    -0.589    -0.551  0.6528  0.6386  0.4075
    42 H(1)   Bbb    -0.0028    -1.476    -0.527    -0.492 -0.5248 -0.0067  0.8512
              Bcc     0.0059     3.127     1.116     1.043 -0.5463  0.7695 -0.3308
 
              Baa    -0.0024    -1.262    -0.450    -0.421  0.1969  0.1939  0.9610
    43 H(1)   Bbb    -0.0020    -1.091    -0.389    -0.364  0.6454  0.7122 -0.2760
              Bcc     0.0044     2.353     0.840     0.785  0.7380 -0.6747 -0.0151
 
              Baa    -0.0024    -1.273    -0.454    -0.425 -0.4693 -0.2914  0.8336
    44 H(1)   Bbb    -0.0022    -1.181    -0.421    -0.394  0.8816 -0.2083  0.4235
              Bcc     0.0046     2.454     0.876     0.819  0.0502  0.9337  0.3546
 
              Baa    -0.0014    -0.748    -0.267    -0.250  0.2508 -0.5919  0.7660
    45 H(1)   Bbb    -0.0014    -0.742    -0.265    -0.248  0.8676 -0.2135 -0.4491
              Bcc     0.0028     1.490     0.532     0.497  0.4293  0.7772  0.4600
 
              Baa    -0.0020    -1.090    -0.389    -0.364 -0.4428 -0.3246  0.8358
    46 H(1)   Bbb    -0.0019    -1.024    -0.366    -0.342 -0.5473  0.8362  0.0348
              Bcc     0.0040     2.114     0.754     0.705  0.7102  0.4420  0.5479
 
              Baa    -0.0035    -1.844    -0.658    -0.615 -0.6484 -0.2021  0.7340
    47 H(1)   Bbb    -0.0031    -1.662    -0.593    -0.554 -0.1200  0.9792  0.1635
              Bcc     0.0066     3.506     1.251     1.170  0.7518 -0.0179  0.6592
 
              Baa    -0.0013    -0.705    -0.252    -0.235 -0.3900  0.0547  0.9192
    48 H(1)   Bbb    -0.0013    -0.694    -0.248    -0.232  0.0996  0.9949 -0.0170
              Bcc     0.0026     1.399     0.499     0.467  0.9154 -0.0849  0.3935
 
              Baa    -0.0007    -0.368    -0.131    -0.123 -0.1260 -0.1958  0.9725
    49 H(1)   Bbb    -0.0007    -0.365    -0.130    -0.122  0.0191  0.9797  0.1997
              Bcc     0.0014     0.733     0.261     0.244  0.9919 -0.0437  0.1197
 
              Baa    -0.0008    -0.405    -0.144    -0.135  0.0475  0.8547  0.5169
    50 H(1)   Bbb    -0.0008    -0.401    -0.143    -0.134  0.1941 -0.5155  0.8346
              Bcc     0.0015     0.805     0.287     0.269  0.9798  0.0606 -0.1904
 
              Baa    -0.0019    -0.999    -0.356    -0.333  0.0818  0.8194  0.5673
    51 H(1)   Bbb    -0.0018    -0.981    -0.350    -0.327  0.4293 -0.5427  0.7220
              Bcc     0.0037     1.980     0.706     0.660  0.8995  0.1844 -0.3962
 
              Baa    -0.0102    -5.436    -1.940    -1.813 -0.1631  0.9027  0.3981
    52 H(1)   Bbb    -0.0085    -4.533    -1.618    -1.512  0.2531 -0.3517  0.9013
              Bcc     0.0187     9.969     3.557     3.325  0.9536  0.2478 -0.1711
 
              Baa    -0.0049    -2.640    -0.942    -0.881 -0.5008  0.7859  0.3627
    53 H(1)   Bbb    -0.0046    -2.430    -0.867    -0.811  0.8218  0.5632 -0.0858
              Bcc     0.0095     5.070     1.809     1.691  0.2717 -0.2551  0.9280
 
              Baa    -0.0038    -2.046    -0.730    -0.682  0.3779  0.6858  0.6219
    54 H(1)   Bbb    -0.0031    -1.675    -0.598    -0.559  0.9187 -0.3610 -0.1601
              Bcc     0.0070     3.721     1.328     1.241 -0.1147 -0.6319  0.7665
 
              Baa    -0.0035    -1.882    -0.672    -0.628  0.9746  0.0038  0.2239
    55 H(1)   Bbb    -0.0032    -1.733    -0.619    -0.578 -0.2145  0.3018  0.9289
              Bcc     0.0068     3.615     1.290     1.206  0.0641  0.9534 -0.2949
 
              Baa    -0.0056    -3.004    -1.072    -1.002  0.7770  0.3747 -0.5058
    56 H(1)   Bbb    -0.0048    -2.544    -0.908    -0.849  0.5339  0.0334  0.8449
              Bcc     0.0104     5.548     1.980     1.851 -0.3335  0.9265  0.1741
 
              Baa    -0.0085    -4.520    -1.613    -1.508  0.2639  0.2689  0.9263
    57 H(1)   Bbb    -0.0082    -4.369    -1.559    -1.457  0.4479  0.8164 -0.3645
              Bcc     0.0167     8.889     3.172     2.965  0.8543 -0.5111 -0.0950
 
              Baa    -1.4022    66.970    23.896    22.339  0.4548 -0.3739  0.8083
    58 Ni(61) Bbb    -0.0373     1.782     0.636     0.594 -0.5615  0.5841  0.5861
              Bcc     1.4395   -68.752   -24.532   -22.933  0.6912  0.7205 -0.0557
 
              Baa    -0.3252  -163.316   -58.275   -54.476  0.6755  0.1559  0.7207
    59 F(19)  Bbb    -0.2375  -119.298   -42.568   -39.793 -0.3116  0.9462  0.0873
              Bcc     0.5627   282.614   100.844    94.270 -0.6683 -0.2836  0.6877
 
              Baa    -0.3104  -155.892   -55.626   -52.000  0.8681 -0.3884  0.3092
    60 F(19)  Bbb    -0.0753   -37.799   -13.488   -12.608 -0.1799  0.3343  0.9251
              Bcc     0.3857   193.691    69.114    64.608  0.4627  0.8587 -0.2203
 

 ---------------------------------------------------------------------------------

 PrsmSu:  requested number of processors reduced to:  12 ShMem   1 Linda.
   1 Symmetry operations used in ECPInt.
 ECPInt:  NShTT=   20301 NPrTT=  123456 LenC2=   17174 LenP2D=   56656.
 LDataN:  DoStor=T MaxTD1= 7 Len=  274
 Number of processors reduced to  13 by ecpmxn.
 Calling FoFJK, ICntrl=      2127 FMM=T ISym2X=0 I1Cent= 0 IOpClX= 1 NMat=1 NMatS=1 NMatT=0.
 ***** Axes restored to original set *****
 -------------------------------------------------------------------
 Center     Atomic                   Forces (Hartrees/Bohr)
 Number     Number              X              Y              Z
 -------------------------------------------------------------------
      1        6           0.000002253    0.000003794   -0.000000032
      2        6           0.000010483   -0.000006126   -0.000002521
      3        6          -0.000001175   -0.000004343   -0.000001283
      4        6          -0.000000218   -0.000000353    0.000009756
      5        6          -0.000000138   -0.000003568   -0.000007999
      6        6           0.000008493    0.000009445   -0.000035114
      7        6           0.000000579    0.000056751    0.000027221
      8        8          -0.000001309   -0.000042326   -0.000008371
      9        6          -0.000003089   -0.000000978   -0.000000894
     10        6           0.000002752    0.000000599    0.000008561
     11        6          -0.000008243    0.000002787   -0.000006751
     12        6          -0.000001457    0.000000157   -0.000002410
     13        6           0.000004529   -0.000002104   -0.000005140
     14        6          -0.000003570    0.000018774    0.000013326
     15        6           0.000002139   -0.000025372   -0.000028798
     16        6           0.000009631    0.000025130   -0.000004427
     17        6          -0.000012821   -0.000008328    0.000002210
     18        6           0.000006731   -0.000004085    0.000007778
     19        6           0.000001893    0.000010886   -0.000003927
     20        6          -0.000013950   -0.000003775    0.000000352
     21        6           0.000005095   -0.000004005    0.000010617
     22        6           0.000004199    0.000007588    0.000015691
     23        6          -0.000007337   -0.000008857   -0.000011863
     24        6           0.000006002    0.000005058    0.000001421
     25        6           0.000008708   -0.000005851    0.000005882
     26        6          -0.000004436   -0.000004483    0.000000348
     27        6           0.000002381   -0.000000015   -0.000000190
     28        7          -0.000006741    0.000029465   -0.000021676
     29        7           0.000013341   -0.000001621    0.000011911
     30        1          -0.000000037   -0.000002418   -0.000001535
     31        1           0.000003784   -0.000002539   -0.000000735
     32        1           0.000000253   -0.000002008    0.000005512
     33        1           0.000001167   -0.000001388   -0.000002933
     34        1           0.000002704   -0.000002655    0.000000339
     35        1           0.000000233   -0.000001419    0.000000419
     36        1           0.000001525   -0.000000879    0.000002714
     37        1          -0.000003772   -0.000003555   -0.000002335
     38        1          -0.000001537   -0.000002036    0.000002746
     39        1          -0.000000495    0.000001218    0.000001167
     40        1           0.000000019   -0.000000879   -0.000001328
     41        1          -0.000000964    0.000001473    0.000005799
     42        1          -0.000008585   -0.000002989    0.000001089
     43        1          -0.000004419   -0.000000172   -0.000005231
     44        1           0.000000026    0.000001624   -0.000000751
     45        1          -0.000004129    0.000004678   -0.000006457
     46        1          -0.000003142    0.000002243   -0.000003501
     47        1           0.000001306    0.000003591    0.000003588
     48        1           0.000002094   -0.000000070   -0.000002592
     49        1          -0.000000982    0.000000939    0.000000225
     50        1          -0.000002560    0.000002924    0.000004164
     51        1          -0.000001792    0.000002345    0.000003040
     52        1          -0.000003959   -0.000003580    0.000003310
     53        1           0.000003109   -0.000002276   -0.000000289
     54        1           0.000003412   -0.000005817   -0.000000710
     55        1           0.000002353   -0.000003334    0.000001508
     56        1           0.000003393   -0.000002268    0.000003022
     57        1          -0.000001340    0.000000173    0.000001716
     58       28          -0.000011259   -0.000036928    0.000024135
     59        9          -0.000007863    0.000005312   -0.000000754
     60        9           0.000006732    0.000006446   -0.000009020
 -------------------------------------------------------------------
 Cartesian Forces:  Max     0.000056751 RMS     0.000009732

 GradGradGradGradGradGradGradGradGradGradGradGradGradGradGradGradGradGrad
 Berny optimization.
 FormGI is forming the generalized inverse of G from B-inverse, IUseBI=4.
 Internal  Forces:  Max     0.000042521 RMS     0.000006704
 Search for a local minimum.
 Step number   1 out of a maximum of  346
 All quantities printed in internal units (Hartrees-Bohrs-Radians)
 Mixed Optimization -- En-DIIS/RFO-DIIS
 Second derivative matrix not updated -- first step.
 ITU=  0
     Eigenvalues ---    0.00230   0.00230   0.00230   0.00256   0.00267
     Eigenvalues ---    0.00427   0.00447   0.00451   0.00560   0.01200
     Eigenvalues ---    0.01398   0.01398   0.01430   0.01509   0.01525
     Eigenvalues ---    0.01909   0.01935   0.02068   0.02087   0.02097
     Eigenvalues ---    0.02108   0.02111   0.02113   0.02133   0.02133
     Eigenvalues ---    0.02140   0.02143   0.02147   0.02148   0.02149
     Eigenvalues ---    0.02152   0.02156   0.02165   0.02170   0.02176
     Eigenvalues ---    0.02183   0.02213   0.02240   0.02397   0.02619
     Eigenvalues ---    0.02786   0.03934   0.04261   0.04325   0.04620
     Eigenvalues ---    0.04786   0.04851   0.05054   0.05071   0.05329
     Eigenvalues ---    0.05355   0.05388   0.05476   0.05517   0.05638
     Eigenvalues ---    0.05641   0.06046   0.06274   0.06808   0.09515
     Eigenvalues ---    0.10251   0.11194   0.11653   0.12699   0.13032
     Eigenvalues ---    0.13189   0.14005   0.14752   0.15987   0.15989
     Eigenvalues ---    0.15994   0.15997   0.15998   0.15999   0.16000
     Eigenvalues ---    0.16000   0.16000   0.16000   0.16000   0.16000
     Eigenvalues ---    0.16000   0.16000   0.16000   0.16000   0.16000
     Eigenvalues ---    0.16000   0.16000   0.16000   0.16000   0.16000
     Eigenvalues ---    0.18755   0.19158   0.19619   0.21052   0.22000
     Eigenvalues ---    0.22000   0.22000   0.22001   0.22058   0.22070
     Eigenvalues ---    0.22353   0.22476   0.23474   0.23482   0.23530
     Eigenvalues ---    0.24124   0.24897   0.24989   0.24998   0.24999
     Eigenvalues ---    0.25000   0.25000   0.25000   0.25000   0.26753
     Eigenvalues ---    0.27871   0.28368   0.28444   0.28649   0.28719
     Eigenvalues ---    0.29829   0.29977   0.30003   0.33497   0.33675
     Eigenvalues ---    0.33684   0.33850   0.33905   0.33929   0.33931
     Eigenvalues ---    0.33966   0.33976   0.34067   0.34157   0.34378
     Eigenvalues ---    0.34396   0.34621   0.34705   0.34745   0.34748
     Eigenvalues ---    0.35055   0.35061   0.35209   0.35213   0.35220
     Eigenvalues ---    0.35270   0.35333   0.35369   0.35390   0.35439
     Eigenvalues ---    0.35513   0.35574   0.35590   0.36076   0.41796
     Eigenvalues ---    0.41840   0.41872   0.41969   0.42072   0.44184
     Eigenvalues ---    0.45441   0.45648   0.45949   0.46083   0.46287
     Eigenvalues ---    0.46369   0.46416   0.46439   0.46872   0.47603
     Eigenvalues ---    0.52881   0.53248   0.57725   0.68365
 RFO step:  Lambda=-2.54997533D-07 EMin= 2.30000000D-03
 Linear search not attempted -- first point.
 Iteration  1 RMS(Cart)=  0.00232893 RMS(Int)=  0.00000114
 Iteration  2 RMS(Cart)=  0.00000204 RMS(Int)=  0.00000001
 Iteration  3 RMS(Cart)=  0.00000000 RMS(Int)=  0.00000001
 Variable       Old X    -DE/DX   Delta X   Delta X   Delta X     New X
                                 (Linear)    (Quad)   (Total)
    R1        2.91341  -0.00000   0.00000  -0.00000  -0.00000   2.91341
    R2        2.07449  -0.00000   0.00000  -0.00000  -0.00000   2.07449
    R3        2.07387  -0.00000   0.00000  -0.00000  -0.00000   2.07387
    R4        2.06086  -0.00000   0.00000  -0.00000  -0.00000   2.06086
    R5        2.91178  -0.00000   0.00000  -0.00001  -0.00001   2.91177
    R6        2.90741   0.00000   0.00000   0.00002   0.00002   2.90743
    R7        2.92421   0.00001   0.00000   0.00003   0.00003   2.92424
    R8        2.07447  -0.00000   0.00000  -0.00000  -0.00000   2.07447
    R9        2.07067   0.00000   0.00000   0.00000   0.00000   2.07067
   R10        2.07371  -0.00000   0.00000  -0.00000  -0.00000   2.07371
   R11        2.07218   0.00000   0.00000   0.00000   0.00000   2.07218
   R12        2.06697   0.00001   0.00000   0.00002   0.00002   2.06699
   R13        2.07584  -0.00000   0.00000  -0.00001  -0.00001   2.07584
   R14        2.90592  -0.00000   0.00000  -0.00001  -0.00001   2.90591
   R15        2.07867   0.00000   0.00000   0.00000   0.00000   2.07867
   R16        2.07883   0.00000   0.00000   0.00000   0.00000   2.07883
   R17        2.93367  -0.00002   0.00000  -0.00006  -0.00006   2.93361
   R18        2.78295   0.00001   0.00000   0.00002   0.00002   2.78297
   R19        2.06295   0.00000   0.00000   0.00000   0.00000   2.06295
   R20        2.77092   0.00004   0.00000   0.00012   0.00012   2.77104
   R21        2.06668  -0.00000   0.00000  -0.00000  -0.00000   2.06667
   R22        2.06091  -0.00000   0.00000  -0.00001  -0.00001   2.06091
   R23        2.53663  -0.00000   0.00000  -0.00000  -0.00000   2.53663
   R24        2.77262  -0.00003   0.00000  -0.00007  -0.00007   2.77255
   R25        2.42157  -0.00001   0.00000  -0.00002  -0.00002   2.42156
   R26        2.61969  -0.00000   0.00000  -0.00000  -0.00000   2.61969
   R27        2.55513  -0.00001   0.00000  -0.00002  -0.00002   2.55510
   R28        2.64350  -0.00000   0.00000  -0.00001  -0.00001   2.64350
   R29        2.04753  -0.00000   0.00000  -0.00000  -0.00000   2.04753
   R30        2.61933  -0.00000   0.00000  -0.00000  -0.00000   2.61933
   R31        2.05137  -0.00000   0.00000  -0.00000  -0.00000   2.05137
   R32        2.65771   0.00001   0.00000   0.00002   0.00002   2.65772
   R33        2.05046   0.00000   0.00000   0.00000   0.00000   2.05046
   R34        2.87958  -0.00001   0.00000  -0.00002  -0.00002   2.87956
   R35        2.51540  -0.00000   0.00000  -0.00000  -0.00000   2.51539
   R36        2.88010  -0.00001   0.00000  -0.00002  -0.00002   2.88008
   R37        2.88305   0.00001   0.00000   0.00003   0.00003   2.88308
   R38        2.07490  -0.00000   0.00000  -0.00000  -0.00000   2.07490
   R39        2.64179   0.00001   0.00000   0.00002   0.00002   2.64182
   R40        2.65032  -0.00001   0.00000  -0.00003  -0.00003   2.65029
   R41        2.63670  -0.00001   0.00000  -0.00001  -0.00001   2.63669
   R42        2.05586  -0.00000   0.00000  -0.00000  -0.00000   2.05586
   R43        2.63640   0.00001   0.00000   0.00001   0.00001   2.63641
   R44        2.05331  -0.00000   0.00000  -0.00000  -0.00000   2.05331
   R45        2.63885  -0.00001   0.00000  -0.00002  -0.00002   2.63883
   R46        2.05337  -0.00000   0.00000  -0.00000  -0.00000   2.05337
   R47        2.63613   0.00001   0.00000   0.00002   0.00002   2.63615
   R48        2.05319  -0.00000   0.00000  -0.00000  -0.00000   2.05319
   R49        2.06157  -0.00001   0.00000  -0.00002  -0.00002   2.06155
   R50        2.65314  -0.00001   0.00000  -0.00002  -0.00002   2.65312
   R51        2.64672   0.00000   0.00000   0.00000   0.00000   2.64672
   R52        2.63147   0.00001   0.00000   0.00001   0.00001   2.63149
   R53        2.05577   0.00000   0.00000   0.00000   0.00000   2.05577
   R54        2.63849  -0.00000   0.00000  -0.00000  -0.00000   2.63849
   R55        2.05239   0.00000   0.00000   0.00000   0.00000   2.05240
   R56        2.62868   0.00001   0.00000   0.00001   0.00001   2.62870
   R57        2.05080  -0.00000   0.00000  -0.00000  -0.00000   2.05080
   R58        2.64206  -0.00000   0.00000  -0.00000  -0.00000   2.64206
   R59        2.04969  -0.00000   0.00000  -0.00000  -0.00000   2.04969
   R60        2.04728   0.00000   0.00000   0.00001   0.00001   2.04729
   R61        3.86264   0.00002   0.00000   0.00015   0.00015   3.86279
   R62        3.49203   0.00001   0.00000   0.00003   0.00003   3.49206
   R63        3.45208  -0.00000   0.00000  -0.00001  -0.00001   3.45207
    A1        1.94807   0.00000   0.00000   0.00002   0.00002   1.94809
    A2        1.91541  -0.00000   0.00000  -0.00003  -0.00003   1.91538
    A3        1.93263   0.00000   0.00000   0.00003   0.00003   1.93266
    A4        1.87790  -0.00000   0.00000  -0.00001  -0.00001   1.87789
    A5        1.91679  -0.00000   0.00000   0.00001   0.00001   1.91679
    A6        1.87063  -0.00000   0.00000  -0.00003  -0.00003   1.87061
    A7        1.90120  -0.00000   0.00000  -0.00003  -0.00003   1.90117
    A8        1.90378  -0.00001   0.00000  -0.00006  -0.00006   1.90372
    A9        1.95925   0.00001   0.00000   0.00006   0.00006   1.95932
   A10        1.91701   0.00001   0.00000   0.00002   0.00002   1.91703
   A11        1.85342  -0.00000   0.00000   0.00001   0.00001   1.85342
   A12        1.92837  -0.00000   0.00000   0.00001   0.00001   1.92838
   A13        1.94237  -0.00000   0.00000  -0.00000  -0.00000   1.94237
   A14        1.92758   0.00000   0.00000   0.00000   0.00000   1.92758
   A15        1.94642  -0.00000   0.00000  -0.00000  -0.00000   1.94642
   A16        1.88021   0.00000   0.00000   0.00000   0.00000   1.88021
   A17        1.88316   0.00000   0.00000   0.00000   0.00000   1.88316
   A18        1.88154  -0.00000   0.00000  -0.00000  -0.00000   1.88154
   A19        1.92064   0.00000   0.00000   0.00003   0.00003   1.92066
   A20        1.92789  -0.00000   0.00000  -0.00003  -0.00003   1.92787
   A21        1.94407   0.00000   0.00000   0.00001   0.00001   1.94408
   A22        1.87295   0.00000   0.00000   0.00001   0.00001   1.87296
   A23        1.87666  -0.00000   0.00000   0.00000   0.00000   1.87666
   A24        1.91962  -0.00000   0.00000  -0.00002  -0.00002   1.91960
   A25        2.09601  -0.00000   0.00000  -0.00001  -0.00001   2.09600
   A26        1.87648   0.00000   0.00000  -0.00000  -0.00000   1.87648
   A27        1.90495  -0.00000   0.00000  -0.00001  -0.00001   1.90494
   A28        1.83522  -0.00000   0.00000  -0.00001  -0.00001   1.83520
   A29        1.88266   0.00000   0.00000   0.00003   0.00003   1.88269
   A30        1.85393   0.00000   0.00000   0.00001   0.00001   1.85394
   A31        1.93529  -0.00000   0.00000   0.00002   0.00002   1.93532
   A32        1.97295  -0.00001   0.00000  -0.00006  -0.00006   1.97289
   A33        1.93261  -0.00000   0.00000  -0.00002  -0.00002   1.93259
   A34        1.77141   0.00001   0.00000   0.00002   0.00002   1.77144
   A35        1.95227   0.00000   0.00000   0.00006   0.00006   1.95233
   A36        1.89406  -0.00000   0.00000  -0.00002  -0.00002   1.89404
   A37        1.81776  -0.00000   0.00000  -0.00002  -0.00002   1.81774
   A38        1.97940  -0.00000   0.00000  -0.00001  -0.00001   1.97938
   A39        1.98943   0.00000   0.00000   0.00006   0.00006   1.98950
   A40        1.86829  -0.00000   0.00000  -0.00007  -0.00007   1.86822
   A41        1.87459  -0.00000   0.00000  -0.00000  -0.00000   1.87458
   A42        1.92413   0.00000   0.00000   0.00003   0.00003   1.92416
   A43        1.82803  -0.00002   0.00000  -0.00007  -0.00007   1.82796
   A44        2.10310   0.00002   0.00000   0.00009   0.00009   2.10318
   A45        2.05980   0.00001   0.00000   0.00004   0.00004   2.05984
   A46        2.12020  -0.00003   0.00000  -0.00013  -0.00013   2.12007
   A47        2.15731   0.00002   0.00000   0.00008   0.00008   2.15739
   A48        1.97359  -0.00003   0.00000  -0.00013  -0.00013   1.97346
   A49        2.15226   0.00001   0.00000   0.00005   0.00005   2.15231
   A50        2.05153  -0.00000   0.00000  -0.00002  -0.00002   2.05151
   A51        2.09809   0.00000   0.00000   0.00001   0.00001   2.09810
   A52        2.13356   0.00000   0.00000   0.00001   0.00001   2.13357
   A53        2.07926  -0.00000   0.00000  -0.00001  -0.00001   2.07924
   A54        2.10026   0.00000   0.00000   0.00000   0.00000   2.10026
   A55        2.10366   0.00000   0.00000   0.00001   0.00001   2.10367
   A56        2.09131   0.00000   0.00000   0.00002   0.00002   2.09133
   A57        2.11416  -0.00000   0.00000  -0.00000  -0.00000   2.11416
   A58        2.07752  -0.00000   0.00000  -0.00002  -0.00002   2.07751
   A59        2.09103  -0.00001   0.00000  -0.00004  -0.00004   2.09099
   A60        2.10840  -0.00000   0.00000  -0.00000  -0.00000   2.10840
   A61        2.08320   0.00001   0.00000   0.00005   0.00005   2.08325
   A62        1.90323   0.00001   0.00000   0.00006   0.00006   1.90329
   A63        1.96538  -0.00000   0.00000  -0.00000  -0.00000   1.96538
   A64        1.84374   0.00000   0.00000   0.00003   0.00003   1.84377
   A65        2.01451  -0.00001   0.00000  -0.00005  -0.00005   2.01447
   A66        1.86343   0.00000   0.00000   0.00001   0.00001   1.86344
   A67        1.86233  -0.00000   0.00000  -0.00005  -0.00005   1.86228
   A68        2.08835  -0.00001   0.00000  -0.00003  -0.00003   2.08832
   A69        2.10683   0.00001   0.00000   0.00004   0.00004   2.10687
   A70        2.08798  -0.00000   0.00000  -0.00001  -0.00001   2.08798
   A71        2.10371   0.00000   0.00000   0.00000   0.00000   2.10371
   A72        2.08733  -0.00000   0.00000  -0.00001  -0.00001   2.08732
   A73        2.09213   0.00000   0.00000   0.00001   0.00001   2.09214
   A74        2.09178  -0.00000   0.00000  -0.00000  -0.00000   2.09178
   A75        2.09185   0.00000   0.00000   0.00001   0.00001   2.09185
   A76        2.09956  -0.00000   0.00000  -0.00000  -0.00000   2.09956
   A77        2.08952  -0.00000   0.00000  -0.00000  -0.00000   2.08952
   A78        2.09558   0.00000   0.00000   0.00000   0.00000   2.09558
   A79        2.09808  -0.00000   0.00000  -0.00000  -0.00000   2.09808
   A80        2.10663  -0.00000   0.00000  -0.00000  -0.00000   2.10663
   A81        2.09596   0.00000   0.00000   0.00000   0.00000   2.09597
   A82        2.08059  -0.00000   0.00000  -0.00000  -0.00000   2.08058
   A83        2.08672   0.00000   0.00000   0.00001   0.00001   2.08673
   A84        2.09899  -0.00000   0.00000  -0.00001  -0.00001   2.09898
   A85        2.09688   0.00000   0.00000   0.00000   0.00000   2.09688
   A86        2.06647  -0.00000   0.00000  -0.00001  -0.00001   2.06646
   A87        2.14462  -0.00000   0.00000  -0.00000  -0.00000   2.14462
   A88        2.07209   0.00000   0.00000   0.00001   0.00001   2.07210
   A89        2.10850   0.00000   0.00000  -0.00000  -0.00000   2.10850
   A90        2.08274   0.00000   0.00000   0.00001   0.00001   2.08275
   A91        2.09191  -0.00000   0.00000  -0.00001  -0.00001   2.09190
   A92        2.09476  -0.00000   0.00000  -0.00000  -0.00000   2.09476
   A93        2.09030  -0.00000   0.00000  -0.00001  -0.00001   2.09029
   A94        2.09799   0.00000   0.00000   0.00001   0.00001   2.09800
   A95        2.08877  -0.00000   0.00000  -0.00000  -0.00000   2.08877
   A96        2.09749   0.00000   0.00000   0.00001   0.00001   2.09750
   A97        2.09657  -0.00000   0.00000  -0.00001  -0.00001   2.09656
   A98        2.10187  -0.00000   0.00000   0.00000   0.00000   2.10187
   A99        2.09816   0.00000   0.00000  -0.00000  -0.00000   2.09816
   A100       2.08251  -0.00000   0.00000  -0.00000  -0.00000   2.08251
   A101       2.10036  -0.00000   0.00000  -0.00001  -0.00001   2.10035
   A102       2.09198   0.00000   0.00000   0.00001   0.00001   2.09199
   A103       2.09077  -0.00000   0.00000  -0.00000  -0.00000   2.09077
   A104       2.08357  -0.00001   0.00000  -0.00003  -0.00003   2.08354
   A105       1.88752  -0.00000   0.00000  -0.00002  -0.00002   1.88751
   A106       2.38601   0.00001   0.00000   0.00007   0.00007   2.38608
   A107       1.94275  -0.00001   0.00000  -0.00003  -0.00003   1.94272
   A108       1.78561   0.00001   0.00000   0.00001   0.00001   1.78561
   A109       1.72246  -0.00004   0.00000  -0.00018  -0.00018   1.72228
   A110       1.99557  -0.00001   0.00000  -0.00009  -0.00009   1.99548
    D1       -1.28818   0.00000   0.00000  -0.00054  -0.00054  -1.28872
    D2        2.90266  -0.00000   0.00000  -0.00051  -0.00051   2.90216
    D3        0.75940  -0.00000   0.00000  -0.00052  -0.00052   0.75888
    D4        0.79208  -0.00000   0.00000  -0.00055  -0.00055   0.79152
    D5       -1.30026  -0.00000   0.00000  -0.00052  -0.00052  -1.30079
    D6        2.83965  -0.00000   0.00000  -0.00053  -0.00053   2.83912
    D7        2.85375  -0.00000   0.00000  -0.00059  -0.00059   2.85316
    D8        0.76141  -0.00000   0.00000  -0.00055  -0.00055   0.76085
    D9       -1.38186  -0.00000   0.00000  -0.00056  -0.00056  -1.38242
   D10        1.06441   0.00000   0.00000   0.00019   0.00019   1.06461
   D11       -1.02307   0.00000   0.00000   0.00019   0.00019  -1.02289
   D12       -3.11488   0.00000   0.00000   0.00020   0.00020  -3.11469
   D13       -3.13464  -0.00000   0.00000   0.00011   0.00011  -3.13453
   D14        1.06106  -0.00000   0.00000   0.00010   0.00010   1.06116
   D15       -1.03075  -0.00000   0.00000   0.00011   0.00011  -1.03064
   D16       -1.04921  -0.00000   0.00000   0.00014   0.00014  -1.04908
   D17       -3.13670  -0.00000   0.00000   0.00013   0.00013  -3.13657
   D18        1.05468  -0.00000   0.00000   0.00014   0.00014   1.05481
   D19        1.14181  -0.00000   0.00000  -0.00011  -0.00011   1.14170
   D20       -0.92305  -0.00000   0.00000  -0.00013  -0.00013  -0.92318
   D21       -3.06179  -0.00000   0.00000  -0.00009  -0.00009  -3.06187
   D22       -0.94074   0.00000   0.00000  -0.00004  -0.00004  -0.94078
   D23       -3.00561   0.00000   0.00000  -0.00006  -0.00006  -3.00567
   D24        1.13885   0.00000   0.00000  -0.00002  -0.00002   1.13883
   D25       -2.97972   0.00000   0.00000  -0.00007  -0.00007  -2.97980
   D26        1.23860   0.00000   0.00000  -0.00009  -0.00009   1.23851
   D27       -0.90014   0.00000   0.00000  -0.00005  -0.00005  -0.90019
   D28        1.25505   0.00000   0.00000   0.00085   0.00085   1.25590
   D29       -2.93417   0.00000   0.00000   0.00082   0.00082  -2.93335
   D30       -0.93030   0.00000   0.00000   0.00083   0.00083  -0.92947
   D31       -2.95227   0.00000   0.00000   0.00085   0.00085  -2.95142
   D32       -0.85830  -0.00000   0.00000   0.00082   0.00082  -0.85748
   D33        1.14557  -0.00000   0.00000   0.00082   0.00082   1.14639
   D34       -0.87429   0.00001   0.00000   0.00088   0.00088  -0.87340
   D35        1.21968   0.00000   0.00000   0.00085   0.00085   1.22054
   D36       -3.05963   0.00000   0.00000   0.00086   0.00086  -3.05877
   D37        3.11346   0.00000   0.00000   0.00056   0.00056   3.11402
   D38       -1.19389   0.00000   0.00000   0.00057   0.00057  -1.19332
   D39        0.93559  -0.00000   0.00000   0.00048   0.00048   0.93608
   D40        0.99901   0.00000   0.00000   0.00058   0.00058   0.99959
   D41        2.97485   0.00000   0.00000   0.00059   0.00059   2.97544
   D42       -1.17886  -0.00000   0.00000   0.00051   0.00051  -1.17835
   D43       -0.97393   0.00000   0.00000   0.00057   0.00057  -0.97336
   D44        1.00192   0.00000   0.00000   0.00057   0.00057   1.00249
   D45        3.13140  -0.00000   0.00000   0.00049   0.00049   3.13189
   D46        1.78653  -0.00000   0.00000  -0.00013  -0.00013   1.78640
   D47       -2.47185  -0.00001   0.00000  -0.00023  -0.00023  -2.47208
   D48       -0.25085  -0.00000   0.00000  -0.00014  -0.00014  -0.25099
   D49       -0.31375   0.00000   0.00000  -0.00008  -0.00008  -0.31383
   D50        1.71106  -0.00000   0.00000  -0.00019  -0.00019   1.71087
   D51       -2.35112   0.00000   0.00000  -0.00010  -0.00010  -2.35122
   D52       -2.32996  -0.00000   0.00000  -0.00010  -0.00010  -2.33006
   D53       -0.30516  -0.00000   0.00000  -0.00020  -0.00020  -0.30536
   D54        1.91585   0.00000   0.00000  -0.00011  -0.00011   1.91573
   D55       -1.83625  -0.00000   0.00000  -0.00013  -0.00013  -1.83638
   D56        1.74320  -0.00000   0.00000  -0.00021  -0.00021   1.74299
   D57        0.23727  -0.00000   0.00000  -0.00012  -0.00012   0.23714
   D58       -2.46647  -0.00000   0.00000  -0.00020  -0.00020  -2.46667
   D59        2.29598   0.00000   0.00000  -0.00005  -0.00005   2.29593
   D60       -0.40776   0.00000   0.00000  -0.00013  -0.00013  -0.40788
   D61        0.28633   0.00000   0.00000   0.00025   0.00025   0.28657
   D62       -1.81487   0.00000   0.00000   0.00030   0.00030  -1.81457
   D63        2.40209   0.00000   0.00000   0.00031   0.00031   2.40240
   D64        2.97406  -0.00001   0.00000  -0.00064  -0.00064   2.97342
   D65       -0.15357  -0.00001   0.00000  -0.00038  -0.00038  -0.15394
   D66        0.08191   0.00002   0.00000   0.00127   0.00127   0.08318
   D67       -3.06672   0.00003   0.00000   0.00177   0.00177  -3.06495
   D68       -3.07414   0.00001   0.00000   0.00100   0.00100  -3.07314
   D69        0.06042   0.00002   0.00000   0.00149   0.00149   0.06192
   D70       -0.06500   0.00001   0.00000   0.00034   0.00034  -0.06466
   D71        2.75921   0.00002   0.00000   0.00042   0.00042   2.75963
   D72        3.09070   0.00002   0.00000   0.00060   0.00060   3.09130
   D73       -0.36828   0.00002   0.00000   0.00069   0.00069  -0.36759
   D74        3.13180   0.00000   0.00000   0.00024   0.00024   3.13204
   D75       -0.01165   0.00001   0.00000   0.00038   0.00038  -0.01126
   D76       -0.00205  -0.00001   0.00000  -0.00030  -0.00030  -0.00236
   D77        3.13769  -0.00000   0.00000  -0.00016  -0.00016   3.13752
   D78       -3.13983  -0.00000   0.00000  -0.00019  -0.00019  -3.14002
   D79       -0.00525   0.00001   0.00000   0.00031   0.00031  -0.00495
   D80        0.00522   0.00000   0.00000   0.00010   0.00010   0.00531
   D81       -3.14095   0.00000   0.00000   0.00005   0.00005  -3.14090
   D82       -3.13448  -0.00000   0.00000  -0.00005  -0.00005  -3.13453
   D83        0.00253  -0.00000   0.00000  -0.00010  -0.00010   0.00244
   D84       -0.00144   0.00000   0.00000   0.00009   0.00009  -0.00135
   D85        3.11937  -0.00000   0.00000  -0.00005  -0.00005   3.11932
   D86       -3.13845   0.00000   0.00000   0.00014   0.00014  -3.13831
   D87       -0.01764   0.00000   0.00000   0.00000   0.00000  -0.01763
   D88        3.09958  -0.00000   0.00000  -0.00009  -0.00009   3.09949
   D89       -0.00596  -0.00000   0.00000  -0.00010  -0.00010  -0.00606
   D90       -0.02167   0.00000   0.00000   0.00004   0.00004  -0.02163
   D91       -3.12721   0.00000   0.00000   0.00004   0.00004  -3.12717
   D92       -1.19093  -0.00000   0.00000   0.00026   0.00026  -1.19067
   D93        2.83250   0.00000   0.00000   0.00028   0.00028   2.83278
   D94        0.80623   0.00000   0.00000   0.00032   0.00032   0.80655
   D95        1.91514  -0.00000   0.00000   0.00027   0.00027   1.91540
   D96       -0.34462   0.00000   0.00000   0.00028   0.00028  -0.34434
   D97       -2.37089   0.00000   0.00000   0.00032   0.00032  -2.37057
   D98        0.00919  -0.00000   0.00000  -0.00010  -0.00010   0.00910
   D99       -3.09651  -0.00000   0.00000  -0.00010  -0.00010  -3.09661
   D100       2.22851   0.00000   0.00000  -0.00005  -0.00005   2.22845
   D101      -0.90620   0.00000   0.00000  -0.00010  -0.00010  -0.90630
   D102      -1.82226   0.00000   0.00000  -0.00004  -0.00004  -1.82230
   D103       1.32622   0.00000   0.00000  -0.00009  -0.00009   1.32613
   D104       0.24416  -0.00000   0.00000  -0.00012  -0.00012   0.24404
   D105      -2.89055  -0.00000   0.00000  -0.00017  -0.00017  -2.89072
   D106      -1.19641   0.00000   0.00000  -0.00029  -0.00029  -1.19670
   D107       1.94381   0.00000   0.00000  -0.00028  -0.00028   1.94353
   D108       2.88572  -0.00000   0.00000  -0.00033  -0.00033   2.88540
   D109      -0.25724  -0.00000   0.00000  -0.00032  -0.00032  -0.25756
   D110       0.81869  -0.00000   0.00000  -0.00028  -0.00028   0.81841
   D111      -2.32427  -0.00000   0.00000  -0.00028  -0.00028  -2.32455
   D112      -3.13920  -0.00000   0.00000  -0.00004  -0.00004  -3.13923
   D113       0.00895  -0.00000   0.00000  -0.00007  -0.00007   0.00888
   D114      -0.00441   0.00000   0.00000   0.00001   0.00001  -0.00440
   D115      -3.13945  -0.00000   0.00000  -0.00002  -0.00002  -3.13948
   D116      -3.14102   0.00000   0.00000   0.00004   0.00004  -3.14098
   D117      -0.03642   0.00000   0.00000   0.00004   0.00004  -0.03638
   D118       0.00746   0.00000   0.00000  -0.00000  -0.00000   0.00745
   D119       3.11206  -0.00000   0.00000  -0.00001  -0.00001   3.11205
   D120       0.00171  -0.00000   0.00000  -0.00002  -0.00002   0.00169
   D121      -3.14024  -0.00000   0.00000  -0.00000  -0.00000  -3.14025
   D122       3.13673   0.00000   0.00000   0.00002   0.00002   3.13675
   D123      -0.00522   0.00000   0.00000   0.00003   0.00003  -0.00519
   D124      -0.00207   0.00000   0.00000   0.00001   0.00001  -0.00205
   D125       3.14156   0.00000   0.00000   0.00004   0.00004  -3.14159
   D126       3.13988   0.00000   0.00000   0.00000   0.00000   3.13989
   D127       0.00033   0.00000   0.00000   0.00002   0.00002   0.00035
   D128       0.00522  -0.00000   0.00000  -0.00001  -0.00001   0.00521
   D129      -3.13326  -0.00000   0.00000  -0.00001  -0.00001  -3.13327
   D130      -3.13841  -0.00000   0.00000  -0.00003  -0.00003  -3.13844
   D131       0.00630  -0.00000   0.00000  -0.00003  -0.00003   0.00626
   D132      -0.00792  -0.00000   0.00000   0.00000   0.00000  -0.00791
   D133      -3.11256   0.00000   0.00000   0.00001   0.00001  -3.11256
   D134       3.13059   0.00000   0.00000   0.00001   0.00001   3.13059
   D135       0.02594   0.00000   0.00000   0.00001   0.00001   0.02595
   D136       3.13911  -0.00000   0.00000  -0.00003  -0.00003   3.13908
   D137       0.00568  -0.00000   0.00000  -0.00002  -0.00002   0.00566
   D138      -0.00117  -0.00000   0.00000  -0.00003  -0.00003  -0.00120
   D139      -3.13460  -0.00000   0.00000  -0.00003  -0.00003  -3.13462
   D140      -3.13508  -0.00000   0.00000  -0.00002  -0.00002  -3.13510
   D141      -0.00674  -0.00000   0.00000  -0.00001  -0.00001  -0.00674
   D142       0.00513  -0.00000   0.00000  -0.00001  -0.00001   0.00512
   D143       3.13348  -0.00000   0.00000  -0.00000  -0.00000   3.13348
   D144      -0.00357   0.00000   0.00000   0.00006   0.00006  -0.00351
   D145      -3.12746  -0.00000   0.00000  -0.00002  -0.00002  -3.12748
   D146       3.12982   0.00000   0.00000   0.00005   0.00005   3.12987
   D147       0.00593  -0.00000   0.00000  -0.00003  -0.00003   0.00590
   D148       0.00434  -0.00000   0.00000  -0.00004  -0.00004   0.00430
   D149      -3.10830  -0.00000   0.00000  -0.00003  -0.00003  -3.10833
   D150       3.12815   0.00000   0.00000   0.00004   0.00004   3.12819
   D151       0.01552   0.00000   0.00000   0.00005   0.00005   0.01556
   D152      -0.00038  -0.00000   0.00000  -0.00001  -0.00001  -0.00039
   D153      -3.10316   0.00000   0.00000   0.00004   0.00004  -3.10312
   D154       3.11227  -0.00000   0.00000  -0.00002  -0.00002   3.11226
   D155       0.00949   0.00000   0.00000   0.00003   0.00003   0.00952
   D156      -0.00441   0.00000   0.00000   0.00004   0.00004  -0.00437
   D157      -3.13276   0.00000   0.00000   0.00002   0.00002  -3.13274
   D158       3.09872  -0.00000   0.00000  -0.00001  -0.00001   3.09870
   D159      -0.02964  -0.00000   0.00000  -0.00003  -0.00003  -0.02966
   D160       1.62468  -0.00000   0.00000   0.00028   0.00028   1.62495
   D161      -0.42418   0.00001   0.00000   0.00043   0.00043  -0.42375
   D162      -1.06968  -0.00000   0.00000   0.00019   0.00019  -1.06948
   D163      -3.11853   0.00001   0.00000   0.00035   0.00035  -3.11818
         Item               Value     Threshold  Converged?
 Maximum Force            0.000043     0.000450     YES
 RMS     Force            0.000007     0.000300     YES
 Maximum Displacement     0.012485     0.001800     NO 
 RMS     Displacement     0.002329     0.001200     NO 
 Predicted change in Energy=-1.274981D-07
 GradGradGradGradGradGradGradGradGradGradGradGradGradGradGradGradGradGrad

 Stoichiometry    C26H28F2N2NiO(3)
 Framework group  C1[X(C26H28F2N2NiO)]
 Deg. of freedom   174
 Full point group                 C1      NOp   1
 Largest Abelian subgroup         C1      NOp   1
 Largest concise Abelian subgroup C1      NOp   1
                         Standard orientation:                         
 ---------------------------------------------------------------------
 Center     Atomic      Atomic             Coordinates (Angstroms)
 Number     Number       Type             X           Y           Z
 ---------------------------------------------------------------------
      1          6           0       -3.395328   -1.371357    1.080857
      2          6           0       -4.527651   -0.771453    0.223635
      3          6           0       -5.862326   -0.929228    0.977255
      4          6           0       -4.593828   -1.521435   -1.118104
      5          6           0       -4.342462    0.746546   -0.012930
      6          6           0       -3.238706    1.250651   -0.957521
      7          6           0       -3.269524    2.798787   -1.068287
      8          8           0       -2.164718    3.241493   -0.211752
      9          6           0       -1.416892    2.142711   -0.023946
     10          6           0       -0.099833    2.238582    0.615392
     11          6           0        0.412796    3.413048    1.144174
     12          6           0        1.679136    3.357420    1.735907
     13          6           0        2.359349    2.149993    1.761911
     14          6           0        1.771138    1.003511    1.198381
     15          6           0        2.541763   -0.310903    1.177893
     16          6           0        3.721777   -0.180881    0.222141
     17          6           0        5.007468   -0.509447    0.661931
     18          6           0        6.101288   -0.394602   -0.196649
     19          6           0        5.913464    0.053411   -1.504468
     20          6           0        4.630101    0.381775   -1.946195
     21          6           0        3.533031    0.272643   -1.091489
     22          6           0        1.637831   -1.517114    0.942090
     23          6           0        0.730828   -1.879186    1.950746
     24          6           0       -0.119802   -2.969504    1.787184
     25          6           0       -0.080503   -3.715371    0.607527
     26          6           0        0.814780   -3.366569   -0.398363
     27          6           0        1.673291   -2.275235   -0.235039
     28          7           0        0.562301    1.060049    0.644018
     29          7           0       -1.881929    1.020877   -0.432969
     30          1           0       -3.148653   -0.726048    1.933989
     31          1           0       -3.708556   -2.344281    1.480469
     32          1           0       -2.503569   -1.543149    0.477053
     33          1           0       -5.843689   -0.396252    1.936773
     34          1           0       -6.061010   -1.986296    1.186547
     35          1           0       -6.704114   -0.539239    0.391166
     36          1           0       -4.888291   -2.564496   -0.951549
     37          1           0       -3.611145   -1.533337   -1.598314
     38          1           0       -5.335645   -1.071909   -1.792128
     39          1           0       -5.281494    1.132601   -0.436182
     40          1           0       -4.212690    1.249608    0.956730
     41          1           0       -3.318244    0.771519   -1.935190
     42          1           0       -3.060385    3.166506   -2.076794
     43          1           0       -4.183184    3.252792   -0.682956
     44          1           0       -0.160296    4.331009    1.090298
     45          1           0        2.123614    4.250122    2.164764
     46          1           0        3.351702    2.074348    2.194183
     47          1           0        2.961686   -0.423594    2.186132
     48          1           0        5.152906   -0.863074    1.680434
     49          1           0        7.095587   -0.654170    0.156359
     50          1           0        6.762789    0.144177   -2.176104
     51          1           0        4.475877    0.723897   -2.965829
     52          1           0        2.530831    0.505625   -1.454028
     53          1           0        0.690341   -1.293278    2.866455
     54          1           0       -0.824024   -3.226598    2.573025
     55          1           0       -0.763480   -4.546547    0.464624
     56          1           0        0.828102   -3.917678   -1.332473
     57          1           0        2.360751   -2.007694   -1.028468
     58         28           0       -0.386473   -0.342596   -0.720887
     59          9           0        0.639589    0.467962   -2.026640
     60          9           0       -1.399193   -1.740301   -1.319104
 ---------------------------------------------------------------------
 Rotational constants (GHZ):           0.2273883           0.1036977           0.0862551
 Basis read from rwf:  (6D, 7F)
 Pseudo-potential data read from rwf file.
 There are   598 symmetry adapted cartesian basis functions of A   symmetry.
 There are   595 symmetry adapted basis functions of A   symmetry.
   595 basis functions,  1134 primitive gaussians,   598 cartesian basis functions
   122 alpha electrons      120 beta electrons
       nuclear repulsion energy      3764.6993766227 Hartrees.
 NAtoms=   60 NActive=   60 NUniq=   60 SFac= 1.00D+00 NAtFMM=   60 NAOKFM=T Big=T
 Integral buffers will be    131072 words long.
 Raffenetti 2 integral format.
 Two-electron integral symmetry is turned on.
 Nuclear repulsion after empirical dispersion term =     3764.5420251805 Hartrees.
 One-electron integrals computed using PRISM.
 PrsmSu:  requested number of processors reduced to:  12 ShMem   1 Linda.
   1 Symmetry operations used in ECPInt.
 ECPInt:  NShTT=   20301 NPrTT=  123456 LenC2=   17174 LenP2D=   56665.
 LDataN:  DoStor=T MaxTD1= 6 Len=  172
 Number of processors reduced to  12 by ecpmxn.
 NBasis=   595 RedAO= T EigKep=  6.97D-06  NBF=   595
 NBsUse=   594 1.00D-06 EigRej=  9.33D-07 NBFU=   594
 Initial guess from the checkpoint file:  "Lig2224_xyz_4.chk"
 B after Tr=     0.000000    0.000000    0.000000
         Rot=    1.000000    0.000154    0.000060   -0.000001 Ang=   0.02 deg.
 Initial guess <Sx>= 0.0000 <Sy>= 0.0000 <Sz>= 1.0000 <S**2>= 2.0053 S= 1.0018
 Requested convergence on RMS density matrix=1.00D-08 within 128 cycles.
 Requested convergence on MAX density matrix=1.00D-06.
 Requested convergence on             energy=1.00D-06.
 No special actions if energy rises.
 SCF Done:  E(UB3LYP) =  -1561.66771292     A.U. after   18 cycles
            NFock= 18  Conv=0.93D-08     -V/T= 2.0504
 <Sx>= 0.0000 <Sy>= 0.0000 <Sz>= 1.0000 <S**2>= 2.0053 S= 1.0018
 <L.S>=  0.00000000000    
 Annihilation of the first spin contaminant:
 S**2 before annihilation     2.0053,   after     2.0000
 PrsmSu:  requested number of processors reduced to:  12 ShMem   1 Linda.
   1 Symmetry operations used in ECPInt.
 ECPInt:  NShTT=   20301 NPrTT=  123456 LenC2=   17174 LenP2D=   56665.
 LDataN:  DoStor=T MaxTD1= 7 Len=  274
 Number of processors reduced to  13 by ecpmxn.
 Calling FoFJK, ICntrl=      2127 FMM=T ISym2X=0 I1Cent= 0 IOpClX= 1 NMat=1 NMatS=1 NMatT=0.
 ***** Axes restored to original set *****
 -------------------------------------------------------------------
 Center     Atomic                   Forces (Hartrees/Bohr)
 Number     Number              X              Y              Z
 -------------------------------------------------------------------
      1        6          -0.000010225   -0.000010421    0.000008933
      2        6          -0.000007209    0.000017723   -0.000005849
      3        6           0.000004750   -0.000009644    0.000003169
      4        6          -0.000001493    0.000013536   -0.000006868
      5        6           0.000005429   -0.000000826   -0.000006112
      6        6           0.000014863   -0.000008250   -0.000008034
      7        6          -0.000001255    0.000030998    0.000017468
      8        8          -0.000001912   -0.000015107   -0.000009179
      9        6           0.000009872   -0.000001558    0.000007397
     10        6          -0.000019009    0.000023208   -0.000027636
     11        6          -0.000013959   -0.000002407    0.000003069
     12        6           0.000002133   -0.000001187   -0.000005316
     13        6          -0.000011967    0.000016285   -0.000013769
     14        6          -0.000006431   -0.000005009    0.000006198
     15        6           0.000000765   -0.000009195   -0.000016512
     16        6          -0.000001253    0.000015116   -0.000001597
     17        6          -0.000004040   -0.000003806    0.000000205
     18        6           0.000001697   -0.000002062    0.000004493
     19        6          -0.000004419    0.000007198   -0.000001596
     20        6          -0.000007717   -0.000016836    0.000009355
     21        6          -0.000015298   -0.000005617   -0.000028196
     22        6          -0.000001428   -0.000009386   -0.000001808
     23        6           0.000013636   -0.000011351    0.000006103
     24        6          -0.000007129    0.000005741    0.000025434
     25        6           0.000009505   -0.000017250    0.000011025
     26        6          -0.000014950   -0.000032774    0.000013837
     27        6          -0.000029625    0.000012549    0.000025281
     28        7           0.000099166   -0.000095984    0.000053367
     29        7           0.000016172    0.000032741    0.000002055
     30        1           0.000000409    0.000000955   -0.000002113
     31        1           0.000000461   -0.000003793   -0.000002398
     32        1          -0.000005210    0.000005148   -0.000010308
     33        1           0.000004128   -0.000002927   -0.000000998
     34        1           0.000003265   -0.000002052   -0.000000421
     35        1          -0.000002254   -0.000003265   -0.000000055
     36        1           0.000006726   -0.000000633    0.000005138
     37        1           0.000006910   -0.000000653    0.000008050
     38        1           0.000009594    0.000000384    0.000005464
     39        1          -0.000001223   -0.000000093   -0.000000156
     40        1          -0.000000136    0.000002839   -0.000004747
     41        1          -0.000000496   -0.000002508    0.000002972
     42        1          -0.000005146    0.000000801    0.000000498
     43        1          -0.000004097    0.000000829   -0.000003362
     44        1          -0.000002490    0.000004820   -0.000002530
     45        1          -0.000002067    0.000002834   -0.000003542
     46        1          -0.000002340    0.000003006   -0.000001776
     47        1           0.000003012    0.000001025    0.000000256
     48        1           0.000000827   -0.000001357   -0.000000726
     49        1          -0.000001106    0.000000471    0.000000341
     50        1          -0.000003938    0.000000617    0.000003423
     51        1          -0.000004111    0.000002502    0.000001613
     52        1           0.000011119   -0.000017887    0.000036295
     53        1           0.000002754   -0.000002693   -0.000001983
     54        1           0.000004856   -0.000003584   -0.000002703
     55        1           0.000005932   -0.000002653   -0.000003772
     56        1           0.000003569   -0.000002322    0.000003339
     57        1           0.000019236    0.000003578    0.000002727
     58       28          -0.000058972   -0.000050543   -0.000023693
     59        9          -0.000048434    0.000135378   -0.000070864
     60        9           0.000040551    0.000015354    0.000001112
 -------------------------------------------------------------------
 Cartesian Forces:  Max     0.000135378 RMS     0.000020192

 GradGradGradGradGradGradGradGradGradGradGradGradGradGradGradGradGradGrad
 Berny optimization.
 Using GEDIIS/GDIIS optimizer.
 FormGI is forming the generalized inverse of G from B-inverse, IUseBI=4.
 Internal  Forces:  Max     0.000346852 RMS     0.000059826
 Search for a local minimum.
 Step number   2 out of a maximum of  346
 All quantities printed in internal units (Hartrees-Bohrs-Radians)
 Mixed Optimization -- En-DIIS/RFO-DIIS
 Swapping is turned off.
 Update second derivatives using D2CorX and points    1    2
 DE=  7.10D-07 DEPred=-1.27D-07 R=-5.56D+00
 Trust test=-5.56D+00 RLast= 4.96D-03 DXMaxT set to 1.50D-01
 ITU= -1  0
     Eigenvalues ---    0.00222   0.00230   0.00238   0.00256   0.00278
     Eigenvalues ---    0.00424   0.00447   0.00455   0.00552   0.01281
     Eigenvalues ---    0.01398   0.01422   0.01430   0.01518   0.01762
     Eigenvalues ---    0.01921   0.02048   0.02087   0.02094   0.02099
     Eigenvalues ---    0.02110   0.02111   0.02128   0.02132   0.02136
     Eigenvalues ---    0.02140   0.02143   0.02147   0.02149   0.02152
     Eigenvalues ---    0.02153   0.02165   0.02168   0.02172   0.02182
     Eigenvalues ---    0.02190   0.02212   0.02245   0.02353   0.02786
     Eigenvalues ---    0.03803   0.03925   0.04325   0.04619   0.04760
     Eigenvalues ---    0.04831   0.04975   0.05053   0.05321   0.05355
     Eigenvalues ---    0.05380   0.05426   0.05476   0.05637   0.05640
     Eigenvalues ---    0.06041   0.06247   0.06788   0.07406   0.09514
     Eigenvalues ---    0.10255   0.11188   0.11810   0.12614   0.13053
     Eigenvalues ---    0.13512   0.13989   0.14734   0.15957   0.15987
     Eigenvalues ---    0.15994   0.15997   0.15998   0.15999   0.15999
     Eigenvalues ---    0.16000   0.16000   0.16000   0.16000   0.16000
     Eigenvalues ---    0.16000   0.16000   0.16000   0.16000   0.16000
     Eigenvalues ---    0.16000   0.16000   0.16000   0.16000   0.16041
     Eigenvalues ---    0.18711   0.19219   0.19769   0.21016   0.21985
     Eigenvalues ---    0.22000   0.22000   0.22001   0.22021   0.22064
     Eigenvalues ---    0.22351   0.22792   0.23187   0.23476   0.23487
     Eigenvalues ---    0.23720   0.24208   0.24901   0.24994   0.24999
     Eigenvalues ---    0.24999   0.25000   0.25000   0.26710   0.27856
     Eigenvalues ---    0.28367   0.28439   0.28642   0.28716   0.29791
     Eigenvalues ---    0.29943   0.29976   0.33292   0.33674   0.33684
     Eigenvalues ---    0.33849   0.33905   0.33929   0.33930   0.33966
     Eigenvalues ---    0.33975   0.34066   0.34156   0.34354   0.34395
     Eigenvalues ---    0.34621   0.34675   0.34742   0.34746   0.34964
     Eigenvalues ---    0.35056   0.35062   0.35209   0.35213   0.35220
     Eigenvalues ---    0.35270   0.35333   0.35369   0.35390   0.35439
     Eigenvalues ---    0.35574   0.35580   0.35754   0.41744   0.41830
     Eigenvalues ---    0.41859   0.41966   0.42045   0.43470   0.45425
     Eigenvalues ---    0.45555   0.45948   0.46079   0.46199   0.46317
     Eigenvalues ---    0.46415   0.46437   0.46847   0.47551   0.51827
     Eigenvalues ---    0.52902   0.56885   0.67373   0.78230
 En-DIIS/RFO-DIIS/Sim-DIIS IScMMF=       -3 using points:     2    1
 RFO step:  Lambda=-1.98730818D-06.
 DidBck=T Rises=T En-DIIS coefs:    0.34858    0.65142
 Iteration  1 RMS(Cart)=  0.00180416 RMS(Int)=  0.00000069
 Iteration  2 RMS(Cart)=  0.00000128 RMS(Int)=  0.00000000
 Iteration  3 RMS(Cart)=  0.00000000 RMS(Int)=  0.00000000
 Variable       Old X    -DE/DX   Delta X   Delta X   Delta X     New X
                                 (Linear)    (Quad)   (Total)
    R1        2.91341   0.00001   0.00000  -0.00000   0.00000   2.91341
    R2        2.07449  -0.00000   0.00000  -0.00000  -0.00000   2.07449
    R3        2.07387  -0.00000   0.00000  -0.00000  -0.00000   2.07387
    R4        2.06086   0.00001   0.00000   0.00000   0.00000   2.06087
    R5        2.91177   0.00000   0.00001  -0.00002  -0.00001   2.91176
    R6        2.90743   0.00000  -0.00001   0.00002   0.00001   2.90744
    R7        2.92424   0.00000  -0.00002   0.00003   0.00002   2.92426
    R8        2.07447   0.00000   0.00000  -0.00000  -0.00000   2.07447
    R9        2.07067   0.00000  -0.00000   0.00000   0.00000   2.07067
   R10        2.07371  -0.00000   0.00000  -0.00000  -0.00000   2.07371
   R11        2.07218   0.00000  -0.00000   0.00000   0.00000   2.07218
   R12        2.06699  -0.00001  -0.00001   0.00002   0.00001   2.06700
   R13        2.07584   0.00000   0.00000  -0.00001  -0.00000   2.07584
   R14        2.90591  -0.00001   0.00001  -0.00002  -0.00001   2.90590
   R15        2.07867  -0.00000  -0.00000  -0.00000  -0.00000   2.07867
   R16        2.07883  -0.00000  -0.00000   0.00000   0.00000   2.07883
   R17        2.93361  -0.00002   0.00004  -0.00008  -0.00004   2.93357
   R18        2.78297   0.00004  -0.00001   0.00003   0.00002   2.78298
   R19        2.06295  -0.00000  -0.00000   0.00000  -0.00000   2.06295
   R20        2.77104  -0.00002  -0.00008   0.00013   0.00005   2.77109
   R21        2.06667  -0.00000   0.00000  -0.00000  -0.00000   2.06667
   R22        2.06091  -0.00000   0.00000  -0.00001  -0.00000   2.06090
   R23        2.53663   0.00001   0.00000   0.00000   0.00000   2.53663
   R24        2.77255   0.00012   0.00005  -0.00005   0.00000   2.77255
   R25        2.42156   0.00007   0.00001  -0.00001   0.00000   2.42156
   R26        2.61969   0.00001   0.00000   0.00000   0.00000   2.61969
   R27        2.55510   0.00013   0.00002   0.00000   0.00002   2.55512
   R28        2.64350  -0.00006   0.00000  -0.00002  -0.00002   2.64348
   R29        2.04753  -0.00000   0.00000  -0.00000  -0.00000   2.04753
   R30        2.61933  -0.00006   0.00000  -0.00002  -0.00002   2.61931
   R31        2.05137  -0.00000   0.00000  -0.00000  -0.00000   2.05137
   R32        2.65772  -0.00001  -0.00001   0.00002   0.00001   2.65773
   R33        2.05046  -0.00000  -0.00000   0.00000   0.00000   2.05046
   R34        2.87956   0.00008   0.00001   0.00001   0.00002   2.87958
   R35        2.51539   0.00014   0.00000   0.00002   0.00003   2.51542
   R36        2.88008   0.00001   0.00001  -0.00002  -0.00000   2.88008
   R37        2.88308   0.00003  -0.00002   0.00005   0.00003   2.88311
   R38        2.07490  -0.00000   0.00000  -0.00000  -0.00000   2.07490
   R39        2.64182   0.00001  -0.00001   0.00003   0.00001   2.64183
   R40        2.65029  -0.00003   0.00002  -0.00004  -0.00002   2.65027
   R41        2.63669  -0.00000   0.00001  -0.00001  -0.00001   2.63668
   R42        2.05586   0.00000   0.00000  -0.00000  -0.00000   2.05586
   R43        2.63641  -0.00000  -0.00001   0.00002   0.00001   2.63642
   R44        2.05331   0.00000   0.00000  -0.00000  -0.00000   2.05331
   R45        2.63883  -0.00000   0.00001  -0.00002  -0.00001   2.63883
   R46        2.05337   0.00000   0.00000  -0.00000   0.00000   2.05337
   R47        2.63615   0.00001  -0.00001   0.00002   0.00001   2.63616
   R48        2.05319   0.00000   0.00000   0.00000   0.00000   2.05319
   R49        2.06155  -0.00001   0.00001  -0.00002  -0.00001   2.06154
   R50        2.65312   0.00003   0.00001  -0.00001  -0.00000   2.65312
   R51        2.64672   0.00002  -0.00000   0.00001   0.00000   2.64673
   R52        2.63149   0.00001  -0.00001   0.00002   0.00001   2.63149
   R53        2.05577   0.00000  -0.00000   0.00000   0.00000   2.05577
   R54        2.63849  -0.00001   0.00000  -0.00000  -0.00000   2.63848
   R55        2.05240   0.00000  -0.00000   0.00000   0.00000   2.05240
   R56        2.62870   0.00001  -0.00001   0.00002   0.00001   2.62870
   R57        2.05080  -0.00000   0.00000  -0.00000  -0.00000   2.05079
   R58        2.64206  -0.00001   0.00000  -0.00000  -0.00000   2.64205
   R59        2.04969  -0.00000   0.00000  -0.00000  -0.00000   2.04968
   R60        2.04729  -0.00001  -0.00000   0.00000  -0.00000   2.04729
   R61        3.86279  -0.00000  -0.00010   0.00017   0.00007   3.86286
   R62        3.49206   0.00010  -0.00002   0.00009   0.00007   3.49212
   R63        3.45207   0.00001   0.00001  -0.00001  -0.00000   3.45207
    A1        1.94809   0.00000  -0.00001   0.00003   0.00001   1.94811
    A2        1.91538   0.00001   0.00002  -0.00003  -0.00001   1.91537
    A3        1.93266  -0.00002  -0.00002   0.00002   0.00000   1.93266
    A4        1.87789  -0.00000   0.00001  -0.00001  -0.00000   1.87789
    A5        1.91679   0.00001  -0.00000   0.00001   0.00000   1.91680
    A6        1.87061   0.00001   0.00002  -0.00003  -0.00001   1.87060
    A7        1.90117   0.00001   0.00002  -0.00003  -0.00001   1.90116
    A8        1.90372   0.00000   0.00004  -0.00007  -0.00003   1.90369
    A9        1.95932  -0.00000  -0.00004   0.00007   0.00003   1.95935
   A10        1.91703  -0.00001  -0.00002   0.00002   0.00000   1.91704
   A11        1.85342   0.00000  -0.00000   0.00001   0.00001   1.85343
   A12        1.92838   0.00000  -0.00001   0.00001   0.00000   1.92838
   A13        1.94237   0.00000   0.00000  -0.00000   0.00000   1.94237
   A14        1.92758   0.00000  -0.00000   0.00000   0.00000   1.92758
   A15        1.94642  -0.00000   0.00000  -0.00001  -0.00001   1.94641
   A16        1.88021  -0.00000  -0.00000   0.00000   0.00000   1.88021
   A17        1.88316   0.00000  -0.00000   0.00001   0.00000   1.88316
   A18        1.88154   0.00000   0.00000  -0.00001  -0.00000   1.88153
   A19        1.92066  -0.00000  -0.00002   0.00003   0.00001   1.92067
   A20        1.92787   0.00000   0.00002  -0.00003  -0.00001   1.92786
   A21        1.94408  -0.00001  -0.00000   0.00000  -0.00000   1.94407
   A22        1.87296   0.00000  -0.00001   0.00002   0.00001   1.87297
   A23        1.87666   0.00000  -0.00000  -0.00000  -0.00000   1.87666
   A24        1.91960   0.00001   0.00001  -0.00002  -0.00000   1.91959
   A25        2.09600  -0.00004   0.00001  -0.00004  -0.00003   2.09597
   A26        1.87648  -0.00001   0.00000  -0.00001  -0.00001   1.87647
   A27        1.90494   0.00004   0.00000   0.00001   0.00002   1.90496
   A28        1.83520   0.00003   0.00001   0.00001   0.00002   1.83522
   A29        1.88269  -0.00001  -0.00002   0.00002  -0.00000   1.88269
   A30        1.85394  -0.00001  -0.00001   0.00001   0.00001   1.85395
   A31        1.93532   0.00005  -0.00001   0.00007   0.00005   1.93537
   A32        1.97289  -0.00002   0.00004  -0.00007  -0.00003   1.97286
   A33        1.93259  -0.00000   0.00001  -0.00002  -0.00001   1.93258
   A34        1.77144  -0.00001  -0.00002   0.00002   0.00000   1.77144
   A35        1.95233  -0.00004  -0.00004   0.00002  -0.00002   1.95231
   A36        1.89404   0.00001   0.00001  -0.00001  -0.00000   1.89404
   A37        1.81774  -0.00000   0.00001  -0.00004  -0.00002   1.81772
   A38        1.97938  -0.00001   0.00001  -0.00001  -0.00001   1.97938
   A39        1.98950   0.00001  -0.00004   0.00008   0.00004   1.98953
   A40        1.86822   0.00001   0.00005  -0.00008  -0.00003   1.86819
   A41        1.87458  -0.00001   0.00000  -0.00001  -0.00000   1.87458
   A42        1.92416  -0.00000  -0.00002   0.00004   0.00002   1.92418
   A43        1.82796   0.00007   0.00005  -0.00005  -0.00001   1.82796
   A44        2.10318  -0.00022  -0.00006   0.00000  -0.00006   2.10313
   A45        2.05984  -0.00009  -0.00003   0.00001  -0.00001   2.05983
   A46        2.12007   0.00031   0.00008  -0.00002   0.00007   2.12014
   A47        2.15739  -0.00030  -0.00005  -0.00004  -0.00009   2.15730
   A48        1.97346   0.00035   0.00009  -0.00000   0.00008   1.97355
   A49        2.15231  -0.00005  -0.00003   0.00004   0.00001   2.15232
   A50        2.05151   0.00007   0.00001   0.00001   0.00002   2.05153
   A51        2.09810  -0.00004  -0.00001  -0.00000  -0.00001   2.09809
   A52        2.13357  -0.00003  -0.00001  -0.00000  -0.00001   2.13356
   A53        2.07924  -0.00001   0.00001  -0.00003  -0.00002   2.07922
   A54        2.10026   0.00000  -0.00000   0.00001   0.00001   2.10027
   A55        2.10367   0.00000  -0.00001   0.00002   0.00001   2.10368
   A56        2.09133   0.00005  -0.00001   0.00004   0.00003   2.09136
   A57        2.11416  -0.00002   0.00000  -0.00001  -0.00001   2.11415
   A58        2.07751  -0.00003   0.00001  -0.00003  -0.00002   2.07749
   A59        2.09099  -0.00026   0.00003  -0.00016  -0.00013   2.09085
   A60        2.10840  -0.00001   0.00000  -0.00001  -0.00000   2.10839
   A61        2.08325   0.00027  -0.00003   0.00018   0.00014   2.08339
   A62        1.90329  -0.00004  -0.00004   0.00011   0.00007   1.90336
   A63        1.96538   0.00015   0.00000   0.00014   0.00014   1.96552
   A64        1.84377  -0.00005  -0.00002  -0.00005  -0.00007   1.84370
   A65        2.01447  -0.00002   0.00003  -0.00001   0.00002   2.01449
   A66        1.86344   0.00001  -0.00001  -0.00005  -0.00006   1.86338
   A67        1.86228  -0.00006   0.00003  -0.00016  -0.00013   1.86216
   A68        2.08832  -0.00003   0.00002  -0.00005  -0.00003   2.08829
   A69        2.10687   0.00003  -0.00003   0.00006   0.00003   2.10690
   A70        2.08798  -0.00000   0.00000  -0.00001  -0.00001   2.08797
   A71        2.10371   0.00001  -0.00000   0.00001   0.00000   2.10372
   A72        2.08732  -0.00000   0.00001  -0.00001  -0.00001   2.08731
   A73        2.09214  -0.00000  -0.00000   0.00001   0.00000   2.09214
   A74        2.09178  -0.00000   0.00000  -0.00000  -0.00000   2.09177
   A75        2.09185   0.00000  -0.00000   0.00001   0.00000   2.09186
   A76        2.09956   0.00000   0.00000  -0.00000  -0.00000   2.09955
   A77        2.08952  -0.00001   0.00000  -0.00000  -0.00000   2.08952
   A78        2.09558   0.00000  -0.00000   0.00000   0.00000   2.09558
   A79        2.09808   0.00000   0.00000   0.00000   0.00000   2.09809
   A80        2.10663   0.00000   0.00000   0.00000   0.00000   2.10663
   A81        2.09597  -0.00000  -0.00000   0.00000  -0.00000   2.09597
   A82        2.08058  -0.00000   0.00000  -0.00000  -0.00000   2.08058
   A83        2.08673   0.00000  -0.00000   0.00001   0.00000   2.08673
   A84        2.09898  -0.00004   0.00001  -0.00004  -0.00003   2.09895
   A85        2.09688   0.00004  -0.00000   0.00003   0.00003   2.09691
   A86        2.06646  -0.00002   0.00001  -0.00002  -0.00002   2.06644
   A87        2.14462   0.00004   0.00000   0.00001   0.00002   2.14464
   A88        2.07210  -0.00001  -0.00001   0.00001   0.00000   2.07210
   A89        2.10850   0.00001   0.00000   0.00000   0.00000   2.10851
   A90        2.08275  -0.00000  -0.00001   0.00002   0.00001   2.08276
   A91        2.09190  -0.00000   0.00001  -0.00002  -0.00001   2.09189
   A92        2.09476  -0.00000   0.00000  -0.00001  -0.00000   2.09475
   A93        2.09029   0.00000   0.00000  -0.00001  -0.00000   2.09029
   A94        2.09800   0.00000  -0.00001   0.00002   0.00001   2.09801
   A95        2.08877   0.00000   0.00000   0.00000   0.00000   2.08877
   A96        2.09750  -0.00000  -0.00001   0.00001   0.00001   2.09750
   A97        2.09656  -0.00000   0.00001  -0.00001  -0.00001   2.09655
   A98        2.10187   0.00001  -0.00000   0.00000   0.00000   2.10187
   A99        2.09816  -0.00001   0.00000  -0.00000  -0.00000   2.09816
   A100       2.08251  -0.00000   0.00000  -0.00000  -0.00000   2.08251
   A101       2.10035  -0.00000   0.00000  -0.00001  -0.00000   2.10035
   A102       2.09199  -0.00000  -0.00001   0.00001   0.00000   2.09199
   A103       2.09077   0.00000   0.00000  -0.00000   0.00000   2.09077
   A104       2.08354  -0.00005   0.00002  -0.00005  -0.00003   2.08351
   A105       1.88751   0.00003   0.00001  -0.00002  -0.00001   1.88749
   A106       2.38608  -0.00021  -0.00005  -0.00003  -0.00007   2.38600
   A107       1.94272   0.00016   0.00002   0.00003   0.00004   1.94277
   A108       1.78561  -0.00015  -0.00000  -0.00007  -0.00008   1.78553
   A109       1.72228  -0.00016   0.00012  -0.00030  -0.00018   1.72210
   A110       1.99548  -0.00005   0.00006  -0.00018  -0.00012   1.99536
    D1       -1.28872  -0.00001   0.00035  -0.00059  -0.00024  -1.28895
    D2        2.90216  -0.00000   0.00033  -0.00055  -0.00022   2.90194
    D3        0.75888   0.00000   0.00034  -0.00055  -0.00021   0.75867
    D4        0.79152  -0.00000   0.00036  -0.00060  -0.00024   0.79129
    D5       -1.30079   0.00000   0.00034  -0.00056  -0.00022  -1.30100
    D6        2.83912   0.00000   0.00035  -0.00056  -0.00021   2.83891
    D7        2.85316  -0.00000   0.00038  -0.00063  -0.00025   2.85291
    D8        0.76085   0.00000   0.00036  -0.00059  -0.00023   0.76062
    D9       -1.38242   0.00000   0.00037  -0.00060  -0.00023  -1.38265
   D10        1.06461  -0.00000  -0.00013   0.00022   0.00009   1.06470
   D11       -1.02289  -0.00000  -0.00012   0.00021   0.00009  -1.02280
   D12       -3.11469   0.00000  -0.00013   0.00022   0.00010  -3.11459
   D13       -3.13453   0.00000  -0.00007   0.00012   0.00005  -3.13448
   D14        1.06116   0.00000  -0.00007   0.00012   0.00005   1.06121
   D15       -1.03064   0.00000  -0.00007   0.00012   0.00005  -1.03059
   D16       -1.04908  -0.00000  -0.00009   0.00015   0.00006  -1.04902
   D17       -3.13657  -0.00000  -0.00009   0.00014   0.00005  -3.13652
   D18        1.05481  -0.00000  -0.00009   0.00015   0.00006   1.05487
   D19        1.14170   0.00001   0.00007  -0.00011  -0.00004   1.14166
   D20       -0.92318   0.00000   0.00008  -0.00013  -0.00005  -0.92323
   D21       -3.06187  -0.00000   0.00006  -0.00010  -0.00004  -3.06191
   D22       -0.94078   0.00000   0.00003  -0.00004  -0.00001  -0.94080
   D23       -3.00567  -0.00000   0.00004  -0.00006  -0.00003  -3.00569
   D24        1.13883  -0.00001   0.00001  -0.00003  -0.00001   1.13881
   D25       -2.97980   0.00000   0.00005  -0.00007  -0.00002  -2.97982
   D26        1.23851   0.00000   0.00006  -0.00009  -0.00004   1.23847
   D27       -0.90019  -0.00000   0.00003  -0.00006  -0.00002  -0.90021
   D28        1.25590  -0.00003  -0.00055   0.00001  -0.00054   1.25535
   D29       -2.93335  -0.00002  -0.00054  -0.00001  -0.00054  -2.93389
   D30       -0.92947  -0.00002  -0.00054   0.00001  -0.00053  -0.93001
   D31       -2.95142  -0.00002  -0.00055   0.00002  -0.00053  -2.95195
   D32       -0.85748  -0.00001  -0.00053   0.00000  -0.00053  -0.85801
   D33        1.14639  -0.00001  -0.00054   0.00001  -0.00052   1.14587
   D34       -0.87340  -0.00003  -0.00058   0.00005  -0.00052  -0.87392
   D35        1.22054  -0.00002  -0.00056   0.00003  -0.00053   1.22001
   D36       -3.05877  -0.00002  -0.00056   0.00005  -0.00051  -3.05929
   D37        3.11402  -0.00003  -0.00036  -0.00012  -0.00049   3.11353
   D38       -1.19332  -0.00002  -0.00037  -0.00010  -0.00047  -1.19379
   D39        0.93608  -0.00002  -0.00031  -0.00018  -0.00049   0.93558
   D40        0.99959  -0.00002  -0.00038  -0.00009  -0.00047   0.99912
   D41        2.97544  -0.00001  -0.00038  -0.00006  -0.00045   2.97499
   D42       -1.17835  -0.00001  -0.00033  -0.00015  -0.00048  -1.17883
   D43       -0.97336  -0.00003  -0.00037  -0.00011  -0.00048  -0.97384
   D44        1.00249  -0.00001  -0.00037  -0.00009  -0.00046   1.00203
   D45        3.13189  -0.00001  -0.00032  -0.00017  -0.00049   3.13139
   D46        1.78640  -0.00001   0.00008  -0.00024  -0.00015   1.78624
   D47       -2.47208  -0.00001   0.00015  -0.00036  -0.00021  -2.47230
   D48       -0.25099  -0.00000   0.00009  -0.00025  -0.00015  -0.25114
   D49       -0.31383  -0.00001   0.00005  -0.00020  -0.00015  -0.31398
   D50        1.71087  -0.00001   0.00012  -0.00032  -0.00020   1.71067
   D51       -2.35122  -0.00001   0.00006  -0.00021  -0.00015  -2.35136
   D52       -2.33006  -0.00000   0.00006  -0.00020  -0.00014  -2.33020
   D53       -0.30536   0.00000   0.00013  -0.00033  -0.00020  -0.30555
   D54        1.91573   0.00000   0.00007  -0.00021  -0.00014   1.91560
   D55       -1.83638   0.00000   0.00009   0.00003   0.00012  -1.83626
   D56        1.74299   0.00000   0.00014   0.00010   0.00024   1.74323
   D57        0.23714   0.00005   0.00008   0.00009   0.00017   0.23732
   D58       -2.46667   0.00005   0.00013   0.00016   0.00029  -2.46638
   D59        2.29593   0.00001   0.00003   0.00012   0.00015   2.29608
   D60       -0.40788   0.00001   0.00008   0.00019   0.00027  -0.40761
   D61        0.28657  -0.00001  -0.00016   0.00024   0.00008   0.28665
   D62       -1.81457  -0.00001  -0.00020   0.00031   0.00012  -1.81445
   D63        2.40240  -0.00001  -0.00020   0.00031   0.00011   2.40251
   D64        2.97342   0.00013   0.00042  -0.00019   0.00023   2.97365
   D65       -0.15394   0.00006   0.00024  -0.00021   0.00003  -0.15391
   D66        0.08318  -0.00016  -0.00083   0.00002  -0.00081   0.08237
   D67       -3.06495  -0.00026  -0.00115   0.00002  -0.00113  -3.06608
   D68       -3.07314  -0.00009  -0.00065   0.00005  -0.00060  -3.07374
   D69        0.06192  -0.00018  -0.00097   0.00005  -0.00092   0.06100
   D70       -0.06466  -0.00007  -0.00022   0.00009  -0.00013  -0.06480
   D71        2.75963  -0.00017  -0.00027   0.00002  -0.00025   2.75938
   D72        3.09130  -0.00014  -0.00039   0.00006  -0.00033   3.09097
   D73       -0.36759  -0.00024  -0.00045  -0.00000  -0.00045  -0.36804
   D74        3.13204  -0.00006  -0.00016  -0.00006  -0.00022   3.13182
   D75       -0.01126  -0.00007  -0.00025   0.00005  -0.00020  -0.01146
   D76       -0.00236   0.00005   0.00020  -0.00006   0.00013  -0.00222
   D77        3.13752   0.00004   0.00011   0.00005   0.00016   3.13768
   D78       -3.14002   0.00008   0.00012   0.00020   0.00032  -3.13970
   D79       -0.00495  -0.00002  -0.00020   0.00020  -0.00000  -0.00495
   D80        0.00531  -0.00004  -0.00006  -0.00008  -0.00014   0.00517
   D81       -3.14090  -0.00001  -0.00003  -0.00002  -0.00005  -3.14095
   D82       -3.13453  -0.00003   0.00003  -0.00019  -0.00016  -3.13469
   D83        0.00244  -0.00000   0.00006  -0.00013  -0.00007   0.00236
   D84       -0.00135  -0.00000  -0.00006   0.00008   0.00002  -0.00133
   D85        3.11932   0.00003   0.00003   0.00010   0.00013   3.11946
   D86       -3.13831  -0.00003  -0.00009   0.00002  -0.00007  -3.13838
   D87       -0.01763   0.00001  -0.00000   0.00004   0.00004  -0.01759
   D88        3.09949   0.00007   0.00006   0.00030   0.00036   3.09985
   D89       -0.00606   0.00004   0.00006   0.00005   0.00011  -0.00594
   D90       -0.02163   0.00004  -0.00003   0.00028   0.00026  -0.02137
   D91       -3.12717   0.00000  -0.00002   0.00003   0.00001  -3.12717
   D92       -1.19067   0.00000  -0.00017  -0.00008  -0.00025  -1.19091
   D93        2.83278  -0.00006  -0.00018  -0.00026  -0.00044   2.83233
   D94        0.80655  -0.00003  -0.00021  -0.00011  -0.00032   0.80623
   D95        1.91540   0.00003  -0.00017   0.00017  -0.00000   1.91540
   D96       -0.34434  -0.00003  -0.00018  -0.00002  -0.00020  -0.34454
   D97       -2.37057  -0.00000  -0.00021   0.00013  -0.00008  -2.37064
   D98        0.00910  -0.00003   0.00006  -0.00019  -0.00012   0.00897
   D99       -3.09661  -0.00005   0.00006  -0.00043  -0.00037  -3.09698
   D100       2.22845  -0.00008   0.00003  -0.00017  -0.00014   2.22832
   D101      -0.90630  -0.00007   0.00006  -0.00020  -0.00014  -0.90644
   D102      -1.82230   0.00008   0.00003   0.00011   0.00013  -1.82217
   D103       1.32613   0.00008   0.00006   0.00008   0.00013   1.32626
   D104       0.24404  -0.00000   0.00008  -0.00013  -0.00006   0.24398
   D105      -2.89072   0.00000   0.00011  -0.00016  -0.00006  -2.89077
   D106      -1.19670   0.00001   0.00019  -0.00026  -0.00007  -1.19677
   D107       1.94353   0.00005   0.00018   0.00002   0.00021   1.94373
   D108       2.88540  -0.00005   0.00021  -0.00052  -0.00031   2.88509
   D109      -0.25756  -0.00001   0.00021  -0.00024  -0.00003  -0.25760
   D110       0.81841  -0.00001   0.00018  -0.00034  -0.00016   0.81825
   D111      -2.32455   0.00003   0.00018  -0.00006   0.00012  -2.32443
   D112      -3.13923   0.00000   0.00002  -0.00003  -0.00000  -3.13923
   D113       0.00888   0.00000   0.00005  -0.00007  -0.00002   0.00886
   D114      -0.00440  -0.00000  -0.00001   0.00000  -0.00000  -0.00440
   D115      -3.13948  -0.00000   0.00002  -0.00004  -0.00002  -3.13950
   D116      -3.14098  -0.00000  -0.00003   0.00003   0.00001  -3.14097
   D117      -0.03638  -0.00001  -0.00003   0.00000  -0.00002  -0.03640
   D118       0.00745   0.00000   0.00000   0.00000   0.00001   0.00746
   D119       3.11205  -0.00000   0.00001  -0.00003  -0.00002   3.11203
   D120       0.00169   0.00000   0.00001  -0.00002  -0.00000   0.00169
   D121      -3.14025   0.00000   0.00000  -0.00000   0.00000  -3.14025
   D122       3.13675   0.00000  -0.00001   0.00003   0.00001   3.13676
   D123      -0.00519   0.00000  -0.00002   0.00004   0.00002  -0.00517
   D124      -0.00205   0.00000  -0.00001   0.00002   0.00001  -0.00205
   D125      -3.14159   0.00000  -0.00002   0.00004   0.00002  -3.14157
   D126       3.13989   0.00000  -0.00000   0.00001   0.00000   3.13989
   D127       0.00035   0.00000  -0.00002   0.00003   0.00001   0.00037
   D128       0.00521  -0.00000   0.00000  -0.00001  -0.00001   0.00521
   D129      -3.13327   0.00000   0.00001  -0.00001  -0.00000  -3.13327
   D130      -3.13844  -0.00000   0.00002  -0.00004  -0.00002  -3.13846
   D131       0.00626   0.00000   0.00002  -0.00004  -0.00001   0.00625
   D132      -0.00791  -0.00000  -0.00000  -0.00000  -0.00000  -0.00792
   D133      -3.11256   0.00001  -0.00000   0.00003   0.00003  -3.11253
   D134       3.13059  -0.00000  -0.00000   0.00000  -0.00000   3.13059
   D135       0.02595   0.00000  -0.00001   0.00003   0.00002   0.02597
   D136       3.13908   0.00004   0.00002   0.00021   0.00022   3.13930
   D137       0.00566   0.00003   0.00001   0.00017   0.00018   0.00584
   D138      -0.00120   0.00000   0.00002  -0.00006  -0.00004  -0.00124
   D139      -3.13462  -0.00001   0.00002  -0.00010  -0.00008  -3.13471
   D140      -3.13510  -0.00004   0.00001  -0.00029  -0.00028  -3.13538
   D141      -0.00674  -0.00003   0.00000  -0.00023  -0.00023  -0.00697
   D142       0.00512  -0.00001   0.00001  -0.00001  -0.00000   0.00512
   D143       3.13348   0.00000   0.00000   0.00005   0.00005   3.13352
   D144      -0.00351   0.00000  -0.00004   0.00009   0.00005  -0.00346
   D145      -3.12748  -0.00000   0.00001  -0.00002  -0.00001  -3.12748
   D146       3.12987   0.00001  -0.00003   0.00013   0.00009   3.12997
   D147       0.00590   0.00001   0.00002   0.00002   0.00004   0.00594
   D148       0.00430  -0.00000   0.00002  -0.00004  -0.00002   0.00428
   D149      -3.10833   0.00000   0.00002  -0.00003  -0.00001  -3.10834
   D150       3.12819   0.00000  -0.00003   0.00007   0.00004   3.12823
   D151       0.01556   0.00000  -0.00003   0.00007   0.00004   0.01561
   D152      -0.00039  -0.00000   0.00001  -0.00003  -0.00003  -0.00041
   D153      -3.10312   0.00000  -0.00002   0.00004   0.00001  -3.10311
   D154       3.11226  -0.00000   0.00001  -0.00004  -0.00003   3.11223
   D155       0.00952  -0.00000  -0.00002   0.00003   0.00001   0.00953
   D156      -0.00437   0.00001  -0.00002   0.00006   0.00004  -0.00434
   D157      -3.13274  -0.00000  -0.00002   0.00000  -0.00001  -3.13275
   D158       3.09870   0.00000   0.00001  -0.00001   0.00000   3.09871
   D159      -0.02966  -0.00001   0.00002  -0.00007  -0.00005  -0.02971
   D160       1.62495  -0.00020  -0.00018  -0.00063  -0.00081   1.62414
   D161      -0.42375  -0.00005  -0.00028  -0.00032  -0.00060  -0.42435
   D162      -1.06948  -0.00017  -0.00013  -0.00055  -0.00068  -1.07016
   D163      -3.11818  -0.00002  -0.00023  -0.00024  -0.00046  -3.11865
         Item               Value     Threshold  Converged?
 Maximum Force            0.000347     0.000450     YES
 RMS     Force            0.000060     0.000300     YES
 Maximum Displacement     0.008825     0.001800     NO 
 RMS     Displacement     0.001804     0.001200     NO 
 Predicted change in Energy=-9.936644D-07
 GradGradGradGradGradGradGradGradGradGradGradGradGradGradGradGradGradGrad

 Stoichiometry    C26H28F2N2NiO(3)
 Framework group  C1[X(C26H28F2N2NiO)]
 Deg. of freedom   174
 Full point group                 C1      NOp   1
 Largest Abelian subgroup         C1      NOp   1
 Largest concise Abelian subgroup C1      NOp   1
                         Standard orientation:                         
 ---------------------------------------------------------------------
 Center     Atomic      Atomic             Coordinates (Angstroms)
 Number     Number       Type             X           Y           Z
 ---------------------------------------------------------------------
      1          6           0       -3.393379   -1.374012    1.078255
      2          6           0       -4.527016   -0.772917    0.223606
      3          6           0       -5.860548   -0.931890    0.978990
      4          6           0       -4.595131   -1.520977   -1.119115
      5          6           0       -4.342294    0.745443   -0.011051
      6          6           0       -3.239530    1.250981   -0.956027
      7          6           0       -3.271047    2.799188   -1.065254
      8          8           0       -2.165828    3.241477   -0.208987
      9          6           0       -1.417403    2.142816   -0.022854
     10          6           0       -0.100084    2.238616    0.615959
     11          6           0        0.412480    3.412995    1.145001
     12          6           0        1.678951    3.357404    1.736433
     13          6           0        2.359280    2.150044    1.762047
     14          6           0        1.771090    1.003599    1.198412
     15          6           0        2.541846   -0.310752    1.178029
     16          6           0        3.721789   -0.180844    0.222178
     17          6           0        5.007540   -0.509131    0.662025
     18          6           0        6.101320   -0.394402   -0.196614
     19          6           0        5.913405    0.053212   -1.504561
     20          6           0        4.629995    0.381300   -1.946339
     21          6           0        3.532959    0.272282   -1.091566
     22          6           0        1.638135   -1.517247    0.942747
     23          6           0        0.731532   -1.879317    1.951761
     24          6           0       -0.118704   -2.970040    1.788815
     25          6           0       -0.079356   -3.716357    0.609447
     26          6           0        0.815565   -3.367584   -0.396781
     27          6           0        1.673641   -2.275813   -0.234097
     28          7           0        0.562175    1.060133    0.644188
     29          7           0       -1.882235    1.021227   -0.432785
     30          1           0       -3.145299   -0.729836    1.931836
     31          1           0       -3.706050   -2.347431    1.477094
     32          1           0       -2.502592   -1.545096    0.472815
     33          1           0       -5.840542   -0.400249    1.939219
     34          1           0       -6.058808   -1.989271    1.187102
     35          1           0       -6.703245   -0.541180    0.394693
     36          1           0       -4.889242   -2.564308   -0.953629
     37          1           0       -3.613163   -1.532076   -1.600813
     38          1           0       -5.338000   -1.070554   -1.791376
     39          1           0       -5.281803    1.131918   -0.432859
     40          1           0       -4.211645    1.247209    0.959163
     41          1           0       -3.319658    0.772791   -1.934110
     42          1           0       -3.062663    3.167977   -2.073526
     43          1           0       -4.184621    3.252483   -0.678889
     44          1           0       -0.160785    4.330873    1.091561
     45          1           0        2.123394    4.250054    2.165434
     46          1           0        3.351690    2.074392    2.194187
     47          1           0        2.961901   -0.423162    2.186243
     48          1           0        5.153046   -0.862434    1.680631
     49          1           0        7.095661   -0.653749    0.156439
     50          1           0        6.762698    0.143871   -2.176252
     51          1           0        4.475699    0.723111   -2.966067
     52          1           0        2.530711    0.505013   -1.454118
     53          1           0        0.691061   -1.293118    2.867286
     54          1           0       -0.822620   -3.227129    2.574933
     55          1           0       -0.762021   -4.547870    0.467016
     56          1           0        0.828900   -3.919053   -1.330678
     57          1           0        2.360824   -2.008314   -1.027779
     58         28           0       -0.386378   -0.341241   -0.723641
     59          9           0        0.637412    0.470906   -2.030239
     60          9           0       -1.399345   -1.738798   -1.321785
 ---------------------------------------------------------------------
 Rotational constants (GHZ):           0.2272744           0.1036849           0.0862513
 Basis read from rwf:  (6D, 7F)
 Pseudo-potential data read from rwf file.
 There are   598 symmetry adapted cartesian basis functions of A   symmetry.
 There are   595 symmetry adapted basis functions of A   symmetry.
   595 basis functions,  1134 primitive gaussians,   598 cartesian basis functions
   122 alpha electrons      120 beta electrons
       nuclear repulsion energy      3764.2864613764 Hartrees.
 NAtoms=   60 NActive=   60 NUniq=   60 SFac= 1.00D+00 NAtFMM=   60 NAOKFM=T Big=T
 Integral buffers will be    131072 words long.
 Raffenetti 2 integral format.
 Two-electron integral symmetry is turned on.
 Nuclear repulsion after empirical dispersion term =     3764.1291395059 Hartrees.
 One-electron integrals computed using PRISM.
 PrsmSu:  requested number of processors reduced to:  12 ShMem   1 Linda.
   1 Symmetry operations used in ECPInt.
 ECPInt:  NShTT=   20301 NPrTT=  123456 LenC2=   17174 LenP2D=   56655.
 LDataN:  DoStor=T MaxTD1= 6 Len=  172
 Number of processors reduced to  12 by ecpmxn.
 NBasis=   595 RedAO= T EigKep=  6.97D-06  NBF=   595
 NBsUse=   594 1.00D-06 EigRej=  9.33D-07 NBFU=   594
 Initial guess from the checkpoint file:  "Lig2224_xyz_4.chk"
 B after Tr=    -0.000000   -0.000000    0.000000
         Rot=    1.000000   -0.000138   -0.000056   -0.000070 Ang=  -0.02 deg.
 Initial guess <Sx>= 0.0000 <Sy>= 0.0000 <Sz>= 1.0000 <S**2>= 2.0053 S= 1.0018
 Requested convergence on RMS density matrix=1.00D-08 within 128 cycles.
 Requested convergence on MAX density matrix=1.00D-06.
 Requested convergence on             energy=1.00D-06.
 No special actions if energy rises.
 SCF Done:  E(UB3LYP) =  -1561.66771356     A.U. after   18 cycles
            NFock= 18  Conv=0.69D-08     -V/T= 2.0504
 <Sx>= 0.0000 <Sy>= 0.0000 <Sz>= 1.0000 <S**2>= 2.0053 S= 1.0018
 <L.S>=  0.00000000000    
 Annihilation of the first spin contaminant:
 S**2 before annihilation     2.0053,   after     2.0000
 PrsmSu:  requested number of processors reduced to:  12 ShMem   1 Linda.
   1 Symmetry operations used in ECPInt.
 ECPInt:  NShTT=   20301 NPrTT=  123456 LenC2=   17174 LenP2D=   56655.
 LDataN:  DoStor=T MaxTD1= 7 Len=  274
 Number of processors reduced to  13 by ecpmxn.
 Calling FoFJK, ICntrl=      2127 FMM=T ISym2X=0 I1Cent= 0 IOpClX= 1 NMat=1 NMatS=1 NMatT=0.
 ***** Axes restored to original set *****
 -------------------------------------------------------------------
 Center     Atomic                   Forces (Hartrees/Bohr)
 Number     Number              X              Y              Z
 -------------------------------------------------------------------
      1        6          -0.000001946   -0.000012825    0.000010146
      2        6          -0.000005289    0.000004834    0.000000506
      3        6           0.000004163   -0.000000444   -0.000002782
      4        6          -0.000000237    0.000005786   -0.000006347
      5        6           0.000003070    0.000003018    0.000000608
      6        6          -0.000000482    0.000001725   -0.000003806
      7        6          -0.000007068    0.000013950    0.000010941
      8        8           0.000001069   -0.000006990   -0.000010196
      9        6           0.000007313    0.000013187    0.000006446
     10        6          -0.000006768    0.000011953   -0.000012575
     11        6          -0.000002787    0.000000960    0.000000700
     12        6          -0.000000409   -0.000000821   -0.000004521
     13        6          -0.000010387    0.000002630   -0.000006030
     14        6           0.000002287   -0.000005579    0.000005862
     15        6          -0.000000393   -0.000002778   -0.000008747
     16        6           0.000006486    0.000009113    0.000005643
     17        6          -0.000004105   -0.000001896   -0.000003966
     18        6           0.000001596    0.000000183    0.000003468
     19        6          -0.000000318    0.000003205    0.000001823
     20        6          -0.000002432    0.000005098   -0.000000043
     21        6           0.000000261    0.000011881    0.000002298
     22        6          -0.000005873    0.000000411   -0.000003922
     23        6           0.000006047    0.000000769   -0.000002105
     24        6           0.000004556   -0.000002455    0.000001246
     25        6           0.000010434    0.000003365   -0.000006471
     26        6           0.000012043    0.000002580   -0.000011493
     27        6           0.000003839    0.000004111    0.000002854
     28        7          -0.000000771   -0.000033195    0.000023013
     29        7           0.000008073    0.000009894    0.000004105
     30        1           0.000001745   -0.000003331   -0.000000560
     31        1           0.000005187   -0.000004327    0.000000290
     32        1          -0.000000442   -0.000004952   -0.000013354
     33        1           0.000002474   -0.000002619   -0.000001207
     34        1           0.000002595   -0.000002201   -0.000001909
     35        1           0.000002789   -0.000001217   -0.000001512
     36        1           0.000003909   -0.000003592    0.000002512
     37        1           0.000007936   -0.000000229    0.000007721
     38        1           0.000004855    0.000002317    0.000003154
     39        1           0.000000490    0.000000438    0.000001276
     40        1          -0.000000101    0.000001882   -0.000000910
     41        1          -0.000000517   -0.000000135    0.000000992
     42        1          -0.000004321    0.000003177    0.000001342
     43        1          -0.000003617    0.000000033   -0.000002563
     44        1          -0.000003620    0.000006162   -0.000002639
     45        1          -0.000003582    0.000003221   -0.000004473
     46        1          -0.000002411    0.000002250   -0.000002879
     47        1           0.000005495   -0.000000138   -0.000004937
     48        1           0.000000635    0.000000339   -0.000000938
     49        1          -0.000000767    0.000001031    0.000000459
     50        1          -0.000001312    0.000002053    0.000002842
     51        1          -0.000002613    0.000001877    0.000003475
     52        1           0.000008686    0.000004888    0.000001620
     53        1           0.000002551   -0.000001018   -0.000003088
     54        1           0.000003883   -0.000003223   -0.000001899
     55        1           0.000003212   -0.000004713    0.000003543
     56        1          -0.000001310   -0.000001653    0.000005959
     57        1           0.000004689    0.000000251    0.000002808
     58       28          -0.000017327   -0.000010832   -0.000015987
     59        9          -0.000019014   -0.000008636    0.000009600
     60        9          -0.000022147   -0.000018775    0.000014606
 -------------------------------------------------------------------
 Cartesian Forces:  Max     0.000033195 RMS     0.000006684

 GradGradGradGradGradGradGradGradGradGradGradGradGradGradGradGradGradGrad
 Berny optimization.
 Using GEDIIS/GDIIS optimizer.
 FormGI is forming the generalized inverse of G from B-inverse, IUseBI=4.
 Internal  Forces:  Max     0.000178337 RMS     0.000027878
 Search for a local minimum.
 Step number   3 out of a maximum of  346
 All quantities printed in internal units (Hartrees-Bohrs-Radians)
 Mixed Optimization -- En-DIIS/RFO-DIIS
 Swapping is turned off.
 Update second derivatives using D2CorX and points    1    2    3
 DE= -6.48D-07 DEPred=-9.94D-07 R= 6.53D-01
 Trust test= 6.53D-01 RLast= 3.57D-03 DXMaxT set to 1.50D-01
 ITU=  0 -1  0
     Eigenvalues ---    0.00198   0.00230   0.00246   0.00256   0.00288
     Eigenvalues ---    0.00387   0.00446   0.00466   0.00527   0.01222
     Eigenvalues ---    0.01399   0.01429   0.01491   0.01508   0.01705
     Eigenvalues ---    0.01947   0.02041   0.02084   0.02087   0.02098
     Eigenvalues ---    0.02111   0.02115   0.02128   0.02134   0.02135
     Eigenvalues ---    0.02140   0.02143   0.02147   0.02149   0.02151
     Eigenvalues ---    0.02152   0.02164   0.02165   0.02174   0.02183
     Eigenvalues ---    0.02204   0.02216   0.02238   0.02562   0.02790
     Eigenvalues ---    0.03909   0.04325   0.04614   0.04719   0.04780
     Eigenvalues ---    0.04955   0.04978   0.05083   0.05279   0.05355
     Eigenvalues ---    0.05358   0.05413   0.05476   0.05638   0.05643
     Eigenvalues ---    0.06048   0.06247   0.06702   0.08886   0.09525
     Eigenvalues ---    0.10223   0.10555   0.11210   0.12642   0.13100
     Eigenvalues ---    0.13447   0.14311   0.14865   0.15876   0.15987
     Eigenvalues ---    0.15994   0.15997   0.15998   0.15999   0.15999
     Eigenvalues ---    0.16000   0.16000   0.16000   0.16000   0.16000
     Eigenvalues ---    0.16000   0.16000   0.16000   0.16000   0.16000
     Eigenvalues ---    0.16000   0.16000   0.16000   0.16001   0.16259
     Eigenvalues ---    0.18938   0.19449   0.19778   0.20437   0.21926
     Eigenvalues ---    0.22000   0.22000   0.22001   0.22016   0.22106
     Eigenvalues ---    0.22353   0.22826   0.23475   0.23484   0.23595
     Eigenvalues ---    0.24048   0.24259   0.24932   0.24995   0.24999
     Eigenvalues ---    0.25000   0.25000   0.26458   0.26907   0.27857
     Eigenvalues ---    0.28431   0.28517   0.28638   0.28713   0.29798
     Eigenvalues ---    0.29974   0.30008   0.33220   0.33675   0.33684
     Eigenvalues ---    0.33854   0.33903   0.33929   0.33932   0.33966
     Eigenvalues ---    0.33974   0.34065   0.34156   0.34313   0.34396
     Eigenvalues ---    0.34497   0.34623   0.34731   0.34757   0.34775
     Eigenvalues ---    0.35055   0.35061   0.35209   0.35213   0.35220
     Eigenvalues ---    0.35270   0.35333   0.35369   0.35390   0.35439
     Eigenvalues ---    0.35574   0.35602   0.36374   0.41816   0.41839
     Eigenvalues ---    0.41888   0.41969   0.42132   0.43485   0.45375
     Eigenvalues ---    0.45502   0.45949   0.46074   0.46204   0.46273
     Eigenvalues ---    0.46424   0.46436   0.46853   0.47559   0.52366
     Eigenvalues ---    0.52902   0.56994   0.68210   1.57921
 En-DIIS/RFO-DIIS/Sim-DIIS IScMMF=       -3 using points:     3    2    1
 RFO step:  Lambda=-3.00459569D-07.
 DidBck=F Rises=F RFO-DIIS coefs:    1.97081   -0.59543   -0.37538
 Iteration  1 RMS(Cart)=  0.00146057 RMS(Int)=  0.00000020
 Iteration  2 RMS(Cart)=  0.00000048 RMS(Int)=  0.00000001
 Variable       Old X    -DE/DX   Delta X   Delta X   Delta X     New X
                                 (Linear)    (Quad)   (Total)
    R1        2.91341   0.00001   0.00000   0.00002   0.00002   2.91343
    R2        2.07449   0.00000  -0.00000   0.00000  -0.00000   2.07449
    R3        2.07387   0.00000  -0.00000   0.00000  -0.00000   2.07387
    R4        2.06087   0.00001   0.00000   0.00001   0.00001   2.06087
    R5        2.91176   0.00000  -0.00001  -0.00000  -0.00001   2.91175
    R6        2.90744   0.00000   0.00002   0.00001   0.00002   2.90746
    R7        2.92426  -0.00001   0.00003   0.00000   0.00003   2.92429
    R8        2.07447   0.00000  -0.00000   0.00000  -0.00000   2.07447
    R9        2.07067  -0.00000   0.00000  -0.00000   0.00000   2.07067
   R10        2.07371   0.00000  -0.00000  -0.00000  -0.00000   2.07370
   R11        2.07218  -0.00000   0.00000   0.00000   0.00000   2.07219
   R12        2.06700  -0.00001   0.00001  -0.00000   0.00001   2.06701
   R13        2.07584   0.00000  -0.00000   0.00000  -0.00000   2.07583
   R14        2.90590   0.00001  -0.00001   0.00000  -0.00001   2.90589
   R15        2.07867   0.00000  -0.00000   0.00000  -0.00000   2.07867
   R16        2.07883  -0.00000   0.00000  -0.00000   0.00000   2.07883
   R17        2.93357   0.00001  -0.00006  -0.00001  -0.00007   2.93349
   R18        2.78298   0.00000   0.00002   0.00001   0.00003   2.78302
   R19        2.06295  -0.00000  -0.00000  -0.00000  -0.00000   2.06295
   R20        2.77109   0.00002   0.00010   0.00007   0.00016   2.77125
   R21        2.06667   0.00000  -0.00000  -0.00000  -0.00000   2.06667
   R22        2.06090  -0.00000  -0.00001  -0.00000  -0.00001   2.06089
   R23        2.53663  -0.00001   0.00000  -0.00001  -0.00001   2.53662
   R24        2.77255  -0.00003  -0.00003  -0.00005  -0.00007   2.77248
   R25        2.42156  -0.00002  -0.00000  -0.00002  -0.00002   2.42154
   R26        2.61969  -0.00000   0.00000  -0.00000  -0.00000   2.61969
   R27        2.55512  -0.00007   0.00001  -0.00005  -0.00004   2.55508
   R28        2.64348   0.00004  -0.00002   0.00003   0.00001   2.64349
   R29        2.04753  -0.00000  -0.00000  -0.00000  -0.00000   2.04753
   R30        2.61931   0.00004  -0.00002   0.00003   0.00001   2.61932
   R31        2.05137  -0.00000  -0.00000  -0.00000  -0.00000   2.05137
   R32        2.65773  -0.00000   0.00001   0.00000   0.00002   2.65775
   R33        2.05046   0.00000   0.00000   0.00000   0.00000   2.05046
   R34        2.87958  -0.00006   0.00001  -0.00006  -0.00005   2.87953
   R35        2.51542  -0.00010   0.00002  -0.00005  -0.00003   2.51539
   R36        2.88008  -0.00002  -0.00001  -0.00003  -0.00004   2.88004
   R37        2.88311   0.00000   0.00004   0.00001   0.00005   2.88316
   R38        2.07490  -0.00000  -0.00000  -0.00000  -0.00001   2.07489
   R39        2.64183  -0.00000   0.00002   0.00001   0.00003   2.64186
   R40        2.65027   0.00000  -0.00003  -0.00001  -0.00004   2.65023
   R41        2.63668  -0.00000  -0.00001  -0.00001  -0.00002   2.63666
   R42        2.05586  -0.00000  -0.00000  -0.00000  -0.00000   2.05585
   R43        2.63642   0.00001   0.00001   0.00001   0.00002   2.63644
   R44        2.05331  -0.00000  -0.00000  -0.00000  -0.00000   2.05331
   R45        2.63883   0.00000  -0.00001  -0.00001  -0.00002   2.63881
   R46        2.05337  -0.00000  -0.00000  -0.00000  -0.00000   2.05336
   R47        2.63616  -0.00000   0.00002   0.00001   0.00002   2.63618
   R48        2.05319  -0.00000   0.00000  -0.00000  -0.00000   2.05319
   R49        2.06154   0.00001  -0.00002   0.00000  -0.00002   2.06152
   R50        2.65312   0.00000  -0.00001  -0.00000  -0.00001   2.65311
   R51        2.64673  -0.00000   0.00001   0.00000   0.00001   2.64673
   R52        2.63149  -0.00000   0.00001   0.00000   0.00002   2.63151
   R53        2.05577  -0.00000   0.00000   0.00000   0.00000   2.05577
   R54        2.63848  -0.00000  -0.00000  -0.00000  -0.00001   2.63848
   R55        2.05240  -0.00000   0.00000   0.00000   0.00000   2.05240
   R56        2.62870   0.00000   0.00001   0.00001   0.00002   2.62872
   R57        2.05079   0.00000  -0.00000   0.00000  -0.00000   2.05079
   R58        2.64205  -0.00000  -0.00000  -0.00000  -0.00001   2.64205
   R59        2.04968   0.00000  -0.00000   0.00000   0.00000   2.04969
   R60        2.04729  -0.00000   0.00000  -0.00000   0.00000   2.04729
   R61        3.86286   0.00006   0.00013   0.00021   0.00034   3.86320
   R62        3.49212   0.00000   0.00008   0.00003   0.00010   3.49223
   R63        3.45207  -0.00000  -0.00001  -0.00001  -0.00001   3.45206
    A1        1.94811   0.00000   0.00002   0.00001   0.00002   1.94813
    A2        1.91537   0.00000  -0.00002   0.00000  -0.00002   1.91535
    A3        1.93266  -0.00001   0.00001  -0.00000   0.00001   1.93268
    A4        1.87789  -0.00000  -0.00000  -0.00001  -0.00001   1.87788
    A5        1.91680  -0.00000   0.00001  -0.00001  -0.00000   1.91679
    A6        1.87060   0.00001  -0.00002   0.00001  -0.00001   1.87059
    A7        1.90116   0.00000  -0.00002   0.00000  -0.00002   1.90114
    A8        1.90369   0.00001  -0.00005   0.00000  -0.00005   1.90364
    A9        1.95935  -0.00001   0.00005   0.00001   0.00006   1.95940
   A10        1.91704  -0.00001   0.00001  -0.00001   0.00000   1.91704
   A11        1.85343   0.00000   0.00001  -0.00001   0.00000   1.85343
   A12        1.92838   0.00000   0.00000  -0.00000   0.00000   1.92839
   A13        1.94237   0.00000   0.00000   0.00000   0.00000   1.94237
   A14        1.92758  -0.00000   0.00000  -0.00000   0.00000   1.92758
   A15        1.94641   0.00000  -0.00001  -0.00000  -0.00001   1.94641
   A16        1.88021  -0.00000   0.00000   0.00000   0.00000   1.88022
   A17        1.88316  -0.00000   0.00000   0.00000   0.00001   1.88317
   A18        1.88153   0.00000  -0.00000  -0.00000  -0.00001   1.88153
   A19        1.92067  -0.00000   0.00002  -0.00000   0.00002   1.92069
   A20        1.92786   0.00000  -0.00002  -0.00001  -0.00003   1.92783
   A21        1.94407  -0.00000  -0.00000  -0.00000  -0.00000   1.94407
   A22        1.87297   0.00000   0.00001   0.00001   0.00002   1.87299
   A23        1.87666   0.00000  -0.00000  -0.00000  -0.00001   1.87665
   A24        1.91959   0.00000  -0.00001   0.00000  -0.00001   1.91959
   A25        2.09597   0.00000  -0.00003  -0.00000  -0.00003   2.09594
   A26        1.87647  -0.00000  -0.00001  -0.00000  -0.00002   1.87645
   A27        1.90496   0.00000   0.00002  -0.00001   0.00001   1.90497
   A28        1.83522   0.00001   0.00001   0.00002   0.00004   1.83526
   A29        1.88269  -0.00000   0.00001  -0.00001  -0.00000   1.88269
   A30        1.85395   0.00000   0.00001   0.00000   0.00001   1.85396
   A31        1.93537   0.00000   0.00006  -0.00001   0.00005   1.93542
   A32        1.97286   0.00000  -0.00005  -0.00003  -0.00008   1.97278
   A33        1.93258   0.00000  -0.00002   0.00001  -0.00000   1.93258
   A34        1.77144  -0.00001   0.00001  -0.00002  -0.00001   1.77144
   A35        1.95231  -0.00000   0.00000   0.00002   0.00002   1.95234
   A36        1.89404   0.00000  -0.00001   0.00002   0.00001   1.89404
   A37        1.81772   0.00001  -0.00003   0.00002  -0.00001   1.81770
   A38        1.97938  -0.00001  -0.00001  -0.00001  -0.00002   1.97935
   A39        1.98953   0.00000   0.00006   0.00003   0.00009   1.98963
   A40        1.86819  -0.00000  -0.00006  -0.00003  -0.00009   1.86810
   A41        1.87458  -0.00001  -0.00001  -0.00001  -0.00002   1.87456
   A42        1.92418   0.00000   0.00003   0.00001   0.00004   1.92422
   A43        1.82796  -0.00003  -0.00003  -0.00007  -0.00010   1.82785
   A44        2.10313   0.00011  -0.00002   0.00016   0.00014   2.10327
   A45        2.05983   0.00004   0.00000   0.00006   0.00006   2.05989
   A46        2.12014  -0.00015   0.00002  -0.00022  -0.00020   2.11994
   A47        2.15730   0.00017  -0.00006   0.00022   0.00016   2.15746
   A48        1.97355  -0.00016   0.00003  -0.00023  -0.00019   1.97335
   A49        2.15232  -0.00001   0.00003   0.00001   0.00003   2.15235
   A50        2.05153  -0.00003   0.00001  -0.00003  -0.00002   2.05151
   A51        2.09809   0.00001  -0.00000   0.00001   0.00001   2.09810
   A52        2.13356   0.00002  -0.00001   0.00002   0.00001   2.13357
   A53        2.07922   0.00001  -0.00003   0.00002  -0.00001   2.07921
   A54        2.10027  -0.00000   0.00001  -0.00001  -0.00000   2.10027
   A55        2.10368  -0.00000   0.00002  -0.00001   0.00001   2.10369
   A56        2.09136  -0.00004   0.00003  -0.00003   0.00001   2.09137
   A57        2.11415   0.00002  -0.00001   0.00002   0.00001   2.11416
   A58        2.07749   0.00002  -0.00002   0.00001  -0.00002   2.07747
   A59        2.09085   0.00017  -0.00015   0.00018   0.00003   2.09088
   A60        2.10839   0.00001  -0.00001  -0.00000  -0.00001   2.10838
   A61        2.08339  -0.00018   0.00016  -0.00018  -0.00002   2.08337
   A62        1.90336   0.00002   0.00009  -0.00004   0.00005   1.90341
   A63        1.96552  -0.00009   0.00013  -0.00024  -0.00010   1.96541
   A64        1.84370   0.00003  -0.00006   0.00013   0.00007   1.84377
   A65        2.01449   0.00003   0.00000  -0.00005  -0.00005   2.01444
   A66        1.86338   0.00000  -0.00005   0.00015   0.00010   1.86348
   A67        1.86216   0.00002  -0.00014   0.00010  -0.00004   1.86211
   A68        2.08829   0.00003  -0.00004   0.00003  -0.00001   2.08828
   A69        2.10690  -0.00004   0.00005  -0.00003   0.00001   2.10692
   A70        2.08797   0.00001  -0.00001   0.00001   0.00000   2.08797
   A71        2.10372  -0.00001   0.00000  -0.00001  -0.00000   2.10371
   A72        2.08731   0.00000  -0.00001  -0.00000  -0.00001   2.08730
   A73        2.09214   0.00000   0.00000   0.00001   0.00001   2.09215
   A74        2.09177   0.00000  -0.00000   0.00000  -0.00000   2.09177
   A75        2.09186  -0.00000   0.00001   0.00000   0.00001   2.09186
   A76        2.09955  -0.00000  -0.00000  -0.00000  -0.00001   2.09955
   A77        2.08952   0.00000  -0.00000   0.00001   0.00000   2.08952
   A78        2.09558  -0.00000   0.00000  -0.00000  -0.00000   2.09557
   A79        2.09809  -0.00000   0.00000  -0.00000  -0.00000   2.09809
   A80        2.10663  -0.00000   0.00000  -0.00001  -0.00001   2.10663
   A81        2.09597   0.00000   0.00000   0.00000   0.00001   2.09597
   A82        2.08058   0.00000  -0.00000   0.00000   0.00000   2.08058
   A83        2.08673  -0.00000   0.00001   0.00000   0.00001   2.08674
   A84        2.09895  -0.00000  -0.00004  -0.00002  -0.00006   2.09889
   A85        2.09691   0.00001   0.00003   0.00002   0.00005   2.09696
   A86        2.06644  -0.00000  -0.00002  -0.00001  -0.00003   2.06641
   A87        2.14464   0.00001   0.00001   0.00001   0.00002   2.14466
   A88        2.07210  -0.00000   0.00001   0.00000   0.00001   2.07211
   A89        2.10851   0.00000   0.00000   0.00000   0.00000   2.10851
   A90        2.08276  -0.00000   0.00001   0.00000   0.00002   2.08278
   A91        2.09189  -0.00000  -0.00001  -0.00001  -0.00002   2.09187
   A92        2.09475  -0.00000  -0.00001  -0.00000  -0.00001   2.09474
   A93        2.09029   0.00000  -0.00001  -0.00000  -0.00001   2.09028
   A94        2.09801   0.00000   0.00001   0.00001   0.00002   2.09803
   A95        2.08877   0.00000   0.00000   0.00000   0.00000   2.08877
   A96        2.09750  -0.00000   0.00001   0.00000   0.00001   2.09751
   A97        2.09655   0.00000  -0.00001  -0.00000  -0.00001   2.09654
   A98        2.10187   0.00000   0.00000   0.00000   0.00001   2.10188
   A99        2.09816  -0.00000  -0.00000  -0.00000  -0.00000   2.09815
   A100       2.08251  -0.00000  -0.00000  -0.00000  -0.00000   2.08250
   A101       2.10035   0.00000  -0.00001  -0.00000  -0.00001   2.10034
   A102       2.09199  -0.00000   0.00001   0.00000   0.00001   2.09200
   A103       2.09077   0.00000   0.00000  -0.00000  -0.00000   2.09077
   A104       2.08351   0.00006  -0.00004   0.00004   0.00000   2.08351
   A105       1.88749  -0.00001  -0.00002  -0.00001  -0.00003   1.88746
   A106       2.38600   0.00010  -0.00004   0.00015   0.00010   2.38611
   A107       1.94277  -0.00009   0.00003  -0.00012  -0.00009   1.94268
   A108       1.78553   0.00007  -0.00007   0.00008   0.00001   1.78555
   A109       1.72210   0.00010  -0.00024   0.00005  -0.00019   1.72191
   A110       1.99536  -0.00001  -0.00015  -0.00002  -0.00018   1.99518
    D1       -1.28895  -0.00000  -0.00043   0.00007  -0.00036  -1.28931
    D2        2.90194   0.00000  -0.00040   0.00008  -0.00032   2.90162
    D3        0.75867   0.00000  -0.00040   0.00007  -0.00033   0.75834
    D4        0.79129  -0.00000  -0.00044   0.00007  -0.00037   0.79092
    D5       -1.30100   0.00000  -0.00041   0.00007  -0.00033  -1.30134
    D6        2.83891   0.00000  -0.00041   0.00007  -0.00034   2.83857
    D7        2.85291   0.00001  -0.00046   0.00009  -0.00038   2.85253
    D8        0.76062   0.00001  -0.00043   0.00009  -0.00034   0.76028
    D9       -1.38265   0.00001  -0.00043   0.00009  -0.00035  -1.38300
   D10        1.06470  -0.00001   0.00016  -0.00003   0.00013   1.06483
   D11       -1.02280  -0.00001   0.00016  -0.00003   0.00012  -1.02267
   D12       -3.11459  -0.00001   0.00017  -0.00003   0.00013  -3.11446
   D13       -3.13448   0.00000   0.00009  -0.00003   0.00006  -3.13442
   D14        1.06121   0.00000   0.00009  -0.00003   0.00005   1.06126
   D15       -1.03059   0.00000   0.00009  -0.00003   0.00006  -1.03052
   D16       -1.04902   0.00000   0.00011  -0.00004   0.00007  -1.04895
   D17       -3.13652   0.00000   0.00010  -0.00004   0.00006  -3.13645
   D18        1.05487   0.00000   0.00011  -0.00004   0.00007   1.05494
   D19        1.14166   0.00000  -0.00008  -0.00004  -0.00012   1.14154
   D20       -0.92323   0.00000  -0.00010  -0.00004  -0.00014  -0.92337
   D21       -3.06191   0.00000  -0.00007  -0.00004  -0.00011  -3.06203
   D22       -0.94080  -0.00000  -0.00003  -0.00004  -0.00007  -0.94087
   D23       -3.00569  -0.00000  -0.00005  -0.00004  -0.00009  -3.00578
   D24        1.13881  -0.00000  -0.00002  -0.00004  -0.00006   1.13875
   D25       -2.97982  -0.00000  -0.00005  -0.00003  -0.00008  -2.97990
   D26        1.23847   0.00000  -0.00007  -0.00003  -0.00010   1.23837
   D27       -0.90021  -0.00000  -0.00004  -0.00003  -0.00007  -0.90028
   D28        1.25535  -0.00001  -0.00021  -0.00034  -0.00055   1.25481
   D29       -2.93389  -0.00000  -0.00022  -0.00032  -0.00054  -2.93443
   D30       -0.93001  -0.00000  -0.00021  -0.00032  -0.00053  -0.93053
   D31       -2.95195  -0.00000  -0.00020  -0.00034  -0.00053  -2.95248
   D32       -0.85801   0.00000  -0.00021  -0.00031  -0.00052  -0.85854
   D33        1.14587  -0.00000  -0.00020  -0.00032  -0.00051   1.14536
   D34       -0.87392  -0.00001  -0.00017  -0.00035  -0.00052  -0.87445
   D35        1.22001  -0.00001  -0.00019  -0.00032  -0.00051   1.21950
   D36       -3.05929  -0.00001  -0.00018  -0.00033  -0.00050  -3.05979
   D37        3.11353   0.00000  -0.00026  -0.00009  -0.00035   3.11318
   D38       -1.19379  -0.00001  -0.00024  -0.00013  -0.00037  -1.19416
   D39        0.93558   0.00000  -0.00030  -0.00012  -0.00042   0.93516
   D40        0.99912   0.00000  -0.00023  -0.00010  -0.00033   0.99879
   D41        2.97499  -0.00001  -0.00021  -0.00014  -0.00035   2.97464
   D42       -1.17883   0.00000  -0.00027  -0.00013  -0.00040  -1.17923
   D43       -0.97384   0.00000  -0.00026  -0.00011  -0.00036  -0.97421
   D44        1.00203  -0.00001  -0.00024  -0.00015  -0.00038   1.00164
   D45        3.13139   0.00000  -0.00029  -0.00014  -0.00043   3.13096
   D46        1.78624  -0.00000  -0.00020  -0.00012  -0.00032   1.78593
   D47       -2.47230  -0.00000  -0.00029  -0.00015  -0.00044  -2.47274
   D48       -0.25114  -0.00000  -0.00020  -0.00012  -0.00033  -0.25147
   D49       -0.31398   0.00000  -0.00017  -0.00007  -0.00024  -0.31422
   D50        1.71067   0.00000  -0.00027  -0.00011  -0.00037   1.71030
   D51       -2.35136  -0.00000  -0.00018  -0.00008  -0.00026  -2.35162
   D52       -2.33020   0.00000  -0.00017  -0.00009  -0.00026  -2.33046
   D53       -0.30555   0.00000  -0.00027  -0.00012  -0.00039  -0.30594
   D54        1.91560   0.00000  -0.00018  -0.00010  -0.00027   1.91532
   D55       -1.83626   0.00000   0.00007   0.00006   0.00013  -1.83613
   D56        1.74323   0.00002   0.00015   0.00006   0.00022   1.74345
   D57        0.23732   0.00000   0.00012   0.00003   0.00015   0.23747
   D58       -2.46638   0.00002   0.00021   0.00003   0.00024  -2.46614
   D59        2.29608  -0.00000   0.00013   0.00005   0.00018   2.29626
   D60       -0.40761   0.00001   0.00022   0.00005   0.00027  -0.40734
   D61        0.28665  -0.00001   0.00017   0.00008   0.00025   0.28690
   D62       -1.81445  -0.00000   0.00023   0.00010   0.00033  -1.81413
   D63        2.40251  -0.00000   0.00022   0.00011   0.00033   2.40284
   D64        2.97365  -0.00001  -0.00002  -0.00036  -0.00038   2.97328
   D65       -0.15391   0.00001  -0.00011  -0.00006  -0.00017  -0.15409
   D66        0.08237  -0.00000  -0.00031   0.00024  -0.00006   0.08231
   D67       -3.06608   0.00001  -0.00043   0.00055   0.00012  -3.06596
   D68       -3.07374  -0.00002  -0.00021  -0.00006  -0.00027  -3.07401
   D69        0.06100  -0.00000  -0.00034   0.00025  -0.00009   0.06091
   D70       -0.06480  -0.00001  -0.00000   0.00002   0.00002  -0.06478
   D71        2.75938   0.00003  -0.00009   0.00009   0.00001   2.75939
   D72        3.09097   0.00001  -0.00010   0.00032   0.00022   3.09119
   D73       -0.36804   0.00004  -0.00018   0.00038   0.00021  -0.36783
   D74        3.13182   0.00002  -0.00012   0.00038   0.00026   3.13208
   D75       -0.01146   0.00001  -0.00005   0.00030   0.00025  -0.01121
   D76       -0.00222   0.00001   0.00002   0.00004   0.00006  -0.00216
   D77        3.13768   0.00000   0.00009  -0.00004   0.00006   3.13774
   D78       -3.13970  -0.00003   0.00024  -0.00039  -0.00015  -3.13985
   D79       -0.00495  -0.00002   0.00011  -0.00008   0.00003  -0.00491
   D80        0.00517   0.00000  -0.00010   0.00005  -0.00004   0.00513
   D81       -3.14095  -0.00001  -0.00003  -0.00008  -0.00010  -3.14105
   D82       -3.13469   0.00001  -0.00018   0.00014  -0.00004  -3.13474
   D83        0.00236   0.00000  -0.00011   0.00001  -0.00010   0.00227
   D84       -0.00133  -0.00001   0.00006  -0.00011  -0.00006  -0.00139
   D85        3.11946  -0.00001   0.00011  -0.00013  -0.00002   3.11944
   D86       -3.13838  -0.00000  -0.00001   0.00002   0.00000  -3.13838
   D87       -0.01759  -0.00000   0.00004   0.00000   0.00004  -0.01755
   D88        3.09985  -0.00001   0.00032  -0.00019   0.00012   3.09998
   D89       -0.00594   0.00000   0.00007   0.00008   0.00015  -0.00579
   D90       -0.02137  -0.00001   0.00026  -0.00018   0.00009  -0.02128
   D91       -3.12717   0.00000   0.00002   0.00010   0.00012  -3.12705
   D92       -1.19091  -0.00002  -0.00014  -0.00056  -0.00070  -1.19161
   D93        2.83233   0.00001  -0.00032  -0.00027  -0.00059   2.83174
   D94        0.80623   0.00001  -0.00019  -0.00034  -0.00053   0.80570
   D95        1.91540  -0.00003   0.00010  -0.00082  -0.00073   1.91467
   D96       -0.34454  -0.00001  -0.00009  -0.00053  -0.00062  -0.34516
   D97       -2.37064  -0.00001   0.00005  -0.00060  -0.00056  -2.37120
   D98        0.00897   0.00001  -0.00016   0.00002  -0.00014   0.00883
   D99       -3.09698   0.00002  -0.00039   0.00028  -0.00011  -3.09709
   D100       2.22832   0.00005  -0.00015   0.00017   0.00002   2.22834
   D101      -0.90644   0.00005  -0.00017   0.00015  -0.00001  -0.90645
   D102      -1.82217  -0.00005   0.00011  -0.00023  -0.00012  -1.82229
   D103       1.32626  -0.00005   0.00010  -0.00025  -0.00015   1.32611
   D104       0.24398   0.00000  -0.00010  -0.00003  -0.00013   0.24385
   D105      -2.89077   0.00000  -0.00012  -0.00005  -0.00017  -2.89094
   D106      -1.19677  -0.00001  -0.00017  -0.00030  -0.00047  -1.19724
   D107       1.94373  -0.00003   0.00010  -0.00072  -0.00062   1.94311
   D108       2.88509   0.00003  -0.00042   0.00002  -0.00041   2.88468
   D109      -0.25760   0.00001  -0.00015  -0.00040  -0.00056  -0.25815
   D110       0.81825  -0.00000  -0.00026  -0.00021  -0.00047   0.81779
   D111      -2.32443  -0.00003   0.00001  -0.00063  -0.00062  -2.32505
   D112      -3.13923  -0.00000  -0.00002  -0.00002  -0.00003  -3.13926
   D113       0.00886   0.00000  -0.00005  -0.00002  -0.00007   0.00879
   D114      -0.00440  -0.00000   0.00000   0.00000   0.00000  -0.00440
   D115      -3.13950   0.00000  -0.00003  -0.00001  -0.00003  -3.13953
   D116      -3.14097  -0.00000   0.00002   0.00001   0.00003  -3.14094
   D117      -0.03640   0.00000  -0.00001   0.00003   0.00003  -0.03637
   D118       0.00746  -0.00000   0.00000  -0.00000  -0.00000   0.00746
   D119       3.11203   0.00000  -0.00002   0.00002  -0.00001   3.11203
   D120       0.00169   0.00000  -0.00001  -0.00000  -0.00001   0.00168
   D121      -3.14025   0.00000  -0.00000   0.00000  -0.00000  -3.14025
   D122       3.13676   0.00000   0.00002   0.00001   0.00003   3.13679
   D123      -0.00517  -0.00000   0.00003   0.00001   0.00004  -0.00513
   D124      -0.00205  -0.00000   0.00001   0.00000   0.00002  -0.00203
   D125      -3.14157  -0.00000   0.00003   0.00001   0.00004  -3.14153
   D126       3.13989  -0.00000   0.00000   0.00000   0.00001   3.13990
   D127       0.00037  -0.00000   0.00002   0.00001   0.00003   0.00040
   D128       0.00521  -0.00000  -0.00001  -0.00000  -0.00001   0.00519
   D129      -3.13327  -0.00000  -0.00001  -0.00001  -0.00002  -3.13329
   D130      -3.13846   0.00000  -0.00003  -0.00001  -0.00004  -3.13850
   D131       0.00625  -0.00000  -0.00003  -0.00002  -0.00004   0.00621
   D132      -0.00792   0.00000  -0.00000   0.00001   0.00001  -0.00791
   D133      -3.11253  -0.00000   0.00003  -0.00001   0.00001  -3.11252
   D134       3.13059   0.00000  -0.00000   0.00001   0.00001   3.13060
   D135       0.02597  -0.00000   0.00003  -0.00001   0.00002   0.02599
   D136       3.13930  -0.00002   0.00021  -0.00038  -0.00017   3.13914
   D137       0.00584  -0.00002   0.00017  -0.00030  -0.00013   0.00571
   D138      -0.00124  -0.00000  -0.00005   0.00003  -0.00002  -0.00127
   D139      -3.13471   0.00000  -0.00009   0.00011   0.00002  -3.13469
   D140      -3.13538   0.00003  -0.00028   0.00041   0.00013  -3.13526
   D141      -0.00697   0.00002  -0.00023   0.00028   0.00006  -0.00692
   D142       0.00512   0.00000  -0.00001  -0.00002  -0.00003   0.00509
   D143       3.13352  -0.00001   0.00005  -0.00014  -0.00010   3.13343
   D144      -0.00346  -0.00000   0.00007  -0.00003   0.00004  -0.00341
   D145      -3.12748   0.00000  -0.00001   0.00001  -0.00001  -3.12749
   D146       3.12997  -0.00001   0.00011  -0.00011   0.00000   3.12997
   D147       0.00594  -0.00000   0.00003  -0.00007  -0.00005   0.00589
   D148       0.00428   0.00000  -0.00003   0.00002  -0.00001   0.00427
   D149      -3.10834   0.00000  -0.00003   0.00001  -0.00001  -3.10835
   D150       3.12823  -0.00000   0.00005  -0.00002   0.00004   3.12827
   D151       0.01561  -0.00000   0.00006  -0.00002   0.00004   0.01565
   D152      -0.00041  -0.00000  -0.00003  -0.00000  -0.00003  -0.00045
   D153      -3.10311  -0.00000   0.00002   0.00003   0.00005  -3.10306
   D154       3.11223   0.00000  -0.00004  -0.00000  -0.00004   3.11219
   D155       0.00953   0.00000   0.00002   0.00003   0.00005   0.00958
   D156      -0.00434  -0.00000   0.00005   0.00000   0.00006  -0.00428
   D157      -3.13275   0.00001  -0.00000   0.00013   0.00012  -3.13263
   D158       3.09871  -0.00000  -0.00000  -0.00002  -0.00003   3.09868
   D159      -0.02971   0.00001  -0.00006   0.00010   0.00004  -0.02967
   D160       1.62414   0.00002  -0.00068  -0.00001  -0.00070   1.62345
   D161      -0.42435  -0.00002  -0.00042  -0.00003  -0.00045  -0.42479
   D162      -1.07016   0.00002  -0.00058  -0.00003  -0.00061  -1.07077
   D163      -3.11865  -0.00002  -0.00032  -0.00005  -0.00037  -3.11901
         Item               Value     Threshold  Converged?
 Maximum Force            0.000178     0.000450     YES
 RMS     Force            0.000028     0.000300     YES
 Maximum Displacement     0.006404     0.001800     NO 
 RMS     Displacement     0.001461     0.001200     NO 
 Predicted change in Energy=-1.500691D-07
 GradGradGradGradGradGradGradGradGradGradGradGradGradGradGradGradGradGrad

 Stoichiometry    C26H28F2N2NiO(3)
 Framework group  C1[X(C26H28F2N2NiO)]
 Deg. of freedom   174
 Full point group                 C1      NOp   1
 Largest Abelian subgroup         C1      NOp   1
 Largest concise Abelian subgroup C1      NOp   1
                         Standard orientation:                         
 ---------------------------------------------------------------------
 Center     Atomic      Atomic             Coordinates (Angstroms)
 Number     Number       Type             X           Y           Z
 ---------------------------------------------------------------------
      1          6           0       -3.392534   -1.375005    1.076173
      2          6           0       -4.526414   -0.773321    0.222247
      3          6           0       -5.859682   -0.932606    0.978015
      4          6           0       -4.595034   -1.520705   -1.120840
      5          6           0       -4.341686    0.745162   -0.011706
      6          6           0       -3.238763    1.251093   -0.956274
      7          6           0       -3.270509    2.799271   -1.065291
      8          8           0       -2.165823    3.241651   -0.208236
      9          6           0       -1.417228    2.143100   -0.022161
     10          6           0       -0.100064    2.238825    0.616896
     11          6           0        0.412546    3.413012    1.146316
     12          6           0        1.679064    3.357171    1.737636
     13          6           0        2.359332    2.149762    1.762805
     14          6           0        1.771011    1.003505    1.198902
     15          6           0        2.541585   -0.310915    1.178162
     16          6           0        3.720941   -0.181311    0.221575
     17          6           0        5.006918   -0.509771    0.660679
     18          6           0        6.100179   -0.395358   -0.198649
     19          6           0        5.911526    0.052097   -1.506556
     20          6           0        4.627912    0.380354   -1.947581
     21          6           0        3.531382    0.271653   -1.092099
     22          6           0        1.637463   -1.517241    0.943411
     23          6           0        0.731760   -1.879394    1.953194
     24          6           0       -0.118951   -2.969829    1.790726
     25          6           0       -0.080935   -3.715787    0.611090
     26          6           0        0.813122   -3.366940   -0.395894
     27          6           0        1.671623   -2.275433   -0.233717
     28          7           0        0.562113    1.060311    0.644701
     29          7           0       -1.881599    1.021507   -0.432569
     30          1           0       -3.143835   -0.731175    1.929834
     31          1           0       -3.705317   -2.348446    1.474871
     32          1           0       -2.502086   -1.546192    0.470256
     33          1           0       -5.839333   -0.401399    1.938478
     34          1           0       -6.057898   -1.990078    1.185714
     35          1           0       -6.702567   -0.541616    0.394180
     36          1           0       -4.889070   -2.564128   -0.955792
     37          1           0       -3.613237   -1.531515   -1.602910
     38          1           0       -5.338160   -1.069945   -1.792588
     39          1           0       -5.281143    1.131787   -0.433491
     40          1           0       -4.211192    1.246506    0.958748
     41          1           0       -3.318469    0.773004   -1.934440
     42          1           0       -3.061459    3.168226   -2.073363
     43          1           0       -4.184368    3.252421   -0.679447
     44          1           0       -0.160707    4.330918    1.093241
     45          1           0        2.123603    4.249674    2.166842
     46          1           0        3.351780    2.073909    2.194825
     47          1           0        2.962152   -0.423427    2.186148
     48          1           0        5.152985   -0.862920    1.679256
     49          1           0        7.094695   -0.654831    0.153815
     50          1           0        6.760413    0.142474   -2.178797
     51          1           0        4.473041    0.722058   -2.967257
     52          1           0        2.528938    0.504490   -1.454010
     53          1           0        0.692319   -1.293479    2.868948
     54          1           0       -0.822154   -3.226980    2.577462
     55          1           0       -0.763959   -4.547070    0.469040
     56          1           0        0.825377   -3.918095   -1.329991
     57          1           0        2.358034   -2.007808   -1.028024
     58         28           0       -0.385015   -0.340477   -0.723204
     59          9           0        0.638455    0.471881   -2.029998
     60          9           0       -1.397609   -1.738243   -1.321470
 ---------------------------------------------------------------------
 Rotational constants (GHZ):           0.2272458           0.1037164           0.0862807
 Basis read from rwf:  (6D, 7F)
 Pseudo-potential data read from rwf file.
 There are   598 symmetry adapted cartesian basis functions of A   symmetry.
 There are   595 symmetry adapted basis functions of A   symmetry.
   595 basis functions,  1134 primitive gaussians,   598 cartesian basis functions
   122 alpha electrons      120 beta electrons
       nuclear repulsion energy      3764.5492702378 Hartrees.
 NAtoms=   60 NActive=   60 NUniq=   60 SFac= 1.00D+00 NAtFMM=   60 NAOKFM=T Big=T
 Integral buffers will be    131072 words long.
 Raffenetti 2 integral format.
 Two-electron integral symmetry is turned on.
 Nuclear repulsion after empirical dispersion term =     3764.3919338114 Hartrees.
 One-electron integrals computed using PRISM.
 PrsmSu:  requested number of processors reduced to:  12 ShMem   1 Linda.
   1 Symmetry operations used in ECPInt.
 ECPInt:  NShTT=   20301 NPrTT=  123456 LenC2=   17174 LenP2D=   56656.
 LDataN:  DoStor=T MaxTD1= 6 Len=  172
 Number of processors reduced to  12 by ecpmxn.
 NBasis=   595 RedAO= T EigKep=  6.97D-06  NBF=   595
 NBsUse=   594 1.00D-06 EigRej=  9.33D-07 NBFU=   594
 Initial guess from the checkpoint file:  "Lig2224_xyz_4.chk"
 B after Tr=     0.000000   -0.000000    0.000000
         Rot=    1.000000   -0.000038   -0.000005    0.000037 Ang=  -0.01 deg.
 Initial guess <Sx>= 0.0000 <Sy>= 0.0000 <Sz>= 1.0000 <S**2>= 2.0053 S= 1.0018
 Requested convergence on RMS density matrix=1.00D-08 within 128 cycles.
 Requested convergence on MAX density matrix=1.00D-06.
 Requested convergence on             energy=1.00D-06.
 No special actions if energy rises.
 SCF Done:  E(UB3LYP) =  -1561.66771333     A.U. after   14 cycles
            NFock= 14  Conv=0.75D-08     -V/T= 2.0504
 <Sx>= 0.0000 <Sy>= 0.0000 <Sz>= 1.0000 <S**2>= 2.0053 S= 1.0018
 <L.S>=  0.00000000000    
 Annihilation of the first spin contaminant:
 S**2 before annihilation     2.0053,   after     2.0000
 PrsmSu:  requested number of processors reduced to:  12 ShMem   1 Linda.
   1 Symmetry operations used in ECPInt.
 ECPInt:  NShTT=   20301 NPrTT=  123456 LenC2=   17174 LenP2D=   56656.
 LDataN:  DoStor=T MaxTD1= 7 Len=  274
 Number of processors reduced to  13 by ecpmxn.
 Calling FoFJK, ICntrl=      2127 FMM=T ISym2X=0 I1Cent= 0 IOpClX= 1 NMat=1 NMatS=1 NMatT=0.
 ***** Axes restored to original set *****
 -------------------------------------------------------------------
 Center     Atomic                   Forces (Hartrees/Bohr)
 Number     Number              X              Y              Z
 -------------------------------------------------------------------
      1        6           0.000001576   -0.000014798    0.000011198
      2        6          -0.000007873   -0.000008824    0.000007066
      3        6           0.000005846    0.000010427   -0.000007294
      4        6           0.000003059   -0.000003737   -0.000010013
      5        6           0.000002618    0.000009759    0.000010347
      6        6          -0.000004936   -0.000007496    0.000011050
      7        6          -0.000009191   -0.000016938   -0.000007382
      8        8           0.000000337    0.000020314    0.000001614
      9        6           0.000011870    0.000023338   -0.000003217
     10        6           0.000010311    0.000016475   -0.000034916
     11        6          -0.000003912    0.000001407    0.000012796
     12        6          -0.000005498    0.000002361   -0.000005242
     13        6          -0.000006985    0.000007254    0.000002829
     14        6          -0.000007859   -0.000056379   -0.000006164
     15        6          -0.000005261    0.000014478    0.000011339
     16        6          -0.000019000   -0.000023912    0.000003971
     17        6           0.000008001    0.000000203   -0.000003648
     18        6          -0.000001872    0.000003188    0.000001173
     19        6          -0.000003493    0.000000008    0.000004645
     20        6           0.000003825    0.000001319    0.000006758
     21        6          -0.000010921   -0.000012591   -0.000000450
     22        6           0.000003615   -0.000010868   -0.000008351
     23        6           0.000017348    0.000007461    0.000003651
     24        6           0.000000219   -0.000008573   -0.000009574
     25        6          -0.000013250   -0.000006131   -0.000006135
     26        6           0.000015730    0.000008247    0.000010253
     27        6          -0.000010532   -0.000004134    0.000000559
     28        7          -0.000033449   -0.000076016    0.000013957
     29        7           0.000008153    0.000052134    0.000002626
     30        1           0.000005330   -0.000004051    0.000000863
     31        1           0.000009271   -0.000004643    0.000002833
     32        1           0.000007918   -0.000015996   -0.000018527
     33        1           0.000000138   -0.000002371   -0.000000898
     34        1           0.000002354   -0.000002309   -0.000003269
     35        1           0.000007995    0.000000531   -0.000002678
     36        1           0.000001564   -0.000007193   -0.000000136
     37        1           0.000009059    0.000001441    0.000010844
     38        1          -0.000000030    0.000003112    0.000000541
     39        1           0.000002591    0.000000952    0.000002769
     40        1          -0.000000861    0.000003091    0.000001428
     41        1          -0.000000723    0.000000227   -0.000004264
     42        1          -0.000000832    0.000007671    0.000000901
     43        1          -0.000002787    0.000000397   -0.000000576
     44        1          -0.000004983    0.000007997   -0.000003649
     45        1          -0.000002672    0.000002282   -0.000002946
     46        1          -0.000000766    0.000002537   -0.000002926
     47        1           0.000003735   -0.000000544   -0.000012787
     48        1          -0.000001707   -0.000002476    0.000001532
     49        1          -0.000000820    0.000000271    0.000001037
     50        1          -0.000002269   -0.000000249    0.000001641
     51        1          -0.000001444    0.000003808    0.000004131
     52        1          -0.000001232    0.000012496   -0.000021695
     53        1           0.000000119   -0.000002922   -0.000004310
     54        1           0.000004222   -0.000001647   -0.000001455
     55        1           0.000002218   -0.000005000    0.000005704
     56        1           0.000003179   -0.000005416    0.000003614
     57        1          -0.000005358   -0.000005132    0.000010205
     58       28           0.000042795    0.000010811    0.000016261
     59        9          -0.000001252    0.000020587   -0.000001499
     60        9          -0.000023230    0.000053761    0.000003864
 -------------------------------------------------------------------
 Cartesian Forces:  Max     0.000076016 RMS     0.000012898

 GradGradGradGradGradGradGradGradGradGradGradGradGradGradGradGradGradGrad
 Berny optimization.
 Using GEDIIS/GDIIS optimizer.
 FormGI is forming the generalized inverse of G from B-inverse, IUseBI=4.
 Internal  Forces:  Max     0.000311806 RMS     0.000038437
 Search for a local minimum.
 Step number   4 out of a maximum of  346
 All quantities printed in internal units (Hartrees-Bohrs-Radians)
 Mixed Optimization -- En-DIIS/RFO-DIIS
 Swapping is turned off.
 Update second derivatives using D2CorX and points    1    2    3    4
 DE=  2.33D-07 DEPred=-1.50D-07 R=-1.55D+00
 Trust test=-1.55D+00 RLast= 3.62D-03 DXMaxT set to 7.50D-02
 ITU= -1  0 -1  0
     Eigenvalues ---    0.00220   0.00230   0.00245   0.00255   0.00306
     Eigenvalues ---    0.00364   0.00451   0.00465   0.00681   0.01215
     Eigenvalues ---    0.01403   0.01432   0.01495   0.01581   0.01913
     Eigenvalues ---    0.01946   0.02041   0.02085   0.02097   0.02103
     Eigenvalues ---    0.02112   0.02114   0.02132   0.02134   0.02140
     Eigenvalues ---    0.02143   0.02146   0.02147   0.02149   0.02152
     Eigenvalues ---    0.02160   0.02165   0.02169   0.02181   0.02183
     Eigenvalues ---    0.02209   0.02216   0.02460   0.02773   0.02835
     Eigenvalues ---    0.03895   0.04325   0.04622   0.04731   0.04812
     Eigenvalues ---    0.04908   0.05051   0.05094   0.05354   0.05356
     Eigenvalues ---    0.05384   0.05425   0.05476   0.05640   0.05700
     Eigenvalues ---    0.06078   0.06294   0.06579   0.08117   0.09521
     Eigenvalues ---    0.10209   0.11084   0.11220   0.12661   0.13103
     Eigenvalues ---    0.14012   0.14713   0.14917   0.15918   0.15987
     Eigenvalues ---    0.15994   0.15997   0.15998   0.15999   0.15999
     Eigenvalues ---    0.16000   0.16000   0.16000   0.16000   0.16000
     Eigenvalues ---    0.16000   0.16000   0.16000   0.16000   0.16000
     Eigenvalues ---    0.16000   0.16000   0.16000   0.16018   0.16700
     Eigenvalues ---    0.19032   0.19456   0.19851   0.21480   0.21993
     Eigenvalues ---    0.22000   0.22000   0.22001   0.22098   0.22292
     Eigenvalues ---    0.22776   0.22842   0.23481   0.23530   0.23563
     Eigenvalues ---    0.24002   0.24408   0.24933   0.24998   0.24999
     Eigenvalues ---    0.25000   0.26139   0.26451   0.27830   0.28309
     Eigenvalues ---    0.28439   0.28632   0.28682   0.29537   0.29789
     Eigenvalues ---    0.29984   0.33037   0.33568   0.33682   0.33694
     Eigenvalues ---    0.33864   0.33910   0.33932   0.33939   0.33969
     Eigenvalues ---    0.34019   0.34084   0.34162   0.34320   0.34396
     Eigenvalues ---    0.34462   0.34623   0.34753   0.34769   0.34788
     Eigenvalues ---    0.35055   0.35061   0.35209   0.35213   0.35220
     Eigenvalues ---    0.35270   0.35333   0.35371   0.35390   0.35440
     Eigenvalues ---    0.35574   0.35613   0.40071   0.41821   0.41867
     Eigenvalues ---    0.41911   0.41970   0.42828   0.44889   0.45338
     Eigenvalues ---    0.45610   0.45964   0.46090   0.46207   0.46285
     Eigenvalues ---    0.46423   0.46473   0.46946   0.47560   0.52408
     Eigenvalues ---    0.52994   0.57152   0.68936   2.08167
 En-DIIS/RFO-DIIS/Sim-DIIS IScMMF=       -3 using points:     4    3    2    1
 RFO step:  Lambda=-5.93372637D-07.
 EnCoef did    11 forward-backward iterations
 DidBck=T Rises=T En-DIIS coefs:    0.21749    0.12996    0.30902    0.34352
 Iteration  1 RMS(Cart)=  0.00179857 RMS(Int)=  0.00000031
 Iteration  2 RMS(Cart)=  0.00000082 RMS(Int)=  0.00000001
 Variable       Old X    -DE/DX   Delta X   Delta X   Delta X     New X
                                 (Linear)    (Quad)   (Total)
    R1        2.91343   0.00002  -0.00001   0.00003   0.00002   2.91345
    R2        2.07449   0.00000   0.00000   0.00000   0.00000   2.07449
    R3        2.07387   0.00000   0.00000   0.00000   0.00000   2.07387
    R4        2.06087  -0.00000  -0.00001   0.00001   0.00000   2.06088
    R5        2.91175   0.00001   0.00002  -0.00002   0.00000   2.91175
    R6        2.90746  -0.00001  -0.00003   0.00003  -0.00000   2.90746
    R7        2.92429  -0.00002  -0.00004   0.00003  -0.00002   2.92427
    R8        2.07447  -0.00000   0.00000  -0.00000   0.00000   2.07447
    R9        2.07067  -0.00000  -0.00000   0.00000  -0.00000   2.07067
   R10        2.07370   0.00001   0.00000  -0.00000   0.00000   2.07371
   R11        2.07219  -0.00000  -0.00000   0.00000  -0.00000   2.07218
   R12        2.06701  -0.00001  -0.00002   0.00001  -0.00001   2.06700
   R13        2.07583   0.00000   0.00000  -0.00000   0.00000   2.07584
   R14        2.90589   0.00002   0.00002  -0.00000   0.00002   2.90591
   R15        2.07867   0.00000   0.00000   0.00000   0.00000   2.07867
   R16        2.07883  -0.00000  -0.00000   0.00000  -0.00000   2.07883
   R17        2.93349  -0.00003   0.00011  -0.00014  -0.00003   2.93346
   R18        2.78302   0.00000  -0.00004   0.00005   0.00001   2.78302
   R19        2.06295  -0.00000   0.00000  -0.00000  -0.00000   2.06294
   R20        2.77125  -0.00004  -0.00020   0.00021   0.00001   2.77126
   R21        2.06667   0.00000   0.00000  -0.00000   0.00000   2.06667
   R22        2.06089  -0.00000   0.00001  -0.00002  -0.00000   2.06089
   R23        2.53662   0.00002   0.00000   0.00000   0.00001   2.53663
   R24        2.77248   0.00015   0.00008  -0.00002   0.00006   2.77253
   R25        2.42154   0.00011   0.00002   0.00000   0.00002   2.42156
   R26        2.61969   0.00001   0.00000   0.00000   0.00000   2.61969
   R27        2.55508   0.00011   0.00003  -0.00002   0.00001   2.55509
   R28        2.64349  -0.00001   0.00001   0.00000   0.00001   2.64350
   R29        2.04753  -0.00000   0.00000  -0.00000  -0.00000   2.04753
   R30        2.61932  -0.00004   0.00000  -0.00000  -0.00000   2.61932
   R31        2.05137  -0.00000   0.00000  -0.00000  -0.00000   2.05137
   R32        2.65775  -0.00003  -0.00002   0.00001  -0.00001   2.65773
   R33        2.05046  -0.00000  -0.00000   0.00000  -0.00000   2.05046
   R34        2.87953   0.00001   0.00003  -0.00006  -0.00003   2.87950
   R35        2.51539   0.00010   0.00000  -0.00000   0.00000   2.51540
   R36        2.88004   0.00003   0.00004  -0.00004   0.00000   2.88004
   R37        2.88316  -0.00001  -0.00007   0.00007   0.00000   2.88316
   R38        2.07489  -0.00000   0.00001  -0.00001  -0.00000   2.07489
   R39        2.64186   0.00000  -0.00004   0.00004   0.00000   2.64186
   R40        2.65023   0.00002   0.00005  -0.00005   0.00000   2.65024
   R41        2.63666  -0.00000   0.00002  -0.00003  -0.00000   2.63666
   R42        2.05585   0.00000   0.00000  -0.00000   0.00000   2.05585
   R43        2.63644  -0.00001  -0.00002   0.00003   0.00000   2.63644
   R44        2.05331   0.00000   0.00000  -0.00000   0.00000   2.05331
   R45        2.63881   0.00000   0.00003  -0.00003  -0.00000   2.63880
   R46        2.05336   0.00000   0.00000  -0.00000   0.00000   2.05336
   R47        2.63618  -0.00000  -0.00003   0.00003   0.00000   2.63618
   R48        2.05319   0.00000  -0.00000  -0.00000  -0.00000   2.05319
   R49        2.06152   0.00001   0.00003  -0.00002   0.00001   2.06153
   R50        2.65311   0.00000   0.00002  -0.00002   0.00000   2.65311
   R51        2.64673   0.00001  -0.00001   0.00001   0.00000   2.64674
   R52        2.63151  -0.00001  -0.00002   0.00002  -0.00000   2.63151
   R53        2.05577  -0.00000  -0.00000   0.00000   0.00000   2.05577
   R54        2.63848   0.00000   0.00001  -0.00001  -0.00000   2.63848
   R55        2.05240   0.00000  -0.00000   0.00000   0.00000   2.05240
   R56        2.62872  -0.00001  -0.00002   0.00002  -0.00000   2.62872
   R57        2.05079   0.00000   0.00000  -0.00000   0.00000   2.05079
   R58        2.64205   0.00000   0.00001  -0.00001  -0.00000   2.64204
   R59        2.04969  -0.00000   0.00000  -0.00000   0.00000   2.04969
   R60        2.04729  -0.00000  -0.00000  -0.00000  -0.00000   2.04729
   R61        3.86320  -0.00003  -0.00036   0.00044   0.00008   3.86328
   R62        3.49223   0.00000  -0.00013   0.00016   0.00002   3.49225
   R63        3.45206   0.00004   0.00002   0.00002   0.00003   3.45209
    A1        1.94813  -0.00000  -0.00003   0.00002  -0.00001   1.94812
    A2        1.91535   0.00000   0.00003  -0.00002   0.00001   1.91536
    A3        1.93268   0.00000  -0.00002   0.00002  -0.00000   1.93267
    A4        1.87788  -0.00000   0.00001  -0.00002  -0.00001   1.87787
    A5        1.91679  -0.00001  -0.00000  -0.00002  -0.00003   1.91677
    A6        1.87059   0.00001   0.00002   0.00002   0.00004   1.87063
    A7        1.90114   0.00000   0.00003  -0.00002   0.00001   1.90115
    A8        1.90364   0.00002   0.00008  -0.00004   0.00005   1.90368
    A9        1.95940  -0.00001  -0.00009   0.00006  -0.00002   1.95938
   A10        1.91704  -0.00001  -0.00001   0.00000  -0.00001   1.91703
   A11        1.85343   0.00000  -0.00001  -0.00001  -0.00002   1.85342
   A12        1.92839  -0.00000  -0.00001   0.00000  -0.00000   1.92838
   A13        1.94237  -0.00000  -0.00000  -0.00000  -0.00000   1.94237
   A14        1.92758  -0.00000  -0.00000   0.00000  -0.00000   1.92758
   A15        1.94641   0.00001   0.00001  -0.00000   0.00001   1.94641
   A16        1.88022   0.00000  -0.00001   0.00001  -0.00000   1.88022
   A17        1.88317  -0.00000  -0.00001   0.00001  -0.00000   1.88317
   A18        1.88153  -0.00000   0.00001  -0.00001   0.00000   1.88153
   A19        1.92069  -0.00001  -0.00003   0.00002  -0.00001   1.92068
   A20        1.92783   0.00000   0.00003  -0.00003   0.00000   1.92783
   A21        1.94407   0.00000   0.00000   0.00001   0.00001   1.94408
   A22        1.87299  -0.00000  -0.00003   0.00002  -0.00000   1.87299
   A23        1.87665   0.00000   0.00001  -0.00001   0.00000   1.87665
   A24        1.91959  -0.00000   0.00001  -0.00000   0.00001   1.91960
   A25        2.09594   0.00004   0.00005  -0.00002   0.00003   2.09597
   A26        1.87645   0.00000   0.00002  -0.00001   0.00001   1.87647
   A27        1.90497  -0.00003  -0.00002  -0.00002  -0.00004   1.90493
   A28        1.83526  -0.00002  -0.00004   0.00004   0.00000   1.83526
   A29        1.88269   0.00000  -0.00001   0.00001  -0.00000   1.88269
   A30        1.85396   0.00000  -0.00002   0.00001  -0.00001   1.85395
   A31        1.93542  -0.00005  -0.00008   0.00004  -0.00004   1.93538
   A32        1.97278   0.00002   0.00010  -0.00008   0.00002   1.97280
   A33        1.93258   0.00002   0.00001   0.00002   0.00004   1.93261
   A34        1.77144   0.00003  -0.00001  -0.00001  -0.00002   1.77142
   A35        1.95234   0.00001  -0.00003   0.00004   0.00001   1.95235
   A36        1.89404  -0.00002   0.00000  -0.00002  -0.00002   1.89403
   A37        1.81770  -0.00001   0.00003  -0.00007  -0.00004   1.81767
   A38        1.97935   0.00001   0.00003  -0.00001   0.00002   1.97937
   A39        1.98963  -0.00001  -0.00012   0.00012   0.00000   1.98963
   A40        1.86810   0.00001   0.00012  -0.00010   0.00002   1.86812
   A41        1.87456   0.00000   0.00002  -0.00004  -0.00002   1.87454
   A42        1.92422  -0.00000  -0.00006   0.00007   0.00001   1.92424
   A43        1.82785   0.00006   0.00011  -0.00011  -0.00000   1.82785
   A44        2.10327  -0.00023  -0.00010   0.00002  -0.00008   2.10319
   A45        2.05989  -0.00008  -0.00005   0.00002  -0.00003   2.05985
   A46        2.11994   0.00031   0.00016  -0.00005   0.00011   2.12005
   A47        2.15746  -0.00023  -0.00010   0.00005  -0.00005   2.15742
   A48        1.97335   0.00031   0.00014  -0.00004   0.00010   1.97345
   A49        2.15235  -0.00008  -0.00005  -0.00001  -0.00006   2.15229
   A50        2.05151   0.00006   0.00001   0.00002   0.00003   2.05154
   A51        2.09810  -0.00004  -0.00000  -0.00002  -0.00002   2.09808
   A52        2.13357  -0.00003  -0.00001   0.00000  -0.00001   2.13357
   A53        2.07921   0.00001   0.00003  -0.00002   0.00001   2.07922
   A54        2.10027  -0.00000  -0.00001   0.00000  -0.00000   2.10027
   A55        2.10369  -0.00001  -0.00002   0.00001  -0.00000   2.10369
   A56        2.09137   0.00000  -0.00003   0.00001  -0.00002   2.09134
   A57        2.11416  -0.00000  -0.00000   0.00002   0.00001   2.11418
   A58        2.07747  -0.00000   0.00003  -0.00002   0.00001   2.07748
   A59        2.09088  -0.00008   0.00008  -0.00003   0.00005   2.09093
   A60        2.10838   0.00001   0.00001   0.00000   0.00001   2.10839
   A61        2.08337   0.00007  -0.00009   0.00004  -0.00006   2.08331
   A62        1.90341   0.00002  -0.00010   0.00012   0.00001   1.90342
   A63        1.96541   0.00000  -0.00001  -0.00009  -0.00010   1.96531
   A64        1.84377  -0.00002  -0.00002   0.00003   0.00001   1.84378
   A65        2.01444   0.00001   0.00004  -0.00003   0.00001   2.01445
   A66        1.86348  -0.00002  -0.00004   0.00006   0.00002   1.86350
   A67        1.86211   0.00001   0.00013  -0.00008   0.00005   1.86217
   A68        2.08828  -0.00004   0.00004  -0.00004  -0.00001   2.08827
   A69        2.10692   0.00004  -0.00004   0.00005   0.00001   2.10692
   A70        2.08797  -0.00001   0.00001  -0.00001   0.00000   2.08797
   A71        2.10371   0.00001  -0.00000   0.00000  -0.00000   2.10371
   A72        2.08730  -0.00000   0.00001  -0.00001   0.00000   2.08730
   A73        2.09215  -0.00001  -0.00001   0.00001  -0.00000   2.09215
   A74        2.09177   0.00000   0.00000  -0.00000  -0.00000   2.09177
   A75        2.09186  -0.00000  -0.00001   0.00001   0.00000   2.09187
   A76        2.09955   0.00000   0.00001  -0.00001  -0.00000   2.09955
   A77        2.08952  -0.00000  -0.00000   0.00000   0.00000   2.08952
   A78        2.09557  -0.00000   0.00000  -0.00000  -0.00000   2.09557
   A79        2.09809   0.00000  -0.00000   0.00000   0.00000   2.09809
   A80        2.10663   0.00001   0.00000  -0.00000   0.00000   2.10663
   A81        2.09597  -0.00000  -0.00001   0.00001   0.00000   2.09597
   A82        2.08058  -0.00000   0.00000  -0.00000  -0.00000   2.08058
   A83        2.08674  -0.00000  -0.00001   0.00001  -0.00000   2.08673
   A84        2.09889   0.00002   0.00007  -0.00006   0.00001   2.09890
   A85        2.09696  -0.00002  -0.00006   0.00005  -0.00001   2.09696
   A86        2.06641   0.00001   0.00004  -0.00004  -0.00001   2.06641
   A87        2.14466  -0.00001  -0.00003   0.00003   0.00000   2.14466
   A88        2.07211   0.00000  -0.00001   0.00001   0.00000   2.07211
   A89        2.10851  -0.00001  -0.00001   0.00000  -0.00000   2.10851
   A90        2.08278  -0.00000  -0.00002   0.00002   0.00000   2.08278
   A91        2.09187   0.00001   0.00003  -0.00003   0.00000   2.09187
   A92        2.09474   0.00000   0.00001  -0.00001   0.00000   2.09474
   A93        2.09028  -0.00000   0.00001  -0.00001  -0.00000   2.09028
   A94        2.09803  -0.00000  -0.00002   0.00002   0.00000   2.09803
   A95        2.08877   0.00000  -0.00000   0.00000   0.00000   2.08877
   A96        2.09751  -0.00000  -0.00002   0.00002  -0.00000   2.09751
   A97        2.09654  -0.00000   0.00002  -0.00002  -0.00000   2.09654
   A98        2.10188  -0.00000  -0.00001   0.00001   0.00000   2.10188
   A99        2.09815   0.00000   0.00001  -0.00001   0.00000   2.09815
   A100       2.08250  -0.00000   0.00001  -0.00001  -0.00000   2.08250
   A101       2.10034  -0.00000   0.00001  -0.00002  -0.00000   2.10034
   A102       2.09200   0.00000  -0.00001   0.00002   0.00000   2.09201
   A103       2.09077  -0.00000   0.00000  -0.00000  -0.00000   2.09077
   A104       2.08351  -0.00001   0.00003   0.00000   0.00003   2.08354
   A105       1.88746  -0.00000   0.00004  -0.00006  -0.00002   1.88744
   A106       2.38611  -0.00014  -0.00006   0.00003  -0.00003   2.38608
   A107       1.94268   0.00014   0.00005  -0.00001   0.00004   1.94272
   A108       1.78555  -0.00004   0.00004  -0.00003   0.00001   1.78555
   A109       1.72191  -0.00000   0.00033  -0.00031   0.00002   1.72193
   A110       1.99518  -0.00004   0.00025  -0.00034  -0.00009   1.99509
    D1       -1.28931   0.00001   0.00062  -0.00014   0.00048  -1.28883
    D2        2.90162   0.00000   0.00057  -0.00010   0.00046   2.90208
    D3        0.75834   0.00000   0.00057  -0.00012   0.00045   0.75879
    D4        0.79092   0.00000   0.00063  -0.00016   0.00047   0.79139
    D5       -1.30134  -0.00000   0.00058  -0.00013   0.00045  -1.30088
    D6        2.83857  -0.00000   0.00059  -0.00015   0.00044   2.83901
    D7        2.85253   0.00001   0.00066  -0.00014   0.00053   2.85306
    D8        0.76028   0.00001   0.00061  -0.00010   0.00051   0.76078
    D9       -1.38300   0.00001   0.00062  -0.00012   0.00049  -1.38251
   D10        1.06483  -0.00001  -0.00023   0.00005  -0.00018   1.06465
   D11       -1.02267  -0.00001  -0.00022   0.00004  -0.00018  -1.02285
   D12       -3.11446  -0.00001  -0.00023   0.00005  -0.00018  -3.11464
   D13       -3.13442   0.00000  -0.00012  -0.00001  -0.00013  -3.13454
   D14        1.06126   0.00001  -0.00011  -0.00001  -0.00012   1.06114
   D15       -1.03052   0.00000  -0.00012  -0.00000  -0.00013  -1.03065
   D16       -1.04895   0.00000  -0.00014  -0.00001  -0.00015  -1.04910
   D17       -3.13645   0.00000  -0.00013  -0.00002  -0.00014  -3.13660
   D18        1.05494   0.00000  -0.00014  -0.00001  -0.00015   1.05480
   D19        1.14154   0.00000   0.00016  -0.00014   0.00002   1.14157
   D20       -0.92337   0.00001   0.00019  -0.00015   0.00003  -0.92334
   D21       -3.06203   0.00000   0.00015  -0.00013   0.00002  -3.06201
   D22       -0.94087  -0.00000   0.00008  -0.00009  -0.00001  -0.94087
   D23       -3.00578   0.00000   0.00011  -0.00010   0.00000  -3.00578
   D24        1.13875  -0.00000   0.00007  -0.00008  -0.00001   1.13874
   D25       -2.97990  -0.00000   0.00010  -0.00008   0.00002  -2.97988
   D26        1.23837   0.00000   0.00013  -0.00010   0.00003   1.23841
   D27       -0.90028  -0.00000   0.00009  -0.00007   0.00002  -0.90027
   D28        1.25481   0.00002   0.00049   0.00001   0.00050   1.25531
   D29       -2.93443   0.00002   0.00049   0.00005   0.00054  -2.93389
   D30       -0.93053   0.00001   0.00048   0.00004   0.00052  -0.93002
   D31       -2.95248   0.00002   0.00047   0.00001   0.00049  -2.95200
   D32       -0.85854   0.00002   0.00048   0.00005   0.00052  -0.85801
   D33        1.14536   0.00001   0.00046   0.00004   0.00050   1.14586
   D34       -0.87445   0.00001   0.00045   0.00001   0.00046  -0.87399
   D35        1.21950   0.00001   0.00045   0.00005   0.00050   1.22000
   D36       -3.05979   0.00000   0.00043   0.00004   0.00048  -3.05931
   D37        3.11318   0.00001   0.00040   0.00032   0.00072   3.11390
   D38       -1.19416   0.00003   0.00040   0.00029   0.00069  -1.19347
   D39        0.93516   0.00002   0.00048   0.00023   0.00071   0.93587
   D40        0.99879  -0.00000   0.00036   0.00032   0.00068   0.99947
   D41        2.97464   0.00002   0.00037   0.00028   0.00064   2.97528
   D42       -1.17923   0.00001   0.00045   0.00022   0.00067  -1.17856
   D43       -0.97421   0.00000   0.00040   0.00028   0.00069  -0.97352
   D44        1.00164   0.00002   0.00041   0.00024   0.00065   1.00229
   D45        3.13096   0.00001   0.00049   0.00018   0.00067   3.13164
   D46        1.78593  -0.00000   0.00039  -0.00069  -0.00030   1.78563
   D47       -2.47274   0.00001   0.00056  -0.00085  -0.00029  -2.47302
   D48       -0.25147   0.00001   0.00040  -0.00065  -0.00025  -0.25172
   D49       -0.31422  -0.00002   0.00031  -0.00061  -0.00029  -0.31451
   D50        1.71030  -0.00001   0.00049  -0.00077  -0.00028   1.71002
   D51       -2.35162  -0.00001   0.00033  -0.00057  -0.00025  -2.35187
   D52       -2.33046  -0.00001   0.00033  -0.00060  -0.00027  -2.33073
   D53       -0.30594   0.00000   0.00050  -0.00076  -0.00026  -0.30620
   D54        1.91532   0.00000   0.00034  -0.00056  -0.00022   1.91510
   D55       -1.83613   0.00004  -0.00013   0.00047   0.00033  -1.83580
   D56        1.74345   0.00002  -0.00026   0.00061   0.00036   1.74380
   D57        0.23747   0.00001  -0.00019   0.00047   0.00028   0.23775
   D58       -2.46614  -0.00001  -0.00031   0.00061   0.00030  -2.46584
   D59        2.29626   0.00002  -0.00022   0.00050   0.00028   2.29654
   D60       -0.40734  -0.00000  -0.00034   0.00065   0.00030  -0.40704
   D61        0.28690   0.00002  -0.00033   0.00055   0.00022   0.28712
   D62       -1.81413   0.00001  -0.00043   0.00064   0.00020  -1.81392
   D63        2.40284   0.00001  -0.00044   0.00063   0.00019   2.40303
   D64        2.97328   0.00002   0.00036  -0.00034   0.00003   2.97331
   D65       -0.15409  -0.00001   0.00024  -0.00028  -0.00004  -0.15412
   D66        0.08231   0.00002   0.00014  -0.00008   0.00006   0.08237
   D67       -3.06596  -0.00001   0.00004  -0.00015  -0.00012  -3.06607
   D68       -3.07401   0.00004   0.00026  -0.00013   0.00013  -3.07388
   D69        0.06091   0.00001   0.00016  -0.00021  -0.00005   0.06086
   D70       -0.06478  -0.00000  -0.00004  -0.00012  -0.00017  -0.06494
   D71        2.75939  -0.00005   0.00001  -0.00021  -0.00020   2.75919
   D72        3.09119  -0.00002  -0.00016  -0.00007  -0.00023   3.09096
   D73       -0.36783  -0.00007  -0.00010  -0.00016  -0.00026  -0.36810
   D74        3.13208  -0.00004  -0.00014  -0.00004  -0.00018   3.13190
   D75       -0.01121  -0.00003  -0.00020   0.00007  -0.00014  -0.01134
   D76       -0.00216  -0.00001  -0.00003   0.00004   0.00001  -0.00215
   D77        3.13774   0.00000  -0.00009   0.00015   0.00006   3.13780
   D78       -3.13985   0.00004  -0.00003   0.00017   0.00015  -3.13971
   D79       -0.00491   0.00001  -0.00013   0.00010  -0.00003  -0.00494
   D80        0.00513   0.00000   0.00009  -0.00010  -0.00001   0.00512
   D81       -3.14105   0.00001   0.00009  -0.00009   0.00000  -3.14105
   D82       -3.13474  -0.00001   0.00016  -0.00021  -0.00005  -3.13479
   D83        0.00227  -0.00001   0.00016  -0.00020  -0.00004   0.00223
   D84       -0.00139   0.00001  -0.00000   0.00002   0.00002  -0.00137
   D85        3.11944   0.00000  -0.00006   0.00004  -0.00002   3.11942
   D86       -3.13838   0.00000  -0.00001   0.00001   0.00000  -3.13837
   D87       -0.01755  -0.00000  -0.00006   0.00003  -0.00003  -0.01758
   D88        3.09998  -0.00000  -0.00030   0.00024  -0.00006   3.09992
   D89       -0.00579  -0.00001  -0.00016   0.00013  -0.00003  -0.00582
   D90       -0.02128   0.00001  -0.00025   0.00022  -0.00003  -0.02131
   D91       -3.12705  -0.00001  -0.00011   0.00011  -0.00000  -3.12705
   D92       -1.19161   0.00004   0.00062   0.00017   0.00079  -1.19083
   D93        2.83174   0.00002   0.00066   0.00018   0.00084   2.83258
   D94        0.80570   0.00002   0.00052   0.00030   0.00082   0.80652
   D95        1.91467   0.00005   0.00048   0.00028   0.00076   1.91543
   D96       -0.34516   0.00003   0.00052   0.00030   0.00082  -0.34434
   D97       -2.37120   0.00003   0.00038   0.00042   0.00080  -2.37040
   D98        0.00883  -0.00000   0.00022  -0.00018   0.00004   0.00887
   D99       -3.09709  -0.00001   0.00036  -0.00030   0.00006  -3.09703
   D100       2.22834  -0.00001   0.00009   0.00028   0.00037   2.22871
   D101      -0.90645  -0.00000   0.00013   0.00029   0.00042  -0.90603
   D102      -1.82229   0.00002   0.00002   0.00023   0.00025  -1.82203
   D103       1.32611   0.00002   0.00006   0.00024   0.00031   1.32642
   D104       0.24385   0.00001   0.00018   0.00016   0.00034   0.24419
   D105      -2.89094   0.00002   0.00022   0.00017   0.00039  -2.89055
   D106      -1.19724   0.00003   0.00051  -0.00013   0.00038  -1.19686
   D107       1.94311   0.00003   0.00045  -0.00027   0.00018   1.94329
   D108       2.88468  -0.00001   0.00063  -0.00019   0.00044   2.88512
   D109      -0.25815  -0.00000   0.00057  -0.00033   0.00024  -0.25791
   D110       0.81779   0.00001   0.00057  -0.00019   0.00038   0.81816
   D111      -2.32505   0.00002   0.00050  -0.00033   0.00018  -2.32487
   D112      -3.13926   0.00000   0.00004  -0.00003   0.00001  -3.13926
   D113       0.00879   0.00000   0.00009  -0.00006   0.00003   0.00882
   D114      -0.00440  -0.00000  -0.00000  -0.00004  -0.00004  -0.00444
   D115      -3.13953  -0.00000   0.00005  -0.00007  -0.00002  -3.13955
   D116      -3.14094  -0.00000  -0.00004   0.00003  -0.00002  -3.14095
   D117      -0.03637   0.00000  -0.00002   0.00005   0.00003  -0.03634
   D118       0.00746   0.00000  -0.00000   0.00004   0.00003   0.00749
   D119       3.11203   0.00001   0.00002   0.00006   0.00008   3.11211
   D120       0.00168   0.00000   0.00002   0.00001   0.00002   0.00170
   D121      -3.14025   0.00000   0.00000   0.00001   0.00002  -3.14023
   D122       3.13679  -0.00000  -0.00004   0.00004   0.00000   3.13679
   D123      -0.00513  -0.00000  -0.00005   0.00005  -0.00001  -0.00514
   D124      -0.00203   0.00000  -0.00002   0.00003   0.00001  -0.00203
   D125      -3.14153  -0.00000  -0.00006   0.00004  -0.00001  -3.14154
   D126       3.13990   0.00000  -0.00001   0.00002   0.00001   3.13991
   D127       0.00040  -0.00000  -0.00004   0.00003  -0.00001   0.00039
   D128       0.00519  -0.00000   0.00002  -0.00003  -0.00001   0.00518
   D129      -3.13329  -0.00000   0.00002  -0.00005  -0.00003  -3.13332
   D130      -3.13850   0.00000   0.00005  -0.00004   0.00001  -3.13849
   D131       0.00621  -0.00000   0.00005  -0.00006  -0.00001   0.00620
   D132      -0.00791  -0.00000  -0.00000  -0.00000  -0.00001  -0.00792
   D133      -3.11252  -0.00001  -0.00003  -0.00003  -0.00006  -3.11257
   D134       3.13060   0.00000  -0.00001   0.00002   0.00001   3.13061
   D135       0.02599  -0.00000  -0.00003  -0.00001  -0.00004   0.02595
   D136       3.13914   0.00000  -0.00000  -0.00017  -0.00017   3.13896
   D137       0.00571   0.00000  -0.00001  -0.00013  -0.00014   0.00557
   D138      -0.00127   0.00000   0.00006  -0.00004   0.00002  -0.00125
   D139      -3.13469  -0.00000   0.00005   0.00000   0.00005  -3.13464
   D140      -3.13526  -0.00000   0.00009   0.00011   0.00020  -3.13506
   D141      -0.00692   0.00000   0.00011   0.00006   0.00017  -0.00675
   D142       0.00509  -0.00000   0.00003  -0.00003  -0.00000   0.00508
   D143       3.13343   0.00001   0.00004  -0.00008  -0.00004   3.13339
   D144      -0.00341   0.00000  -0.00009   0.00007  -0.00002  -0.00343
   D145      -3.12749  -0.00000   0.00002  -0.00001   0.00000  -3.12749
   D146       3.12997   0.00000  -0.00008   0.00003  -0.00005   3.12992
   D147       0.00589   0.00000   0.00002  -0.00005  -0.00003   0.00586
   D148       0.00427  -0.00000   0.00004  -0.00004  -0.00000   0.00426
   D149      -3.10835  -0.00000   0.00003  -0.00004  -0.00001  -3.10836
   D150       3.12827  -0.00000  -0.00007   0.00005  -0.00002   3.12824
   D151       0.01565  -0.00000  -0.00008   0.00005  -0.00003   0.01562
   D152      -0.00045   0.00000   0.00005  -0.00003   0.00002  -0.00043
   D153      -3.10306  -0.00000  -0.00006   0.00006  -0.00000  -3.10306
   D154       3.11219   0.00000   0.00006  -0.00003   0.00002   3.11221
   D155       0.00958  -0.00000  -0.00005   0.00006   0.00000   0.00958
   D156      -0.00428  -0.00000  -0.00008   0.00007  -0.00002  -0.00430
   D157      -3.13263  -0.00001  -0.00010   0.00011   0.00002  -3.13261
   D158       3.09868   0.00000   0.00003  -0.00002   0.00000   3.09868
   D159      -0.02967  -0.00000   0.00001   0.00003   0.00004  -0.02964
   D160       1.62345  -0.00001   0.00098  -0.00097   0.00000   1.62345
   D161      -0.42479   0.00005   0.00059  -0.00050   0.00009  -0.42471
   D162      -1.07077  -0.00001   0.00086  -0.00082   0.00004  -1.07074
   D163      -3.11901   0.00005   0.00047  -0.00035   0.00012  -3.11889
         Item               Value     Threshold  Converged?
 Maximum Force            0.000312     0.000450     YES
 RMS     Force            0.000038     0.000300     YES
 Maximum Displacement     0.008418     0.001800     NO 
 RMS     Displacement     0.001799     0.001200     NO 
 Predicted change in Energy=-2.872792D-07
 GradGradGradGradGradGradGradGradGradGradGradGradGradGradGradGradGradGrad

 Stoichiometry    C26H28F2N2NiO(3)
 Framework group  C1[X(C26H28F2N2NiO)]
 Deg. of freedom   174
 Full point group                 C1      NOp   1
 Largest Abelian subgroup         C1      NOp   1
 Largest concise Abelian subgroup C1      NOp   1
                         Standard orientation:                         
 ---------------------------------------------------------------------
 Center     Atomic      Atomic             Coordinates (Angstroms)
 Number     Number       Type             X           Y           Z
 ---------------------------------------------------------------------
      1          6           0       -3.392713   -1.373142    1.079335
      2          6           0       -4.526396   -0.772784    0.224194
      3          6           0       -5.859950   -0.931500    0.979581
      4          6           0       -4.594286   -1.521749   -1.118048
      5          6           0       -4.341959    0.745463   -0.011459
      6          6           0       -3.239183    1.250590   -0.956644
      7          6           0       -3.270645    2.798697   -1.066502
      8          8           0       -2.165865    3.241292   -0.209670
      9          6           0       -1.417353    2.142738   -0.023246
     10          6           0       -0.100144    2.238686    0.615752
     11          6           0        0.412416    3.413082    1.144761
     12          6           0        1.678857    3.357505    1.736281
     13          6           0        2.359140    2.150117    1.762063
     14          6           0        1.770899    1.003635    1.198548
     15          6           0        2.541436   -0.310797    1.178364
     16          6           0        3.721536   -0.181225    0.222691
     17          6           0        5.007096   -0.510177    0.662657
     18          6           0        6.101029   -0.395796   -0.195816
     19          6           0        5.913484    0.052148   -1.503715
     20          6           0        4.630297    0.380931   -1.945588
     21          6           0        3.533093    0.272254   -1.090968
     22          6           0        1.637343   -1.516989    0.942804
     23          6           0        0.730453   -1.878802    1.951645
     24          6           0       -0.120431   -2.968976    1.788329
     25          6           0       -0.081411   -3.714994    0.608764
     26          6           0        0.813806   -3.366469   -0.397298
     27          6           0        1.672494   -2.275239   -0.234260
     28          7           0        0.562068    1.060198    0.644174
     29          7           0       -1.881906    1.021042   -0.433203
     30          1           0       -3.144887   -0.728444    1.932595
     31          1           0       -3.705220   -2.346404    1.478689
     32          1           0       -2.501789   -1.544335    0.474117
     33          1           0       -5.840085   -0.399277    1.939491
     34          1           0       -6.058069   -1.988785    1.188314
     35          1           0       -6.702666   -0.541269    0.394992
     36          1           0       -4.888145   -2.565046   -0.951893
     37          1           0       -3.612289   -1.532902   -1.599693
     38          1           0       -5.337243   -1.071953   -1.790633
     39          1           0       -5.281516    1.131468   -0.433590
     40          1           0       -4.211495    1.247871    0.958448
     41          1           0       -3.319246    0.771966   -1.934518
     42          1           0       -3.061536    3.167082   -2.074770
     43          1           0       -4.184400    3.252231   -0.680867
     44          1           0       -0.160853    4.330954    1.091260
     45          1           0        2.123324    4.250193    2.165175
     46          1           0        3.351536    2.074452    2.194236
     47          1           0        2.961199   -0.423380    2.186675
     48          1           0        5.152299   -0.863706    1.681226
     49          1           0        7.095208   -0.655668    0.157306
     50          1           0        6.762902    0.142515   -2.175286
     51          1           0        4.476290    0.723045   -2.965258
     52          1           0        2.530994    0.505560   -1.453542
     53          1           0        0.690205   -1.292808    2.867313
     54          1           0       -0.824551   -3.225860    2.574331
     55          1           0       -0.764543   -4.546072    0.466035
     56          1           0        0.826866   -3.917668   -1.331358
     57          1           0        2.359807   -2.007855   -1.027868
     58         28           0       -0.385505   -0.341197   -0.723871
     59          9           0        0.637725    0.470711   -2.031151
     60          9           0       -1.398351   -1.739005   -1.321660
 ---------------------------------------------------------------------
 Rotational constants (GHZ):           0.2273119           0.1037010           0.0862694
 Basis read from rwf:  (6D, 7F)
 Pseudo-potential data read from rwf file.
 There are   598 symmetry adapted cartesian basis functions of A   symmetry.
 There are   595 symmetry adapted basis functions of A   symmetry.
   595 basis functions,  1134 primitive gaussians,   598 cartesian basis functions
   122 alpha electrons      120 beta electrons
       nuclear repulsion energy      3764.5258310424 Hartrees.
 NAtoms=   60 NActive=   60 NUniq=   60 SFac= 1.00D+00 NAtFMM=   60 NAOKFM=T Big=T
 Integral buffers will be    131072 words long.
 Raffenetti 2 integral format.
 Two-electron integral symmetry is turned on.
 Nuclear repulsion after empirical dispersion term =     3764.3684882148 Hartrees.
 One-electron integrals computed using PRISM.
 PrsmSu:  requested number of processors reduced to:  12 ShMem   1 Linda.
   1 Symmetry operations used in ECPInt.
 ECPInt:  NShTT=   20301 NPrTT=  123456 LenC2=   17174 LenP2D=   56662.
 LDataN:  DoStor=T MaxTD1= 6 Len=  172
 Number of processors reduced to  12 by ecpmxn.
 NBasis=   595 RedAO= T EigKep=  6.97D-06  NBF=   595
 NBsUse=   594 1.00D-06 EigRej=  9.33D-07 NBFU=   594
 Initial guess from the checkpoint file:  "Lig2224_xyz_4.chk"
 B after Tr=    -0.000000   -0.000000   -0.000000
         Rot=    1.000000    0.000102    0.000043    0.000006 Ang=   0.01 deg.
 Initial guess <Sx>= 0.0000 <Sy>= 0.0000 <Sz>= 1.0000 <S**2>= 2.0053 S= 1.0018
 Requested convergence on RMS density matrix=1.00D-08 within 128 cycles.
 Requested convergence on MAX density matrix=1.00D-06.
 Requested convergence on             energy=1.00D-06.
 No special actions if energy rises.
 SCF Done:  E(UB3LYP) =  -1561.66771365     A.U. after   15 cycles
            NFock= 15  Conv=0.69D-08     -V/T= 2.0504
 <Sx>= 0.0000 <Sy>= 0.0000 <Sz>= 1.0000 <S**2>= 2.0053 S= 1.0018
 <L.S>=  0.00000000000    
 Annihilation of the first spin contaminant:
 S**2 before annihilation     2.0053,   after     2.0000
 PrsmSu:  requested number of processors reduced to:  12 ShMem   1 Linda.
   1 Symmetry operations used in ECPInt.
 ECPInt:  NShTT=   20301 NPrTT=  123456 LenC2=   17174 LenP2D=   56662.
 LDataN:  DoStor=T MaxTD1= 7 Len=  274
 Number of processors reduced to  13 by ecpmxn.
 Calling FoFJK, ICntrl=      2127 FMM=T ISym2X=0 I1Cent= 0 IOpClX= 1 NMat=1 NMatS=1 NMatT=0.
 ***** Axes restored to original set *****
 -------------------------------------------------------------------
 Center     Atomic                   Forces (Hartrees/Bohr)
 Number     Number              X              Y              Z
 -------------------------------------------------------------------
      1        6          -0.000006924   -0.000002413   -0.000002325
      2        6          -0.000010679    0.000008283    0.000002913
      3        6           0.000005292   -0.000001393    0.000000643
      4        6          -0.000000090   -0.000001444   -0.000009473
      5        6           0.000001883   -0.000001751    0.000006712
      6        6          -0.000012590   -0.000003577    0.000004194
      7        6          -0.000004234   -0.000020418   -0.000005576
      8        8           0.000004331    0.000023411   -0.000001769
      9        6          -0.000001645    0.000021101    0.000001378
     10        6           0.000003474    0.000006481   -0.000017227
     11        6           0.000002719    0.000000314    0.000005518
     12        6          -0.000002435    0.000006597   -0.000004164
     13        6          -0.000006638    0.000004031    0.000001220
     14        6           0.000005411   -0.000026832   -0.000019333
     15        6          -0.000008189    0.000023149    0.000017600
     16        6          -0.000002187   -0.000020528    0.000009600
     17        6           0.000003943    0.000006519   -0.000003462
     18        6          -0.000003973    0.000004639   -0.000000705
     19        6          -0.000001686   -0.000003649    0.000007292
     20        6           0.000007600    0.000013060   -0.000000336
     21        6           0.000005418    0.000009737   -0.000006158
     22        6           0.000002256   -0.000012060   -0.000006943
     23        6           0.000010534   -0.000000089    0.000009009
     24        6          -0.000012522   -0.000011597    0.000006599
     25        6          -0.000004748   -0.000011849    0.000002530
     26        6           0.000003091   -0.000005163    0.000013867
     27        6          -0.000006542   -0.000000137    0.000002745
     28        7          -0.000032310   -0.000031232    0.000000917
     29        7           0.000008409    0.000020248    0.000004395
     30        1          -0.000000284   -0.000001002   -0.000004019
     31        1           0.000001469   -0.000002216   -0.000000894
     32        1           0.000003841    0.000000385   -0.000015230
     33        1           0.000003569   -0.000002190   -0.000000772
     34        1           0.000003495   -0.000002620   -0.000001145
     35        1           0.000002407   -0.000001959   -0.000000955
     36        1           0.000004438   -0.000004562    0.000002333
     37        1           0.000006284    0.000001885    0.000009559
     38        1           0.000004966   -0.000000216    0.000002468
     39        1          -0.000001719   -0.000000518   -0.000000318
     40        1           0.000000140    0.000002605   -0.000002461
     41        1           0.000001296   -0.000000094   -0.000000116
     42        1          -0.000002738    0.000006416    0.000000962
     43        1          -0.000002667    0.000002693   -0.000001012
     44        1          -0.000005846    0.000006135   -0.000006541
     45        1          -0.000002183    0.000002701   -0.000003429
     46        1          -0.000000390    0.000001514   -0.000003415
     47        1           0.000001431   -0.000004093   -0.000009333
     48        1          -0.000000256    0.000000739    0.000000068
     49        1          -0.000000443    0.000000686    0.000000371
     50        1          -0.000000793    0.000001541    0.000001881
     51        1          -0.000002772    0.000002389    0.000004863
     52        1          -0.000004364    0.000018797    0.000001171
     53        1          -0.000000010   -0.000001427   -0.000004516
     54        1           0.000003402   -0.000000928   -0.000003556
     55        1           0.000005126   -0.000003779   -0.000000278
     56        1           0.000003164   -0.000003790    0.000004418
     57        1          -0.000000437   -0.000003467    0.000004758
     58       28           0.000020846    0.000011394   -0.000025354
     59        9          -0.000000293   -0.000044687    0.000020873
     60        9           0.000012351    0.000024234    0.000009958
 -------------------------------------------------------------------
 Cartesian Forces:  Max     0.000044687 RMS     0.000009241

 GradGradGradGradGradGradGradGradGradGradGradGradGradGradGradGradGradGrad
 Berny optimization.
 Using GEDIIS/GDIIS optimizer.
 FormGI is forming the generalized inverse of G from B-inverse, IUseBI=4.
 Internal  Forces:  Max     0.000135948 RMS     0.000023727
 Search for a local minimum.
 Step number   5 out of a maximum of  346
 All quantities printed in internal units (Hartrees-Bohrs-Radians)
 Mixed Optimization -- En-DIIS/RFO-DIIS
 Swapping is turned off.
 Update second derivatives using D2CorX and points    1    2    3    4    5
 DE= -3.22D-07 DEPred=-2.87D-07 R= 1.12D+00
 Trust test= 1.12D+00 RLast= 3.98D-03 DXMaxT set to 7.50D-02
 ITU=  0 -1  0 -1  0
     Eigenvalues ---    0.00187   0.00230   0.00251   0.00259   0.00266
     Eigenvalues ---    0.00321   0.00448   0.00464   0.00928   0.01301
     Eigenvalues ---    0.01431   0.01459   0.01520   0.01650   0.01906
     Eigenvalues ---    0.01959   0.02015   0.02088   0.02097   0.02103
     Eigenvalues ---    0.02113   0.02127   0.02132   0.02139   0.02142
     Eigenvalues ---    0.02145   0.02147   0.02149   0.02150   0.02152
     Eigenvalues ---    0.02160   0.02165   0.02169   0.02183   0.02194
     Eigenvalues ---    0.02215   0.02234   0.02462   0.02801   0.03796
     Eigenvalues ---    0.04261   0.04549   0.04653   0.04741   0.04822
     Eigenvalues ---    0.05007   0.05089   0.05234   0.05346   0.05356
     Eigenvalues ---    0.05376   0.05476   0.05629   0.05679   0.05947
     Eigenvalues ---    0.06081   0.06286   0.06324   0.07674   0.09522
     Eigenvalues ---    0.10275   0.11195   0.12281   0.13081   0.13429
     Eigenvalues ---    0.14186   0.14802   0.15068   0.15910   0.15987
     Eigenvalues ---    0.15995   0.15997   0.15998   0.15999   0.16000
     Eigenvalues ---    0.16000   0.16000   0.16000   0.16000   0.16000
     Eigenvalues ---    0.16000   0.16000   0.16000   0.16000   0.16000
     Eigenvalues ---    0.16000   0.16000   0.16005   0.16081   0.16815
     Eigenvalues ---    0.19049   0.19704   0.20779   0.21435   0.21990
     Eigenvalues ---    0.22000   0.22001   0.22003   0.22113   0.22407
     Eigenvalues ---    0.22799   0.23410   0.23494   0.23554   0.23685
     Eigenvalues ---    0.24134   0.24445   0.24934   0.24998   0.24999
     Eigenvalues ---    0.26163   0.26424   0.27801   0.28292   0.28437
     Eigenvalues ---    0.28626   0.28682   0.29495   0.29747   0.29937
     Eigenvalues ---    0.32690   0.33366   0.33680   0.33684   0.33861
     Eigenvalues ---    0.33905   0.33931   0.33934   0.33968   0.33997
     Eigenvalues ---    0.34075   0.34160   0.34198   0.34396   0.34444
     Eigenvalues ---    0.34622   0.34750   0.34768   0.34782   0.35055
     Eigenvalues ---    0.35061   0.35209   0.35213   0.35220   0.35269
     Eigenvalues ---    0.35333   0.35370   0.35390   0.35440   0.35574
     Eigenvalues ---    0.35613   0.39285   0.41813   0.41831   0.41911
     Eigenvalues ---    0.41963   0.42732   0.43506   0.45290   0.45588
     Eigenvalues ---    0.45947   0.46078   0.46194   0.46254   0.46421
     Eigenvalues ---    0.46466   0.46925   0.47555   0.50574   0.52714
     Eigenvalues ---    0.53262   0.57815   0.69387   2.33142
 En-DIIS/RFO-DIIS/Sim-DIIS IScMMF=       -3 using points:     5    4    3    2    1
 RFO step:  Lambda=-3.57738281D-07.
 DIIS inversion failure, remove point   5.
 RFO-DIIS uses    4 points instead of    5
 DidBck=T Rises=F RFO-DIIS coefs:    0.35681   -0.00320    0.62101    0.02538    0.00000
 Iteration  1 RMS(Cart)=  0.00093334 RMS(Int)=  0.00000010
 Iteration  2 RMS(Cart)=  0.00000022 RMS(Int)=  0.00000000
 Variable       Old X    -DE/DX   Delta X   Delta X   Delta X     New X
                                 (Linear)    (Quad)   (Total)
    R1        2.91345  -0.00001  -0.00002   0.00001  -0.00002   2.91343
    R2        2.07449  -0.00000  -0.00000   0.00000   0.00000   2.07449
    R3        2.07387  -0.00000  -0.00000   0.00000   0.00000   2.07387
    R4        2.06088   0.00000  -0.00001   0.00000  -0.00001   2.06087
    R5        2.91175   0.00001   0.00001   0.00001   0.00001   2.91177
    R6        2.90746  -0.00001  -0.00001  -0.00001  -0.00002   2.90744
    R7        2.92427  -0.00002  -0.00001  -0.00002  -0.00003   2.92424
    R8        2.07447   0.00000   0.00000   0.00000   0.00000   2.07447
    R9        2.07067  -0.00000  -0.00000  -0.00000  -0.00000   2.07067
   R10        2.07371   0.00000   0.00000   0.00000   0.00000   2.07371
   R11        2.07218  -0.00000  -0.00000  -0.00000  -0.00000   2.07218
   R12        2.06700  -0.00001  -0.00000  -0.00001  -0.00001   2.06699
   R13        2.07584   0.00000  -0.00000   0.00000   0.00000   2.07584
   R14        2.90591  -0.00001  -0.00000   0.00001   0.00001   2.90591
   R15        2.07867  -0.00000  -0.00000  -0.00000  -0.00000   2.07867
   R16        2.07883  -0.00000  -0.00000  -0.00000  -0.00000   2.07883
   R17        2.93346  -0.00002   0.00007   0.00001   0.00008   2.93354
   R18        2.78302   0.00001  -0.00003  -0.00000  -0.00003   2.78299
   R19        2.06294  -0.00000   0.00000  -0.00000   0.00000   2.06295
   R20        2.77126  -0.00004  -0.00011  -0.00003  -0.00015   2.77112
   R21        2.06667   0.00000   0.00000   0.00000   0.00000   2.06667
   R22        2.06089  -0.00000   0.00001   0.00000   0.00001   2.06090
   R23        2.53663   0.00001  -0.00000   0.00000   0.00000   2.53663
   R24        2.77253   0.00005   0.00001   0.00003   0.00004   2.77258
   R25        2.42156   0.00002  -0.00000   0.00001   0.00001   2.42157
   R26        2.61969  -0.00000  -0.00000   0.00000  -0.00000   2.61969
   R27        2.55509   0.00007   0.00002   0.00001   0.00002   2.55512
   R28        2.64350  -0.00002  -0.00001   0.00001  -0.00000   2.64350
   R29        2.04753   0.00000   0.00000  -0.00000   0.00000   2.04753
   R30        2.61932  -0.00002  -0.00001   0.00001   0.00000   2.61932
   R31        2.05137  -0.00000   0.00000  -0.00000   0.00000   2.05137
   R32        2.65773  -0.00001  -0.00000  -0.00001  -0.00001   2.65772
   R33        2.05046  -0.00000  -0.00000  -0.00000  -0.00000   2.05046
   R34        2.87950   0.00003   0.00005  -0.00001   0.00004   2.87954
   R35        2.51540   0.00004   0.00001  -0.00001   0.00001   2.51540
   R36        2.88004  -0.00001   0.00002  -0.00000   0.00002   2.88006
   R37        2.88316  -0.00000  -0.00004  -0.00001  -0.00005   2.88312
   R38        2.07489   0.00000   0.00001   0.00000   0.00001   2.07489
   R39        2.64186  -0.00001  -0.00002  -0.00001  -0.00003   2.64183
   R40        2.65024   0.00002   0.00002   0.00001   0.00003   2.65027
   R41        2.63666   0.00000   0.00001   0.00000   0.00002   2.63667
   R42        2.05585  -0.00000   0.00000   0.00000   0.00000   2.05586
   R43        2.63644   0.00000  -0.00001  -0.00000  -0.00002   2.63642
   R44        2.05331  -0.00000   0.00000   0.00000   0.00000   2.05331
   R45        2.63880   0.00001   0.00001   0.00001   0.00002   2.63882
   R46        2.05336  -0.00000   0.00000  -0.00000   0.00000   2.05337
   R47        2.63618  -0.00001  -0.00001  -0.00001  -0.00002   2.63616
   R48        2.05319  -0.00000   0.00000  -0.00000  -0.00000   2.05319
   R49        2.06153   0.00001   0.00001   0.00001   0.00002   2.06155
   R50        2.65311   0.00001   0.00001   0.00001   0.00001   2.65312
   R51        2.64674   0.00001  -0.00001   0.00000  -0.00001   2.64673
   R52        2.63151  -0.00000  -0.00001  -0.00000  -0.00001   2.63150
   R53        2.05577  -0.00000  -0.00000  -0.00000  -0.00000   2.05577
   R54        2.63848  -0.00001   0.00000   0.00000   0.00000   2.63848
   R55        2.05240  -0.00000  -0.00000  -0.00000  -0.00000   2.05240
   R56        2.62872  -0.00001  -0.00001  -0.00001  -0.00002   2.62870
   R57        2.05079  -0.00000  -0.00000   0.00000   0.00000   2.05079
   R58        2.64204   0.00000   0.00001   0.00000   0.00001   2.64205
   R59        2.04969  -0.00000  -0.00000   0.00000   0.00000   2.04969
   R60        2.04729  -0.00000   0.00000  -0.00000  -0.00000   2.04728
   R61        3.86328  -0.00003  -0.00027  -0.00000  -0.00027   3.86300
   R62        3.49225  -0.00002  -0.00008  -0.00001  -0.00009   3.49215
   R63        3.45209   0.00002  -0.00001   0.00002   0.00000   3.45209
    A1        1.94812   0.00000  -0.00001  -0.00001  -0.00002   1.94810
    A2        1.91536   0.00000   0.00000   0.00002   0.00002   1.91538
    A3        1.93267  -0.00002  -0.00001  -0.00002  -0.00002   1.93265
    A4        1.87787   0.00000   0.00001   0.00000   0.00001   1.87788
    A5        1.91677   0.00000   0.00002  -0.00001   0.00000   1.91677
    A6        1.87063   0.00001  -0.00002   0.00003   0.00001   1.87064
    A7        1.90115   0.00001   0.00001   0.00002   0.00003   1.90118
    A8        1.90368   0.00000   0.00000   0.00004   0.00004   1.90373
    A9        1.95938  -0.00001  -0.00002  -0.00003  -0.00006   1.95932
   A10        1.91703  -0.00001   0.00000  -0.00001  -0.00001   1.91702
   A11        1.85342   0.00001   0.00001  -0.00001   0.00000   1.85342
   A12        1.92838   0.00000   0.00000  -0.00001  -0.00001   1.92838
   A13        1.94237   0.00000   0.00000   0.00000   0.00000   1.94237
   A14        1.92758   0.00000  -0.00000  -0.00000  -0.00000   1.92758
   A15        1.94641   0.00000   0.00000   0.00000   0.00000   1.94642
   A16        1.88022  -0.00000  -0.00000  -0.00000  -0.00000   1.88021
   A17        1.88317  -0.00000  -0.00000  -0.00000  -0.00000   1.88316
   A18        1.88153  -0.00000   0.00000   0.00000   0.00000   1.88153
   A19        1.92068  -0.00001  -0.00000  -0.00001  -0.00002   1.92066
   A20        1.92783   0.00001   0.00002   0.00001   0.00003   1.92786
   A21        1.94408  -0.00000  -0.00000  -0.00000  -0.00000   1.94407
   A22        1.87299  -0.00000  -0.00001  -0.00001  -0.00002   1.87297
   A23        1.87665   0.00000   0.00000  -0.00000   0.00000   1.87665
   A24        1.91960   0.00000  -0.00000   0.00001   0.00001   1.91961
   A25        2.09597  -0.00005   0.00000   0.00001   0.00001   2.09598
   A26        1.87647   0.00000   0.00000   0.00001   0.00001   1.87648
   A27        1.90493   0.00002   0.00002  -0.00001   0.00001   1.90494
   A28        1.83526   0.00003  -0.00003   0.00001  -0.00001   1.83525
   A29        1.88269   0.00000   0.00000  -0.00001  -0.00001   1.88268
   A30        1.85395  -0.00001  -0.00000  -0.00000  -0.00001   1.85395
   A31        1.93538   0.00000  -0.00001  -0.00003  -0.00003   1.93535
   A32        1.97280  -0.00002   0.00004   0.00002   0.00005   1.97285
   A33        1.93261   0.00000  -0.00002   0.00002  -0.00000   1.93261
   A34        1.77142   0.00001   0.00002  -0.00001   0.00001   1.77142
   A35        1.95235  -0.00000  -0.00002  -0.00001  -0.00003   1.95232
   A36        1.89403   0.00001   0.00001   0.00001   0.00001   1.89404
   A37        1.81767  -0.00000   0.00003   0.00000   0.00004   1.81770
   A38        1.97937  -0.00000   0.00000   0.00000   0.00001   1.97938
   A39        1.98963   0.00000  -0.00006  -0.00002  -0.00008   1.98955
   A40        1.86812   0.00000   0.00005   0.00002   0.00007   1.86819
   A41        1.87454   0.00000   0.00003  -0.00001   0.00002   1.87456
   A42        1.92424  -0.00000  -0.00004  -0.00001  -0.00004   1.92419
   A43        1.82785   0.00002   0.00007   0.00001   0.00008   1.82793
   A44        2.10319  -0.00009  -0.00004  -0.00002  -0.00006   2.10313
   A45        2.05985  -0.00002  -0.00002  -0.00001  -0.00003   2.05983
   A46        2.12005   0.00011   0.00006   0.00003   0.00009   2.12014
   A47        2.15742  -0.00012  -0.00007   0.00000  -0.00007   2.15735
   A48        1.97345   0.00014   0.00006   0.00003   0.00009   1.97354
   A49        2.15229  -0.00002   0.00002  -0.00003  -0.00002   2.15227
   A50        2.05154   0.00002  -0.00001   0.00001   0.00000   2.05154
   A51        2.09808  -0.00001   0.00001  -0.00001   0.00000   2.09808
   A52        2.13357  -0.00001  -0.00000  -0.00000  -0.00000   2.13356
   A53        2.07922  -0.00000   0.00000   0.00001   0.00001   2.07923
   A54        2.10027   0.00000   0.00000  -0.00000  -0.00000   2.10026
   A55        2.10369  -0.00000  -0.00000  -0.00001  -0.00001   2.10368
   A56        2.09134   0.00002   0.00001  -0.00002  -0.00001   2.09133
   A57        2.11418  -0.00001  -0.00002   0.00001  -0.00001   2.11417
   A58        2.07748  -0.00001   0.00001   0.00001   0.00002   2.07750
   A59        2.09093  -0.00010  -0.00005   0.00007   0.00002   2.09095
   A60        2.10839   0.00000  -0.00000   0.00000   0.00000   2.10840
   A61        2.08331   0.00009   0.00005  -0.00007  -0.00003   2.08329
   A62        1.90342  -0.00008  -0.00004  -0.00005  -0.00009   1.90333
   A63        1.96531   0.00014   0.00013  -0.00006   0.00006   1.96538
   A64        1.84378  -0.00002  -0.00005   0.00002  -0.00003   1.84376
   A65        2.01445  -0.00004   0.00002  -0.00000   0.00002   2.01447
   A66        1.86350   0.00004  -0.00007   0.00005  -0.00002   1.86348
   A67        1.86217  -0.00004  -0.00000   0.00006   0.00005   1.86222
   A68        2.08827   0.00004   0.00001   0.00002   0.00004   2.08831
   A69        2.10692  -0.00004  -0.00001  -0.00003  -0.00004   2.10688
   A70        2.08797   0.00001  -0.00000   0.00001   0.00001   2.08798
   A71        2.10371  -0.00001   0.00000  -0.00000  -0.00000   2.10371
   A72        2.08730   0.00000   0.00001   0.00000   0.00001   2.08731
   A73        2.09215   0.00000  -0.00001  -0.00000  -0.00001   2.09214
   A74        2.09177   0.00000   0.00000   0.00000   0.00000   2.09177
   A75        2.09187  -0.00000  -0.00001  -0.00000  -0.00001   2.09186
   A76        2.09955  -0.00000   0.00000   0.00000   0.00000   2.09955
   A77        2.08952   0.00000  -0.00000   0.00000   0.00000   2.08953
   A78        2.09557  -0.00000   0.00000  -0.00000   0.00000   2.09557
   A79        2.09809  -0.00000  -0.00000  -0.00000  -0.00000   2.09809
   A80        2.10663  -0.00000   0.00000  -0.00000   0.00000   2.10663
   A81        2.09597   0.00000  -0.00000   0.00000  -0.00000   2.09597
   A82        2.08058   0.00000   0.00000   0.00000   0.00000   2.08058
   A83        2.08673  -0.00000  -0.00000  -0.00000  -0.00001   2.08673
   A84        2.09890   0.00001   0.00003   0.00001   0.00004   2.09894
   A85        2.09696  -0.00001  -0.00003  -0.00001  -0.00003   2.09692
   A86        2.06641   0.00001   0.00002   0.00000   0.00003   2.06643
   A87        2.14466  -0.00000  -0.00002  -0.00000  -0.00002   2.14465
   A88        2.07211  -0.00000  -0.00001  -0.00000  -0.00001   2.07210
   A89        2.10851  -0.00000  -0.00000  -0.00000  -0.00000   2.10851
   A90        2.08278  -0.00000  -0.00001  -0.00000  -0.00002   2.08276
   A91        2.09187   0.00000   0.00001   0.00001   0.00002   2.09189
   A92        2.09474   0.00000   0.00001   0.00000   0.00001   2.09475
   A93        2.09028  -0.00000   0.00001   0.00000   0.00001   2.09029
   A94        2.09803  -0.00000  -0.00001  -0.00000  -0.00002   2.09801
   A95        2.08877   0.00000  -0.00000   0.00000  -0.00000   2.08877
   A96        2.09751  -0.00000  -0.00001  -0.00000  -0.00001   2.09750
   A97        2.09654  -0.00000   0.00001   0.00000   0.00001   2.09655
   A98        2.10188  -0.00000  -0.00000  -0.00000  -0.00001   2.10188
   A99        2.09815  -0.00000   0.00000   0.00000   0.00000   2.09816
   A100       2.08250   0.00000   0.00000   0.00000   0.00000   2.08251
   A101       2.10034  -0.00000   0.00001   0.00000   0.00001   2.10035
   A102       2.09201  -0.00000  -0.00001  -0.00000  -0.00001   2.09200
   A103       2.09077   0.00000   0.00000  -0.00000   0.00000   2.09077
   A104       2.08354  -0.00002  -0.00002   0.00003   0.00001   2.08355
   A105       1.88744  -0.00001   0.00003  -0.00000   0.00003   1.88747
   A106       2.38608   0.00001  -0.00005   0.00001  -0.00003   2.38604
   A107       1.94272  -0.00000   0.00003  -0.00001   0.00002   1.94274
   A108       1.78555   0.00008  -0.00001   0.00005   0.00004   1.78559
   A109       1.72193  -0.00005   0.00011   0.00009   0.00021   1.72214
   A110       1.99509   0.00003   0.00018   0.00003   0.00020   1.99530
    D1       -1.28883  -0.00000  -0.00007   0.00039   0.00032  -1.28851
    D2        2.90208  -0.00000  -0.00008   0.00037   0.00028   2.90237
    D3        0.75879   0.00000  -0.00007   0.00037   0.00030   0.75909
    D4        0.79139   0.00000  -0.00006   0.00039   0.00033   0.79173
    D5       -1.30088   0.00000  -0.00007   0.00037   0.00030  -1.30058
    D6        2.83901   0.00001  -0.00006   0.00038   0.00032   2.83933
    D7        2.85306   0.00000  -0.00009   0.00043   0.00034   2.85340
    D8        0.76078   0.00000  -0.00010   0.00041   0.00031   0.76109
    D9       -1.38251   0.00001  -0.00009   0.00041   0.00032  -1.38219
   D10        1.06465  -0.00001   0.00003  -0.00014  -0.00011   1.06454
   D11       -1.02285  -0.00001   0.00003  -0.00014  -0.00011  -1.02296
   D12       -3.11464  -0.00001   0.00003  -0.00014  -0.00011  -3.11475
   D13       -3.13454   0.00000   0.00004  -0.00009  -0.00005  -3.13459
   D14        1.06114   0.00000   0.00004  -0.00009  -0.00004   1.06110
   D15       -1.03065   0.00000   0.00004  -0.00009  -0.00005  -1.03070
   D16       -1.04910   0.00000   0.00005  -0.00011  -0.00006  -1.04916
   D17       -3.13660   0.00000   0.00005  -0.00011  -0.00005  -3.13665
   D18        1.05480   0.00000   0.00005  -0.00011  -0.00006   1.05474
   D19        1.14157   0.00001   0.00006   0.00005   0.00012   1.14168
   D20       -0.92334   0.00001   0.00007   0.00006   0.00013  -0.92320
   D21       -3.06201   0.00001   0.00006   0.00004   0.00010  -3.06191
   D22       -0.94087  -0.00000   0.00005   0.00001   0.00006  -0.94081
   D23       -3.00578  -0.00000   0.00006   0.00002   0.00008  -3.00570
   D24        1.13874  -0.00000   0.00005   0.00000   0.00005   1.13879
   D25       -2.97988  -0.00000   0.00004   0.00003   0.00007  -2.97981
   D26        1.23841  -0.00000   0.00004   0.00004   0.00008   1.23849
   D27       -0.90027  -0.00001   0.00004   0.00002   0.00006  -0.90021
   D28        1.25531  -0.00002   0.00004  -0.00028  -0.00023   1.25508
   D29       -2.93389  -0.00001   0.00001  -0.00025  -0.00024  -2.93413
   D30       -0.93002  -0.00001   0.00002  -0.00025  -0.00023  -0.93025
   D31       -2.95200  -0.00001   0.00005  -0.00028  -0.00023  -2.95223
   D32       -0.85801  -0.00001   0.00001  -0.00025  -0.00023  -0.85825
   D33        1.14586   0.00000   0.00002  -0.00025  -0.00023   1.14563
   D34       -0.87399  -0.00002   0.00005  -0.00030  -0.00024  -0.87423
   D35        1.22000  -0.00001   0.00002  -0.00027  -0.00025   1.21975
   D36       -3.05931  -0.00000   0.00003  -0.00027  -0.00024  -3.05956
   D37        3.11390  -0.00001  -0.00023  -0.00001  -0.00024   3.11367
   D38       -1.19347  -0.00001  -0.00019  -0.00003  -0.00022  -1.19369
   D39        0.93587  -0.00001  -0.00017   0.00001  -0.00017   0.93571
   D40        0.99947  -0.00001  -0.00021  -0.00003  -0.00025   0.99922
   D41        2.97528  -0.00000  -0.00017  -0.00005  -0.00023   2.97505
   D42       -1.17856  -0.00000  -0.00016  -0.00002  -0.00017  -1.17873
   D43       -0.97352  -0.00001  -0.00020  -0.00003  -0.00023  -0.97375
   D44        1.00229  -0.00001  -0.00016  -0.00005  -0.00021   1.00208
   D45        3.13164  -0.00001  -0.00014  -0.00001  -0.00016   3.13148
   D46        1.78563  -0.00001   0.00040  -0.00001   0.00039   1.78602
   D47       -2.47302  -0.00000   0.00048   0.00002   0.00050  -2.47253
   D48       -0.25172  -0.00001   0.00038  -0.00000   0.00038  -0.25135
   D49       -0.31451   0.00001   0.00035  -0.00001   0.00034  -0.31418
   D50        1.71002   0.00001   0.00043   0.00002   0.00045   1.71046
   D51       -2.35187   0.00001   0.00033  -0.00000   0.00033  -2.35154
   D52       -2.33073  -0.00000   0.00035  -0.00002   0.00033  -2.33040
   D53       -0.30620  -0.00000   0.00042   0.00002   0.00044  -0.30576
   D54        1.91510  -0.00000   0.00032  -0.00000   0.00032   1.91542
   D55       -1.83580  -0.00002  -0.00030   0.00008  -0.00022  -1.83601
   D56        1.74380  -0.00002  -0.00038   0.00009  -0.00029   1.74352
   D57        0.23775  -0.00002  -0.00028   0.00005  -0.00023   0.23752
   D58       -2.46584  -0.00001  -0.00036   0.00006  -0.00030  -2.46613
   D59        2.29654  -0.00001  -0.00030   0.00004  -0.00026   2.29629
   D60       -0.40704  -0.00001  -0.00038   0.00005  -0.00033  -0.40737
   D61        0.28712  -0.00000  -0.00030  -0.00003  -0.00033   0.28679
   D62       -1.81392  -0.00000  -0.00034  -0.00005  -0.00039  -1.81431
   D63        2.40303  -0.00000  -0.00034  -0.00005  -0.00039   2.40264
   D64        2.97331  -0.00004   0.00022   0.00002   0.00024   2.97355
   D65       -0.15412  -0.00001   0.00014   0.00007   0.00021  -0.15391
   D66        0.08237   0.00000   0.00002  -0.00016  -0.00013   0.08224
   D67       -3.06607   0.00004   0.00003  -0.00015  -0.00012  -3.06620
   D68       -3.07388  -0.00003   0.00011  -0.00021  -0.00010  -3.07398
   D69        0.06086   0.00000   0.00011  -0.00020  -0.00009   0.06077
   D70       -0.06494   0.00001   0.00010  -0.00009   0.00001  -0.06493
   D71        2.75919   0.00002   0.00013  -0.00009   0.00004   2.75923
   D72        3.09096   0.00005   0.00002  -0.00004  -0.00002   3.09094
   D73       -0.36810   0.00005   0.00005  -0.00003   0.00001  -0.36808
   D74        3.13190   0.00005  -0.00005   0.00010   0.00006   3.13195
   D75       -0.01134   0.00003  -0.00007   0.00002  -0.00006  -0.01140
   D76       -0.00215   0.00001  -0.00005   0.00010   0.00005  -0.00210
   D77        3.13780  -0.00001  -0.00008   0.00001  -0.00007   3.13773
   D78       -3.13971  -0.00005  -0.00001  -0.00014  -0.00015  -3.13986
   D79       -0.00494  -0.00002  -0.00000  -0.00014  -0.00014  -0.00508
   D80        0.00512   0.00001   0.00004   0.00002   0.00005   0.00518
   D81       -3.14105  -0.00001   0.00006  -0.00004   0.00003  -3.14102
   D82       -3.13479   0.00002   0.00006   0.00010   0.00017  -3.13462
   D83        0.00223   0.00001   0.00009   0.00005   0.00014   0.00237
   D84       -0.00137  -0.00001   0.00003  -0.00008  -0.00006  -0.00142
   D85        3.11942  -0.00001   0.00002  -0.00006  -0.00004   3.11938
   D86       -3.13837  -0.00000  -0.00000  -0.00003  -0.00003  -3.13840
   D87       -0.01758   0.00000  -0.00001  -0.00001  -0.00002  -0.01760
   D88        3.09992  -0.00001  -0.00005  -0.00012  -0.00018   3.09974
   D89       -0.00582   0.00001  -0.00008   0.00004  -0.00004  -0.00586
   D90       -0.02131  -0.00001  -0.00005  -0.00014  -0.00019  -0.02150
   D91       -3.12705   0.00000  -0.00007   0.00002  -0.00005  -3.12710
   D92       -1.19083  -0.00003  -0.00005  -0.00022  -0.00027  -1.19110
   D93        2.83258  -0.00002  -0.00015  -0.00013  -0.00027   2.83231
   D94        0.80652  -0.00003  -0.00018  -0.00018  -0.00035   0.80617
   D95        1.91543  -0.00005  -0.00002  -0.00038  -0.00040   1.91503
   D96       -0.34434  -0.00003  -0.00012  -0.00029  -0.00041  -0.34475
   D97       -2.37040  -0.00005  -0.00015  -0.00034  -0.00049  -2.37089
   D98        0.00887   0.00001   0.00007   0.00007   0.00014   0.00901
   D99       -3.09703   0.00003   0.00004   0.00023   0.00027  -3.09676
   D100       2.22871  -0.00005  -0.00025   0.00013  -0.00012   2.22859
   D101      -0.90603  -0.00005  -0.00026   0.00015  -0.00011  -0.90614
   D102      -1.82203   0.00004  -0.00009  -0.00000  -0.00009  -1.82212
   D103       1.32642   0.00004  -0.00010   0.00002  -0.00009   1.32633
   D104       0.24419  -0.00000  -0.00013   0.00010  -0.00003   0.24416
   D105      -2.89055  -0.00000  -0.00014   0.00012  -0.00002  -2.89057
   D106      -1.19686  -0.00003   0.00006   0.00013   0.00019  -1.19666
   D107       1.94329  -0.00000   0.00028   0.00001   0.00029   1.94358
   D108       2.88512   0.00000  -0.00002   0.00026   0.00025   2.88537
   D109      -0.25791   0.00002   0.00021   0.00014   0.00034  -0.25757
   D110       0.81816  -0.00000   0.00006   0.00016   0.00023   0.81839
   D111      -2.32487   0.00002   0.00028   0.00004   0.00033  -2.32455
   D112      -3.13926  -0.00000   0.00001   0.00001   0.00002  -3.13923
   D113       0.00882  -0.00000   0.00003   0.00003   0.00005   0.00887
   D114      -0.00444   0.00000   0.00003  -0.00001   0.00002  -0.00443
   D115      -3.13955   0.00000   0.00004   0.00001   0.00004  -3.13951
   D116      -3.14095   0.00000  -0.00001  -0.00001  -0.00002  -3.14098
   D117      -0.03634  -0.00000  -0.00004   0.00000  -0.00004  -0.03637
   D118       0.00749  -0.00000  -0.00002   0.00000  -0.00002   0.00748
   D119       3.11211  -0.00001  -0.00005   0.00002  -0.00003   3.11208
   D120       0.00170  -0.00000  -0.00001   0.00001   0.00000   0.00170
   D121      -3.14023  -0.00000  -0.00001   0.00000  -0.00001  -3.14024
   D122       3.13679  -0.00000  -0.00002  -0.00001  -0.00003   3.13677
   D123      -0.00514  -0.00000  -0.00002  -0.00001  -0.00003  -0.00517
   D124      -0.00203  -0.00000  -0.00001  -0.00001  -0.00002  -0.00205
   D125      -3.14154  -0.00000  -0.00002  -0.00002  -0.00003  -3.14158
   D126       3.13991  -0.00000  -0.00001   0.00000  -0.00001   3.13990
   D127       0.00039  -0.00000  -0.00001  -0.00001  -0.00003   0.00037
   D128       0.00518   0.00000   0.00002   0.00000   0.00002   0.00520
   D129      -3.13332   0.00000   0.00003  -0.00000   0.00003  -3.13329
   D130      -3.13849   0.00000   0.00002   0.00001   0.00003  -3.13846
   D131       0.00620   0.00000   0.00003   0.00001   0.00004   0.00624
   D132      -0.00792   0.00000  -0.00000   0.00000   0.00000  -0.00792
   D133      -3.11257   0.00000   0.00003  -0.00002   0.00001  -3.11256
   D134       3.13061  -0.00000  -0.00001   0.00000  -0.00001   3.13060
   D135       0.02595   0.00000   0.00001  -0.00001  -0.00000   0.02595
   D136       3.13896   0.00002   0.00021  -0.00009   0.00012   3.13909
   D137       0.00557   0.00002   0.00017  -0.00007   0.00009   0.00567
   D138      -0.00125   0.00000   0.00000   0.00003   0.00003  -0.00122
   D139      -3.13464  -0.00000  -0.00004   0.00004  -0.00000  -3.13464
   D140      -3.13506  -0.00002  -0.00020   0.00013  -0.00008  -3.13514
   D141      -0.00675  -0.00002  -0.00014   0.00010  -0.00004  -0.00679
   D142       0.00508  -0.00000   0.00002   0.00000   0.00002   0.00511
   D143       3.13339   0.00001   0.00008  -0.00002   0.00006   3.13345
   D144      -0.00343  -0.00000  -0.00002  -0.00004  -0.00006  -0.00348
   D145      -3.12749  -0.00000   0.00000   0.00001   0.00001  -3.12748
   D146       3.12992   0.00001   0.00003  -0.00005  -0.00002   3.12989
   D147       0.00586   0.00001   0.00005  -0.00001   0.00004   0.00590
   D148       0.00426  -0.00000   0.00001   0.00002   0.00003   0.00429
   D149      -3.10836   0.00000   0.00001   0.00001   0.00003  -3.10834
   D150       3.12824  -0.00000  -0.00001  -0.00003  -0.00004   3.12821
   D151       0.01562   0.00000  -0.00001  -0.00003  -0.00004   0.01558
   D152      -0.00043   0.00000   0.00001   0.00001   0.00002  -0.00040
   D153      -3.10306  -0.00000  -0.00003  -0.00001  -0.00005  -3.10310
   D154       3.11221  -0.00000   0.00001   0.00002   0.00003   3.11224
   D155       0.00958  -0.00000  -0.00003  -0.00001  -0.00004   0.00954
   D156      -0.00430   0.00000  -0.00003  -0.00002  -0.00005  -0.00435
   D157      -3.13261  -0.00001  -0.00009   0.00000  -0.00009  -3.13270
   D158       3.09868   0.00000   0.00002   0.00000   0.00002   3.09870
   D159      -0.02964  -0.00001  -0.00005   0.00003  -0.00002  -0.02965
   D160       1.62345   0.00005   0.00047   0.00018   0.00065   1.62410
   D161      -0.42471   0.00002   0.00025   0.00011   0.00036  -0.42435
   D162      -1.07074   0.00006   0.00039   0.00019   0.00058  -1.07016
   D163      -3.11889   0.00002   0.00017   0.00012   0.00029  -3.11861
         Item               Value     Threshold  Converged?
 Maximum Force            0.000136     0.000450     YES
 RMS     Force            0.000024     0.000300     YES
 Maximum Displacement     0.003728     0.001800     NO 
 RMS     Displacement     0.000933     0.001200     YES
 Predicted change in Energy=-1.739615D-07
 GradGradGradGradGradGradGradGradGradGradGradGradGradGradGradGradGradGrad

 Stoichiometry    C26H28F2N2NiO(3)
 Framework group  C1[X(C26H28F2N2NiO)]
 Deg. of freedom   174
 Full point group                 C1      NOp   1
 Largest Abelian subgroup         C1      NOp   1
 Largest concise Abelian subgroup C1      NOp   1
                         Standard orientation:                         
 ---------------------------------------------------------------------
 Center     Atomic      Atomic             Coordinates (Angstroms)
 Number     Number       Type             X           Y           Z
 ---------------------------------------------------------------------
      1          6           0       -3.392928   -1.373835    1.077923
      2          6           0       -4.526701   -0.772810    0.223384
      3          6           0       -5.860128   -0.931668    0.978979
      4          6           0       -4.595071   -1.520966   -1.119272
      5          6           0       -4.341975    0.745519   -0.011428
      6          6           0       -3.239101    1.250973   -0.956328
      7          6           0       -3.270538    2.799168   -1.065557
      8          8           0       -2.165550    3.241406   -0.208941
      9          6           0       -1.417151    2.142735   -0.022754
     10          6           0       -0.099928    2.238501    0.616297
     11          6           0        0.412655    3.412853    1.145382
     12          6           0        1.679098    3.357217    1.736892
     13          6           0        2.359403    2.149839    1.762544
     14          6           0        1.771148    1.003405    1.198965
     15          6           0        2.541774   -0.310992    1.178410
     16          6           0        3.721426   -0.181183    0.222197
     17          6           0        5.007256   -0.509845    0.661538
     18          6           0        6.100758   -0.395200   -0.197464
     19          6           0        5.912485    0.052721   -1.505257
     20          6           0        4.629000    0.381200   -1.946521
     21          6           0        3.532237    0.272260   -1.091386
     22          6           0        1.637752   -1.517278    0.943220
     23          6           0        0.731161   -1.879116    1.952329
     24          6           0       -0.119535   -2.969481    1.789376
     25          6           0       -0.080686   -3.715643    0.609894
     26          6           0        0.814203   -3.367085   -0.396437
     27          6           0        1.672754   -2.275691   -0.233741
     28          7           0        0.562267    1.059989    0.644695
     29          7           0       -1.881859    1.021184   -0.432945
     30          1           0       -3.145010   -0.729782    1.931644
     31          1           0       -3.705370   -2.347412    1.476558
     32          1           0       -2.502084   -1.544538    0.472454
     33          1           0       -5.839911   -0.400058    1.939222
     34          1           0       -6.058461   -1.989034    1.187092
     35          1           0       -6.702883   -0.540854    0.394833
     36          1           0       -4.889196   -2.564270   -0.953647
     37          1           0       -3.613188   -1.532146   -1.601131
     38          1           0       -5.338045   -1.070569   -1.791439
     39          1           0       -5.281452    1.131945   -0.433353
     40          1           0       -4.211420    1.247375    0.958752
     41          1           0       -3.319149    0.772783   -1.934416
     42          1           0       -3.061832    3.167957   -2.073762
     43          1           0       -4.184197    3.252505   -0.679448
     44          1           0       -0.160552    4.330762    1.091854
     45          1           0        2.123567    4.249867    2.165866
     46          1           0        3.351816    2.074162    2.194674
     47          1           0        2.962041   -0.423507    2.186523
     48          1           0        5.153036   -0.863382    1.680023
     49          1           0        7.095164   -0.654847    0.155184
     50          1           0        6.761566    0.143321   -2.177225
     51          1           0        4.474428    0.723269   -2.966121
     52          1           0        2.529914    0.505328   -1.453523
     53          1           0        0.691035   -1.292993    2.867918
     54          1           0       -0.823434   -3.226386    2.575568
     55          1           0       -0.763706   -4.546863    0.467459
     56          1           0        0.827154   -3.918424   -1.330416
     57          1           0        2.359872   -2.008327   -1.027522
     58         28           0       -0.385778   -0.341140   -0.723849
     59          9           0        0.638184    0.471263   -2.030177
     60          9           0       -1.398474   -1.738710   -1.322454
 ---------------------------------------------------------------------
 Rotational constants (GHZ):           0.2272739           0.1036997           0.0862688
 Basis read from rwf:  (6D, 7F)
 Pseudo-potential data read from rwf file.
 There are   598 symmetry adapted cartesian basis functions of A   symmetry.
 There are   595 symmetry adapted basis functions of A   symmetry.
   595 basis functions,  1134 primitive gaussians,   598 cartesian basis functions
   122 alpha electrons      120 beta electrons
       nuclear repulsion energy      3764.4299108274 Hartrees.
 NAtoms=   60 NActive=   60 NUniq=   60 SFac= 1.00D+00 NAtFMM=   60 NAOKFM=T Big=T
 Integral buffers will be    131072 words long.
 Raffenetti 2 integral format.
 Two-electron integral symmetry is turned on.
 Nuclear repulsion after empirical dispersion term =     3764.2725774964 Hartrees.
 One-electron integrals computed using PRISM.
 PrsmSu:  requested number of processors reduced to:  12 ShMem   1 Linda.
   1 Symmetry operations used in ECPInt.
 ECPInt:  NShTT=   20301 NPrTT=  123456 LenC2=   17174 LenP2D=   56656.
 LDataN:  DoStor=T MaxTD1= 6 Len=  172
 Number of processors reduced to  12 by ecpmxn.
 NBasis=   595 RedAO= T EigKep=  6.97D-06  NBF=   595
 NBsUse=   594 1.00D-06 EigRej=  9.33D-07 NBFU=   594
 Initial guess from the checkpoint file:  "Lig2224_xyz_4.chk"
 B after Tr=    -0.000000   -0.000000   -0.000000
         Rot=    1.000000   -0.000066   -0.000032   -0.000004 Ang=  -0.01 deg.
 Initial guess <Sx>= 0.0000 <Sy>= 0.0000 <Sz>= 1.0000 <S**2>= 2.0053 S= 1.0018
 Requested convergence on RMS density matrix=1.00D-08 within 128 cycles.
 Requested convergence on MAX density matrix=1.00D-06.
 Requested convergence on             energy=1.00D-06.
 No special actions if energy rises.
 SCF Done:  E(UB3LYP) =  -1561.66771370     A.U. after   14 cycles
            NFock= 14  Conv=0.71D-08     -V/T= 2.0504
 <Sx>= 0.0000 <Sy>= 0.0000 <Sz>= 1.0000 <S**2>= 2.0053 S= 1.0018
 <L.S>=  0.00000000000    
 Annihilation of the first spin contaminant:
 S**2 before annihilation     2.0053,   after     2.0000
 PrsmSu:  requested number of processors reduced to:  12 ShMem   1 Linda.
   1 Symmetry operations used in ECPInt.
 ECPInt:  NShTT=   20301 NPrTT=  123456 LenC2=   17174 LenP2D=   56656.
 LDataN:  DoStor=T MaxTD1= 7 Len=  274
 Number of processors reduced to  13 by ecpmxn.
 Calling FoFJK, ICntrl=      2127 FMM=T ISym2X=0 I1Cent= 0 IOpClX= 1 NMat=1 NMatS=1 NMatT=0.
 ***** Axes restored to original set *****
 -------------------------------------------------------------------
 Center     Atomic                   Forces (Hartrees/Bohr)
 Number     Number              X              Y              Z
 -------------------------------------------------------------------
      1        6          -0.000000961   -0.000001832    0.000000345
      2        6          -0.000001413    0.000000200    0.000000224
      3        6           0.000002175   -0.000002284   -0.000000376
      4        6           0.000000177   -0.000001722   -0.000000365
      5        6           0.000000895   -0.000001573    0.000000993
      6        6          -0.000002207    0.000002725   -0.000007712
      7        6          -0.000003063    0.000009590    0.000007501
      8        8           0.000001652   -0.000003515   -0.000004900
      9        6          -0.000002668    0.000009239    0.000001259
     10        6          -0.000002078    0.000004597   -0.000005633
     11        6          -0.000002079    0.000001744   -0.000001642
     12        6          -0.000002333    0.000003478   -0.000004428
     13        6          -0.000001656    0.000001708   -0.000001754
     14        6          -0.000001258   -0.000005014   -0.000003445
     15        6          -0.000000924    0.000001660   -0.000000750
     16        6          -0.000002222   -0.000002105    0.000000105
     17        6          -0.000001638   -0.000000639   -0.000000125
     18        6           0.000000596    0.000000654    0.000002955
     19        6          -0.000001262    0.000003251    0.000001798
     20        6          -0.000002472    0.000001439    0.000002671
     21        6           0.000000594   -0.000002506    0.000000606
     22        6           0.000002681   -0.000002464    0.000001260
     23        6           0.000003258   -0.000001260   -0.000001650
     24        6           0.000001807   -0.000003713   -0.000000561
     25        6           0.000002930   -0.000002206    0.000000466
     26        6           0.000004289    0.000001338    0.000002981
     27        6           0.000000160   -0.000002056   -0.000000470
     28        7          -0.000007799   -0.000005806    0.000003388
     29        7           0.000006934    0.000005440    0.000004786
     30        1           0.000000812   -0.000001546   -0.000002762
     31        1           0.000002592   -0.000002490   -0.000001129
     32        1           0.000000633   -0.000000870   -0.000002498
     33        1           0.000002112   -0.000001741   -0.000001884
     34        1           0.000002989   -0.000002660   -0.000000583
     35        1           0.000001561   -0.000001572   -0.000000460
     36        1           0.000002716   -0.000003077    0.000002235
     37        1           0.000001654   -0.000000242    0.000004039
     38        1           0.000001481   -0.000001066    0.000002331
     39        1          -0.000000798    0.000000269    0.000000542
     40        1           0.000000103    0.000000951   -0.000001828
     41        1          -0.000000251    0.000000577    0.000002368
     42        1          -0.000004855    0.000002647    0.000000825
     43        1          -0.000003485    0.000001692   -0.000002500
     44        1          -0.000003105    0.000004068   -0.000003762
     45        1          -0.000002578    0.000003394   -0.000004419
     46        1          -0.000001389    0.000001761   -0.000003221
     47        1           0.000000631   -0.000000788   -0.000003997
     48        1           0.000000431   -0.000000580   -0.000000702
     49        1          -0.000000759    0.000000564    0.000000450
     50        1          -0.000002169    0.000001560    0.000002827
     51        1          -0.000002183    0.000002836    0.000003825
     52        1          -0.000004741    0.000005818    0.000000626
     53        1           0.000001497   -0.000001733   -0.000002657
     54        1           0.000003651   -0.000003352   -0.000001310
     55        1           0.000003241   -0.000003988    0.000002403
     56        1           0.000002436   -0.000003038    0.000004067
     57        1          -0.000000247   -0.000001932    0.000002825
     58       28           0.000003411   -0.000007949   -0.000003400
     59        9          -0.000000919    0.000004112    0.000006444
     60        9           0.000003415    0.000000006    0.000003778
 -------------------------------------------------------------------
 Cartesian Forces:  Max     0.000009590 RMS     0.000002962

 GradGradGradGradGradGradGradGradGradGradGradGradGradGradGradGradGradGrad
 Berny optimization.
 Using GEDIIS/GDIIS optimizer.
 FormGI is forming the generalized inverse of G from B-inverse, IUseBI=4.
 Internal  Forces:  Max     0.000018450 RMS     0.000003059
 Search for a local minimum.
 Step number   6 out of a maximum of  346
 All quantities printed in internal units (Hartrees-Bohrs-Radians)
 Mixed Optimization -- En-DIIS/RFO-DIIS
 Swapping is turned off.
 Update second derivatives using D2CorX and points    1    2    3    4    5
                                                      6
 DE= -4.74D-08 DEPred=-1.74D-07 R= 2.72D-01
 Trust test= 2.72D-01 RLast= 2.69D-03 DXMaxT set to 7.50D-02
 ITU=  0  0 -1  0 -1  0
     Eigenvalues ---    0.00204   0.00230   0.00240   0.00256   0.00331
     Eigenvalues ---    0.00423   0.00459   0.00538   0.00936   0.01372
     Eigenvalues ---    0.01431   0.01460   0.01544   0.01831   0.01939
     Eigenvalues ---    0.01977   0.02064   0.02091   0.02096   0.02105
     Eigenvalues ---    0.02117   0.02129   0.02133   0.02139   0.02142
     Eigenvalues ---    0.02147   0.02149   0.02150   0.02152   0.02156
     Eigenvalues ---    0.02163   0.02165   0.02170   0.02182   0.02188
     Eigenvalues ---    0.02216   0.02255   0.02583   0.02787   0.03868
     Eigenvalues ---    0.04309   0.04593   0.04692   0.04811   0.04896
     Eigenvalues ---    0.05037   0.05114   0.05286   0.05355   0.05379
     Eigenvalues ---    0.05452   0.05476   0.05633   0.05740   0.05983
     Eigenvalues ---    0.06107   0.06364   0.07069   0.08312   0.09524
     Eigenvalues ---    0.10307   0.11195   0.12654   0.13128   0.13251
     Eigenvalues ---    0.14123   0.14826   0.15263   0.15939   0.15987
     Eigenvalues ---    0.15990   0.15995   0.15997   0.15998   0.15999
     Eigenvalues ---    0.16000   0.16000   0.16000   0.16000   0.16000
     Eigenvalues ---    0.16000   0.16000   0.16000   0.16000   0.16000
     Eigenvalues ---    0.16000   0.16000   0.16005   0.16020   0.16855
     Eigenvalues ---    0.19092   0.19791   0.20883   0.21742   0.21999
     Eigenvalues ---    0.22001   0.22003   0.22012   0.22082   0.22406
     Eigenvalues ---    0.22694   0.23395   0.23515   0.23590   0.23617
     Eigenvalues ---    0.24145   0.24465   0.24925   0.24961   0.24999
     Eigenvalues ---    0.26398   0.26493   0.27812   0.28275   0.28439
     Eigenvalues ---    0.28602   0.28639   0.29486   0.29769   0.29968
     Eigenvalues ---    0.32518   0.33598   0.33678   0.33702   0.33867
     Eigenvalues ---    0.33910   0.33931   0.33940   0.33971   0.34041
     Eigenvalues ---    0.34083   0.34164   0.34355   0.34398   0.34473
     Eigenvalues ---    0.34621   0.34752   0.34766   0.34785   0.35054
     Eigenvalues ---    0.35061   0.35209   0.35213   0.35220   0.35269
     Eigenvalues ---    0.35333   0.35370   0.35390   0.35440   0.35574
     Eigenvalues ---    0.35616   0.37273   0.41815   0.41842   0.41910
     Eigenvalues ---    0.41959   0.42266   0.43503   0.45280   0.45471
     Eigenvalues ---    0.45939   0.46069   0.46200   0.46252   0.46431
     Eigenvalues ---    0.46438   0.46891   0.47552   0.51421   0.52439
     Eigenvalues ---    0.53314   0.57857   0.69334   2.38907
 En-DIIS/RFO-DIIS/Sim-DIIS IScMMF=       -3 using points:     6    5    4    3    2    1
 RFO step:  Lambda=-8.74677225D-08.
 DidBck=T Rises=F RFO-DIIS coefs:   -0.77069    1.02129    0.58473   -1.15854    0.25734
                  RFO-DIIS coefs:    1.06587
 Iteration  1 RMS(Cart)=  0.00026458 RMS(Int)=  0.00000002
 Iteration  2 RMS(Cart)=  0.00000004 RMS(Int)=  0.00000001
 Variable       Old X    -DE/DX   Delta X   Delta X   Delta X     New X
                                 (Linear)    (Quad)   (Total)
    R1        2.91343  -0.00000   0.00001   0.00000   0.00001   2.91345
    R2        2.07449  -0.00000   0.00000  -0.00000   0.00000   2.07449
    R3        2.07387  -0.00000   0.00000   0.00000   0.00000   2.07387
    R4        2.06087   0.00000   0.00000   0.00000   0.00001   2.06088
    R5        2.91177   0.00000  -0.00000  -0.00000  -0.00000   2.91176
    R6        2.90744  -0.00000   0.00000   0.00001   0.00001   2.90745
    R7        2.92424  -0.00000   0.00000   0.00000   0.00000   2.92425
    R8        2.07447   0.00000   0.00000  -0.00000   0.00000   2.07447
    R9        2.07067  -0.00000  -0.00000   0.00000   0.00000   2.07067
   R10        2.07371  -0.00000   0.00000  -0.00000  -0.00000   2.07371
   R11        2.07218  -0.00000   0.00000   0.00000   0.00000   2.07218
   R12        2.06699  -0.00000  -0.00000   0.00000   0.00000   2.06699
   R13        2.07584   0.00000   0.00000  -0.00000   0.00000   2.07584
   R14        2.90591  -0.00000   0.00000  -0.00001  -0.00000   2.90591
   R15        2.07867  -0.00000   0.00000  -0.00000  -0.00000   2.07867
   R16        2.07883  -0.00000   0.00000  -0.00000  -0.00000   2.07883
   R17        2.93354  -0.00001   0.00001  -0.00007  -0.00006   2.93348
   R18        2.78299  -0.00000  -0.00000   0.00002   0.00002   2.78301
   R19        2.06295  -0.00000  -0.00000  -0.00000  -0.00000   2.06294
   R20        2.77112   0.00000   0.00003   0.00005   0.00008   2.77120
   R21        2.06667   0.00000  -0.00000  -0.00000  -0.00000   2.06667
   R22        2.06090  -0.00000  -0.00000  -0.00001  -0.00001   2.06089
   R23        2.53663   0.00000  -0.00001   0.00001   0.00000   2.53664
   R24        2.77258   0.00001  -0.00003   0.00004   0.00001   2.77258
   R25        2.42157   0.00000  -0.00001   0.00002   0.00000   2.42157
   R26        2.61969   0.00000  -0.00000   0.00000   0.00000   2.61969
   R27        2.55512   0.00001  -0.00004   0.00004   0.00000   2.55512
   R28        2.64350   0.00000   0.00002  -0.00002   0.00000   2.64350
   R29        2.04753   0.00000  -0.00000   0.00000  -0.00000   2.04753
   R30        2.61932   0.00000   0.00002  -0.00003  -0.00000   2.61932
   R31        2.05137  -0.00000  -0.00000  -0.00000  -0.00000   2.05137
   R32        2.65772  -0.00000   0.00000  -0.00000   0.00000   2.65772
   R33        2.05046  -0.00000   0.00000   0.00000   0.00000   2.05046
   R34        2.87954  -0.00000  -0.00004   0.00002  -0.00002   2.87952
   R35        2.51540   0.00000  -0.00004   0.00004   0.00000   2.51540
   R36        2.88006   0.00000  -0.00001  -0.00000  -0.00001   2.88005
   R37        2.88312  -0.00000   0.00000   0.00002   0.00003   2.88314
   R38        2.07489  -0.00000  -0.00000  -0.00000  -0.00000   2.07489
   R39        2.64183   0.00000   0.00000   0.00001   0.00002   2.64185
   R40        2.65027   0.00000  -0.00000  -0.00001  -0.00001   2.65026
   R41        2.63667  -0.00000  -0.00000  -0.00001  -0.00001   2.63666
   R42        2.05586   0.00000  -0.00000  -0.00000  -0.00000   2.05585
   R43        2.63642   0.00000   0.00000   0.00001   0.00001   2.63643
   R44        2.05331   0.00000  -0.00000  -0.00000  -0.00000   2.05331
   R45        2.63882  -0.00000  -0.00000  -0.00001  -0.00001   2.63881
   R46        2.05337   0.00000  -0.00000  -0.00000  -0.00000   2.05336
   R47        2.63616  -0.00000   0.00000   0.00001   0.00001   2.63617
   R48        2.05319  -0.00000  -0.00000  -0.00000  -0.00000   2.05319
   R49        2.06155   0.00000  -0.00000  -0.00000  -0.00000   2.06154
   R50        2.65312  -0.00000  -0.00000  -0.00001  -0.00001   2.65312
   R51        2.64673   0.00000  -0.00000   0.00001   0.00001   2.64674
   R52        2.63150   0.00000   0.00000   0.00001   0.00001   2.63150
   R53        2.05577  -0.00000   0.00000   0.00000   0.00000   2.05577
   R54        2.63848   0.00000   0.00000  -0.00000  -0.00000   2.63848
   R55        2.05240  -0.00000   0.00000   0.00000   0.00000   2.05240
   R56        2.62870  -0.00000   0.00000   0.00000   0.00001   2.62871
   R57        2.05079   0.00000   0.00000  -0.00000  -0.00000   2.05079
   R58        2.64205   0.00000  -0.00000  -0.00000  -0.00000   2.64205
   R59        2.04969  -0.00000   0.00000  -0.00000  -0.00000   2.04969
   R60        2.04728   0.00000  -0.00000   0.00000  -0.00000   2.04728
   R61        3.86300  -0.00000   0.00011   0.00005   0.00016   3.86316
   R62        3.49215  -0.00000   0.00001   0.00004   0.00005   3.49221
   R63        3.45209   0.00000  -0.00002   0.00003   0.00001   3.45211
    A1        1.94810   0.00000   0.00000   0.00001   0.00001   1.94811
    A2        1.91538   0.00000   0.00000  -0.00000  -0.00000   1.91538
    A3        1.93265  -0.00000   0.00000  -0.00000  -0.00000   1.93265
    A4        1.87788   0.00000  -0.00000  -0.00000  -0.00001   1.87787
    A5        1.91677   0.00000  -0.00000  -0.00001  -0.00002   1.91676
    A6        1.87064   0.00000   0.00000   0.00001   0.00002   1.87065
    A7        1.90118   0.00000  -0.00000   0.00001   0.00000   1.90118
    A8        1.90373  -0.00000   0.00001  -0.00002  -0.00001   1.90372
    A9        1.95932  -0.00000   0.00001   0.00001   0.00001   1.95933
   A10        1.91702  -0.00000  -0.00001   0.00001   0.00000   1.91702
   A11        1.85342   0.00000  -0.00001   0.00001   0.00000   1.85342
   A12        1.92838  -0.00000   0.00000  -0.00001  -0.00001   1.92837
   A13        1.94237   0.00000   0.00000  -0.00000  -0.00000   1.94237
   A14        1.92758   0.00000  -0.00000   0.00000   0.00000   1.92758
   A15        1.94642   0.00000  -0.00000   0.00000  -0.00000   1.94642
   A16        1.88021  -0.00000   0.00000   0.00000   0.00000   1.88021
   A17        1.88316  -0.00000   0.00000   0.00000   0.00000   1.88316
   A18        1.88153  -0.00000  -0.00000  -0.00000  -0.00000   1.88153
   A19        1.92066  -0.00000  -0.00000   0.00000   0.00000   1.92066
   A20        1.92786   0.00000  -0.00000  -0.00001  -0.00001   1.92785
   A21        1.94407  -0.00000  -0.00000   0.00000   0.00000   1.94407
   A22        1.87297  -0.00000   0.00000   0.00000   0.00001   1.87298
   A23        1.87665   0.00000  -0.00000   0.00000  -0.00000   1.87665
   A24        1.91961   0.00000   0.00000  -0.00000   0.00000   1.91961
   A25        2.09598  -0.00002   0.00002  -0.00004  -0.00003   2.09595
   A26        1.87648   0.00000  -0.00000   0.00001   0.00000   1.87648
   A27        1.90494   0.00001  -0.00001  -0.00000  -0.00001   1.90494
   A28        1.83525   0.00001   0.00000   0.00003   0.00003   1.83528
   A29        1.88268   0.00000  -0.00001   0.00000  -0.00000   1.88268
   A30        1.85395  -0.00000  -0.00000   0.00001   0.00001   1.85395
   A31        1.93535   0.00001  -0.00001   0.00003   0.00002   1.93537
   A32        1.97285  -0.00001   0.00000  -0.00005  -0.00005   1.97281
   A33        1.93261  -0.00000   0.00001  -0.00001   0.00001   1.93262
   A34        1.77142   0.00000  -0.00002   0.00003   0.00000   1.77143
   A35        1.95232  -0.00000   0.00001   0.00001   0.00002   1.95234
   A36        1.89404   0.00000   0.00001  -0.00001  -0.00000   1.89404
   A37        1.81770   0.00000   0.00002  -0.00004  -0.00003   1.81768
   A38        1.97938  -0.00000  -0.00000  -0.00000  -0.00001   1.97937
   A39        1.98955   0.00000   0.00000   0.00005   0.00005   1.98960
   A40        1.86819   0.00000  -0.00001  -0.00003  -0.00004   1.86815
   A41        1.87456  -0.00000  -0.00001  -0.00001  -0.00002   1.87454
   A42        1.92419   0.00000  -0.00000   0.00003   0.00003   1.92422
   A43        1.82793  -0.00000  -0.00004   0.00000  -0.00004   1.82789
   A44        2.10313  -0.00001   0.00013  -0.00015  -0.00002   2.10311
   A45        2.05983  -0.00000   0.00004  -0.00003   0.00000   2.05983
   A46        2.12014   0.00001  -0.00016   0.00018   0.00001   2.12016
   A47        2.15735  -0.00001   0.00017  -0.00018  -0.00001   2.15734
   A48        1.97354   0.00001  -0.00018   0.00020   0.00002   1.97357
   A49        2.15227  -0.00001   0.00000  -0.00002  -0.00001   2.15226
   A50        2.05154   0.00000  -0.00003   0.00004   0.00001   2.05156
   A51        2.09808  -0.00000   0.00001  -0.00003  -0.00001   2.09807
   A52        2.13356  -0.00000   0.00002  -0.00002  -0.00000   2.13356
   A53        2.07923   0.00000   0.00002  -0.00002  -0.00001   2.07923
   A54        2.10026  -0.00000  -0.00001   0.00001   0.00000   2.10027
   A55        2.10368  -0.00000  -0.00001   0.00001   0.00000   2.10368
   A56        2.09133  -0.00000  -0.00002   0.00002  -0.00000   2.09133
   A57        2.11417   0.00000   0.00001  -0.00001   0.00001   2.11418
   A58        2.07750   0.00000   0.00001  -0.00002  -0.00001   2.07749
   A59        2.09095   0.00001   0.00015  -0.00017  -0.00002   2.09093
   A60        2.10840   0.00000  -0.00000   0.00000   0.00000   2.10840
   A61        2.08329  -0.00001  -0.00015   0.00016   0.00001   2.08330
   A62        1.90333   0.00001  -0.00002   0.00005   0.00003   1.90336
   A63        1.96538  -0.00001  -0.00020   0.00018  -0.00002   1.96536
   A64        1.84376  -0.00000   0.00009  -0.00009   0.00001   1.84376
   A65        2.01447   0.00000  -0.00001  -0.00001  -0.00002   2.01445
   A66        1.86348  -0.00001   0.00008  -0.00005   0.00003   1.86350
   A67        1.86222   0.00001   0.00009  -0.00011  -0.00002   1.86220
   A68        2.08831  -0.00001   0.00001  -0.00003  -0.00001   2.08829
   A69        2.10688   0.00001  -0.00002   0.00003   0.00001   2.10690
   A70        2.08798  -0.00000   0.00000  -0.00000  -0.00000   2.08798
   A71        2.10371   0.00000  -0.00000   0.00000  -0.00000   2.10371
   A72        2.08731  -0.00000   0.00000  -0.00001  -0.00000   2.08731
   A73        2.09214  -0.00000   0.00000   0.00000   0.00001   2.09215
   A74        2.09177   0.00000   0.00000  -0.00000  -0.00000   2.09177
   A75        2.09186   0.00000   0.00000   0.00000   0.00000   2.09186
   A76        2.09955  -0.00000  -0.00000  -0.00000  -0.00000   2.09955
   A77        2.08953   0.00000   0.00000   0.00000   0.00000   2.08953
   A78        2.09557  -0.00000  -0.00000  -0.00000  -0.00000   2.09557
   A79        2.09809   0.00000  -0.00000   0.00000   0.00000   2.09809
   A80        2.10663   0.00000  -0.00000   0.00000  -0.00000   2.10663
   A81        2.09597   0.00000   0.00000   0.00000   0.00000   2.09597
   A82        2.08058  -0.00000   0.00000  -0.00000  -0.00000   2.08058
   A83        2.08673  -0.00000   0.00000   0.00000   0.00000   2.08673
   A84        2.09894   0.00000  -0.00001   0.00000  -0.00001   2.09893
   A85        2.09692  -0.00000   0.00001  -0.00000   0.00001   2.09693
   A86        2.06643   0.00000  -0.00001  -0.00001  -0.00001   2.06642
   A87        2.14465  -0.00000   0.00001   0.00000   0.00001   2.14465
   A88        2.07210   0.00000  -0.00000   0.00001   0.00000   2.07211
   A89        2.10851  -0.00000   0.00000  -0.00000   0.00000   2.10851
   A90        2.08276   0.00000   0.00000   0.00001   0.00001   2.08277
   A91        2.09189   0.00000  -0.00000  -0.00000  -0.00001   2.09188
   A92        2.09475   0.00000  -0.00000  -0.00000  -0.00000   2.09475
   A93        2.09029  -0.00000   0.00000  -0.00000  -0.00000   2.09028
   A94        2.09801  -0.00000   0.00000   0.00001   0.00001   2.09802
   A95        2.08877  -0.00000  -0.00000   0.00000   0.00000   2.08877
   A96        2.09750   0.00000   0.00000   0.00001   0.00001   2.09751
   A97        2.09655  -0.00000  -0.00000  -0.00001  -0.00001   2.09654
   A98        2.10188  -0.00000   0.00000   0.00000   0.00000   2.10188
   A99        2.09816   0.00000  -0.00000  -0.00000  -0.00000   2.09815
   A100       2.08251   0.00000  -0.00000  -0.00000  -0.00000   2.08251
   A101       2.10035  -0.00000  -0.00000  -0.00001  -0.00001   2.10034
   A102       2.09200  -0.00000  -0.00000   0.00001   0.00001   2.09200
   A103       2.09077   0.00000  -0.00000  -0.00000  -0.00000   2.09077
   A104       2.08355   0.00000   0.00003  -0.00003   0.00000   2.08356
   A105       1.88747   0.00000  -0.00000  -0.00002  -0.00002   1.88745
   A106       2.38604   0.00000   0.00009  -0.00007   0.00002   2.38606
   A107       1.94274  -0.00000  -0.00008   0.00008   0.00000   1.94274
   A108       1.78559   0.00000   0.00002  -0.00001   0.00001   1.78560
   A109       1.72214  -0.00001   0.00008  -0.00020  -0.00012   1.72202
   A110       1.99530  -0.00000  -0.00000  -0.00012  -0.00012   1.99517
    D1       -1.28851  -0.00000   0.00002   0.00002   0.00005  -1.28846
    D2        2.90237  -0.00000   0.00003   0.00002   0.00005   2.90242
    D3        0.75909   0.00000   0.00002   0.00004   0.00006   0.75915
    D4        0.79173   0.00000   0.00002   0.00002   0.00004   0.79177
    D5       -1.30058  -0.00000   0.00002   0.00002   0.00005  -1.30053
    D6        2.83933   0.00000   0.00001   0.00004   0.00005   2.83938
    D7        2.85340   0.00000   0.00003   0.00004   0.00006   2.85346
    D8        0.76109   0.00000   0.00003   0.00004   0.00007   0.76116
    D9       -1.38219   0.00000   0.00002   0.00006   0.00007  -1.38211
   D10        1.06454  -0.00000  -0.00002  -0.00000  -0.00002   1.06452
   D11       -1.02296  -0.00000  -0.00002  -0.00000  -0.00002  -1.02298
   D12       -3.11475  -0.00000  -0.00002  -0.00000  -0.00002  -3.11477
   D13       -3.13459  -0.00000  -0.00001  -0.00002  -0.00003  -3.13463
   D14        1.06110  -0.00000  -0.00001  -0.00002  -0.00003   1.06106
   D15       -1.03070  -0.00000  -0.00001  -0.00002  -0.00003  -1.03073
   D16       -1.04916  -0.00000  -0.00002  -0.00002  -0.00004  -1.04919
   D17       -3.13665  -0.00000  -0.00002  -0.00002  -0.00004  -3.13669
   D18        1.05474  -0.00000  -0.00002  -0.00002  -0.00004   1.05470
   D19        1.14168   0.00000  -0.00003   0.00001  -0.00002   1.14166
   D20       -0.92320   0.00000  -0.00003   0.00001  -0.00003  -0.92323
   D21       -3.06191   0.00000  -0.00003   0.00001  -0.00002  -3.06193
   D22       -0.94081  -0.00000  -0.00003   0.00001  -0.00002  -0.94083
   D23       -3.00570  -0.00000  -0.00003   0.00001  -0.00002  -3.00572
   D24        1.13879  -0.00000  -0.00003   0.00001  -0.00002   1.13877
   D25       -2.97981  -0.00000  -0.00001  -0.00000  -0.00002  -2.97983
   D26        1.23849  -0.00000  -0.00002  -0.00001  -0.00002   1.23847
   D27       -0.90021  -0.00000  -0.00002  -0.00000  -0.00002  -0.90023
   D28        1.25508  -0.00001  -0.00006  -0.00020  -0.00026   1.25482
   D29       -2.93413  -0.00000  -0.00005  -0.00018  -0.00023  -2.93436
   D30       -0.93025  -0.00000  -0.00006  -0.00017  -0.00023  -0.93048
   D31       -2.95223  -0.00000  -0.00007  -0.00018  -0.00025  -2.95248
   D32       -0.85825  -0.00000  -0.00006  -0.00016  -0.00022  -0.85847
   D33        1.14563   0.00000  -0.00007  -0.00015  -0.00022   1.14541
   D34       -0.87423  -0.00000  -0.00008  -0.00017  -0.00025  -0.87448
   D35        1.21975  -0.00000  -0.00007  -0.00015  -0.00023   1.21953
   D36       -3.05956  -0.00000  -0.00008  -0.00014  -0.00022  -3.05978
   D37        3.11367  -0.00000  -0.00002   0.00005   0.00004   3.11370
   D38       -1.19369  -0.00000  -0.00005   0.00007   0.00002  -1.19367
   D39        0.93571  -0.00000  -0.00003   0.00002  -0.00001   0.93570
   D40        0.99922   0.00000  -0.00002   0.00005   0.00003   0.99925
   D41        2.97505   0.00000  -0.00006   0.00007   0.00001   2.97507
   D42       -1.17873  -0.00000  -0.00003   0.00002  -0.00002  -1.17875
   D43       -0.97375  -0.00000  -0.00002   0.00002   0.00000  -0.97374
   D44        1.00208  -0.00000  -0.00005   0.00004  -0.00001   1.00208
   D45        3.13148  -0.00000  -0.00003  -0.00001  -0.00004   3.13144
   D46        1.78602  -0.00001  -0.00007  -0.00018  -0.00025   1.78577
   D47       -2.47253  -0.00000  -0.00007  -0.00025  -0.00031  -2.47284
   D48       -0.25135  -0.00000  -0.00007  -0.00017  -0.00024  -0.25158
   D49       -0.31418   0.00000  -0.00005  -0.00015  -0.00020  -0.31438
   D50        1.71046   0.00000  -0.00005  -0.00022  -0.00027   1.71020
   D51       -2.35154   0.00000  -0.00006  -0.00014  -0.00019  -2.35173
   D52       -2.33040  -0.00000  -0.00005  -0.00016  -0.00021  -2.33061
   D53       -0.30576  -0.00000  -0.00005  -0.00023  -0.00028  -0.30604
   D54        1.91542  -0.00000  -0.00005  -0.00015  -0.00020   1.91522
   D55       -1.83601  -0.00001   0.00010   0.00003   0.00013  -1.83589
   D56        1.74352  -0.00001   0.00011   0.00004   0.00015   1.74366
   D57        0.23752  -0.00000   0.00007   0.00006   0.00013   0.23765
   D58       -2.46613  -0.00000   0.00008   0.00006   0.00015  -2.46598
   D59        2.29629  -0.00000   0.00007   0.00008   0.00015   2.29644
   D60       -0.40737  -0.00000   0.00008   0.00009   0.00017  -0.40720
   D61        0.28679  -0.00000   0.00001   0.00020   0.00021   0.28700
   D62       -1.81431   0.00000   0.00001   0.00024   0.00025  -1.81407
   D63        2.40264   0.00000   0.00002   0.00022   0.00024   2.40289
   D64        2.97355   0.00000  -0.00001  -0.00020  -0.00020   2.97334
   D65       -0.15391  -0.00000   0.00004  -0.00018  -0.00014  -0.15406
   D66        0.08224   0.00000  -0.00009   0.00021   0.00013   0.08236
   D67       -3.06620   0.00000  -0.00011   0.00029   0.00019  -3.06601
   D68       -3.07398   0.00001  -0.00014   0.00020   0.00006  -3.07392
   D69        0.06077   0.00000  -0.00016   0.00028   0.00012   0.06089
   D70       -0.06493   0.00000  -0.00008   0.00009   0.00001  -0.06492
   D71        2.75923   0.00000  -0.00005   0.00005   0.00000   2.75923
   D72        3.09094   0.00000  -0.00003   0.00010   0.00007   3.09101
   D73       -0.36808   0.00000   0.00000   0.00006   0.00007  -0.36802
   D74        3.13195  -0.00000   0.00003   0.00004   0.00007   3.13202
   D75       -0.01140  -0.00000   0.00001   0.00008   0.00009  -0.01131
   D76       -0.00210  -0.00000   0.00005  -0.00004   0.00000  -0.00210
   D77        3.13773  -0.00000   0.00003  -0.00000   0.00003   3.13775
   D78       -3.13986   0.00000  -0.00004   0.00001  -0.00003  -3.13989
   D79       -0.00508   0.00000  -0.00006   0.00009   0.00003  -0.00506
   D80        0.00518   0.00000   0.00000  -0.00001  -0.00001   0.00516
   D81       -3.14102   0.00000  -0.00003  -0.00001  -0.00004  -3.14106
   D82       -3.13462  -0.00000   0.00002  -0.00005  -0.00004  -3.13465
   D83        0.00237  -0.00000  -0.00001  -0.00005  -0.00006   0.00231
   D84       -0.00142   0.00000  -0.00003   0.00002  -0.00001  -0.00143
   D85        3.11938   0.00000  -0.00003   0.00001  -0.00002   3.11936
   D86       -3.13840   0.00000  -0.00001   0.00002   0.00001  -3.13839
   D87       -0.01760  -0.00000  -0.00001   0.00001   0.00001  -0.01760
   D88        3.09974  -0.00000  -0.00004   0.00007   0.00002   3.09977
   D89       -0.00586  -0.00000   0.00002   0.00002   0.00004  -0.00582
   D90       -0.02150   0.00000  -0.00005   0.00008   0.00003  -0.02146
   D91       -3.12710  -0.00000   0.00002   0.00003   0.00005  -3.12705
   D92       -1.19110   0.00000   0.00005  -0.00005   0.00000  -1.19109
   D93        2.83231   0.00000   0.00024  -0.00022   0.00002   2.83233
   D94        0.80617   0.00000   0.00018  -0.00013   0.00005   0.80622
   D95        1.91503   0.00001  -0.00002   0.00000  -0.00001   1.91502
   D96       -0.34475   0.00001   0.00018  -0.00017   0.00000  -0.34475
   D97       -2.37089   0.00000   0.00012  -0.00008   0.00004  -2.37085
   D98        0.00901   0.00000   0.00002  -0.00007  -0.00005   0.00896
   D99       -3.09676  -0.00000   0.00008  -0.00011  -0.00003  -3.09679
   D100       2.22859   0.00000   0.00017  -0.00007   0.00009   2.22868
   D101      -0.90614   0.00000   0.00017  -0.00008   0.00009  -0.90605
   D102      -1.82212  -0.00000  -0.00014   0.00021   0.00008  -1.82205
   D103       1.32633  -0.00000  -0.00013   0.00021   0.00007   1.32640
   D104       0.24416   0.00000   0.00002   0.00003   0.00006   0.24421
   D105      -2.89057   0.00000   0.00003   0.00003   0.00005  -2.89052
   D106      -1.19666   0.00000  -0.00015   0.00016   0.00000  -1.19666
   D107       1.94358   0.00000  -0.00053   0.00049  -0.00004   1.94355
   D108       2.88537  -0.00000   0.00006  -0.00007  -0.00001   2.88536
   D109      -0.25757  -0.00000  -0.00031   0.00026  -0.00005  -0.25762
   D110       0.81839   0.00000  -0.00010   0.00008  -0.00002   0.81837
   D111      -2.32455  -0.00000  -0.00047   0.00041  -0.00006  -2.32461
   D112      -3.13923  -0.00000  -0.00000  -0.00002  -0.00002  -3.13925
   D113       0.00887  -0.00000  -0.00000  -0.00002  -0.00002   0.00885
   D114      -0.00443   0.00000  -0.00000  -0.00001  -0.00001  -0.00444
   D115      -3.13951   0.00000  -0.00001  -0.00002  -0.00002  -3.13953
   D116      -3.14098   0.00000  -0.00000   0.00002   0.00001  -3.14096
   D117      -0.03637  -0.00000   0.00002  -0.00001   0.00001  -0.03636
   D118       0.00748  -0.00000   0.00000   0.00001   0.00001   0.00749
   D119       3.11208  -0.00000   0.00003  -0.00002   0.00001   3.11209
   D120       0.00170   0.00000   0.00000   0.00000   0.00000   0.00171
   D121      -3.14024  -0.00000   0.00000   0.00000   0.00000  -3.14023
   D122       3.13677  -0.00000   0.00000   0.00001   0.00001   3.13678
   D123      -0.00517  -0.00000   0.00000   0.00001   0.00001  -0.00516
   D124      -0.00205  -0.00000   0.00000   0.00000   0.00001  -0.00204
   D125      -3.14158  -0.00000   0.00000   0.00001   0.00001  -3.14156
   D126       3.13990  -0.00000   0.00000   0.00000   0.00001   3.13990
   D127       0.00037   0.00000   0.00000   0.00001   0.00001   0.00038
   D128       0.00520   0.00000  -0.00001  -0.00000  -0.00001   0.00519
   D129      -3.13329   0.00000  -0.00001  -0.00000  -0.00001  -3.13330
   D130      -3.13846   0.00000  -0.00000  -0.00001  -0.00001  -3.13847
   D131       0.00624   0.00000  -0.00001  -0.00001  -0.00002   0.00622
   D132      -0.00792  -0.00000   0.00000  -0.00000  -0.00000  -0.00792
   D133      -3.11256   0.00000  -0.00002   0.00002   0.00000  -3.11256
   D134       3.13060  -0.00000   0.00001  -0.00001   0.00000   3.13060
   D135       0.02595   0.00000  -0.00001   0.00002   0.00001   0.02596
   D136       3.13909  -0.00000  -0.00033   0.00028  -0.00005   3.13904
   D137       0.00567  -0.00000  -0.00026   0.00022  -0.00004   0.00563
   D138      -0.00122  -0.00000   0.00003  -0.00004  -0.00001  -0.00123
   D139      -3.13464   0.00000   0.00010  -0.00010  -0.00000  -3.13464
   D140      -3.13514   0.00000   0.00036  -0.00033   0.00003  -3.13510
   D141      -0.00679   0.00000   0.00025  -0.00022   0.00003  -0.00677
   D142       0.00511   0.00000  -0.00001   0.00001  -0.00001   0.00510
   D143       3.13345   0.00000  -0.00013   0.00011  -0.00001   3.13344
   D144      -0.00348  -0.00000  -0.00003   0.00005   0.00002  -0.00346
   D145      -3.12748   0.00000   0.00001  -0.00001  -0.00000  -3.12748
   D146       3.12989  -0.00000  -0.00010   0.00011   0.00001   3.12991
   D147       0.00590  -0.00000  -0.00006   0.00005  -0.00001   0.00589
   D148       0.00429   0.00000   0.00002  -0.00003  -0.00001   0.00428
   D149      -3.10834   0.00000   0.00001  -0.00003  -0.00001  -3.10835
   D150       3.12821  -0.00000  -0.00002   0.00003   0.00001   3.12822
   D151       0.01558  -0.00000  -0.00002   0.00003   0.00001   0.01559
   D152      -0.00040   0.00000  -0.00000  -0.00000  -0.00000  -0.00041
   D153      -3.10310  -0.00000   0.00002  -0.00000   0.00002  -3.10309
   D154       3.11224   0.00000  -0.00000  -0.00000  -0.00000   3.11223
   D155       0.00954  -0.00000   0.00002  -0.00001   0.00002   0.00955
   D156      -0.00435  -0.00000   0.00000   0.00001   0.00001  -0.00433
   D157      -3.13270  -0.00000   0.00011  -0.00009   0.00002  -3.13268
   D158       3.09870  -0.00000  -0.00002   0.00001  -0.00001   3.09869
   D159      -0.02965   0.00000   0.00009  -0.00009   0.00000  -0.02965
   D160       1.62410  -0.00000  -0.00026   0.00006  -0.00020   1.62390
   D161      -0.42435  -0.00000  -0.00029   0.00026  -0.00003  -0.42438
   D162      -1.07016  -0.00001  -0.00026   0.00009  -0.00018  -1.07033
   D163      -3.11861  -0.00000  -0.00029   0.00028  -0.00001  -3.11862
         Item               Value     Threshold  Converged?
 Maximum Force            0.000018     0.000450     YES
 RMS     Force            0.000003     0.000300     YES
 Maximum Displacement     0.001375     0.001800     YES
 RMS     Displacement     0.000265     0.001200     YES
 Predicted change in Energy=-6.922151D-09
 Optimization completed.
    -- Stationary point found.
                           ----------------------------
                           !   Optimized Parameters   !
                           ! (Angstroms and Degrees)  !
 --------------------------                            --------------------------
 ! Name  Definition              Value          Derivative Info.                !
 --------------------------------------------------------------------------------
 ! R1    R(1,2)                  1.5417         -DE/DX =    0.0                 !
 ! R2    R(1,30)                 1.0978         -DE/DX =    0.0                 !
 ! R3    R(1,31)                 1.0974         -DE/DX =    0.0                 !
 ! R4    R(1,32)                 1.0906         -DE/DX =    0.0                 !
 ! R5    R(2,3)                  1.5408         -DE/DX =    0.0                 !
 ! R6    R(2,4)                  1.5386         -DE/DX =    0.0                 !
 ! R7    R(2,5)                  1.5474         -DE/DX =    0.0                 !
 ! R8    R(3,33)                 1.0978         -DE/DX =    0.0                 !
 ! R9    R(3,34)                 1.0958         -DE/DX =    0.0                 !
 ! R10   R(3,35)                 1.0974         -DE/DX =    0.0                 !
 ! R11   R(4,36)                 1.0966         -DE/DX =    0.0                 !
 ! R12   R(4,37)                 1.0938         -DE/DX =    0.0                 !
 ! R13   R(4,38)                 1.0985         -DE/DX =    0.0                 !
 ! R14   R(5,6)                  1.5377         -DE/DX =    0.0                 !
 ! R15   R(5,39)                 1.1            -DE/DX =    0.0                 !
 ! R16   R(5,40)                 1.1001         -DE/DX =    0.0                 !
 ! R17   R(6,7)                  1.5524         -DE/DX =    0.0                 !
 ! R18   R(6,29)                 1.4727         -DE/DX =    0.0                 !
 ! R19   R(6,41)                 1.0917         -DE/DX =    0.0                 !
 ! R20   R(7,8)                  1.4664         -DE/DX =    0.0                 !
 ! R21   R(7,42)                 1.0936         -DE/DX =    0.0                 !
 ! R22   R(7,43)                 1.0906         -DE/DX =    0.0                 !
 ! R23   R(8,9)                  1.3423         -DE/DX =    0.0                 !
 ! R24   R(9,10)                 1.4672         -DE/DX =    0.0                 !
 ! R25   R(9,29)                 1.2814         -DE/DX =    0.0                 !
 ! R26   R(10,11)                1.3863         -DE/DX =    0.0                 !
 ! R27   R(10,28)                1.3521         -DE/DX =    0.0                 !
 ! R28   R(11,12)                1.3989         -DE/DX =    0.0                 !
 ! R29   R(11,44)                1.0835         -DE/DX =    0.0                 !
 ! R30   R(12,13)                1.3861         -DE/DX =    0.0                 !
 ! R31   R(12,45)                1.0855         -DE/DX =    0.0                 !
 ! R32   R(13,14)                1.4064         -DE/DX =    0.0                 !
 ! R33   R(13,46)                1.0851         -DE/DX =    0.0                 !
 ! R34   R(14,15)                1.5238         -DE/DX =    0.0                 !
 ! R35   R(14,28)                1.3311         -DE/DX =    0.0                 !
 ! R36   R(15,16)                1.5241         -DE/DX =    0.0                 !
 ! R37   R(15,22)                1.5257         -DE/DX =    0.0                 !
 ! R38   R(15,47)                1.098          -DE/DX =    0.0                 !
 ! R39   R(16,17)                1.398          -DE/DX =    0.0                 !
 ! R40   R(16,21)                1.4025         -DE/DX =    0.0                 !
 ! R41   R(17,18)                1.3953         -DE/DX =    0.0                 !
 ! R42   R(17,48)                1.0879         -DE/DX =    0.0                 !
 ! R43   R(18,19)                1.3951         -DE/DX =    0.0                 !
 ! R44   R(18,49)                1.0866         -DE/DX =    0.0                 !
 ! R45   R(19,20)                1.3964         -DE/DX =    0.0                 !
 ! R46   R(19,50)                1.0866         -DE/DX =    0.0                 !
 ! R47   R(20,21)                1.395          -DE/DX =    0.0                 !
 ! R48   R(20,51)                1.0865         -DE/DX =    0.0                 !
 ! R49   R(21,52)                1.0909         -DE/DX =    0.0                 !
 ! R50   R(22,23)                1.404          -DE/DX =    0.0                 !
 ! R51   R(22,27)                1.4006         -DE/DX =    0.0                 !
 ! R52   R(23,24)                1.3925         -DE/DX =    0.0                 !
 ! R53   R(23,53)                1.0879         -DE/DX =    0.0                 !
 ! R54   R(24,25)                1.3962         -DE/DX =    0.0                 !
 ! R55   R(24,54)                1.0861         -DE/DX =    0.0                 !
 ! R56   R(25,26)                1.3911         -DE/DX =    0.0                 !
 ! R57   R(25,55)                1.0852         -DE/DX =    0.0                 !
 ! R58   R(26,27)                1.3981         -DE/DX =    0.0                 !
 ! R59   R(26,56)                1.0846         -DE/DX =    0.0                 !
 ! R60   R(27,57)                1.0834         -DE/DX =    0.0                 !
 ! R61   R(29,58)                2.0442         -DE/DX =    0.0                 !
 ! R62   R(58,59)                1.848          -DE/DX =    0.0                 !
 ! R63   R(58,60)                1.8268         -DE/DX =    0.0                 !
 ! A1    A(2,1,30)             111.6179         -DE/DX =    0.0                 !
 ! A2    A(2,1,31)             109.7434         -DE/DX =    0.0                 !
 ! A3    A(2,1,32)             110.7328         -DE/DX =    0.0                 !
 ! A4    A(30,1,31)            107.5946         -DE/DX =    0.0                 !
 ! A5    A(30,1,32)            109.823          -DE/DX =    0.0                 !
 ! A6    A(31,1,32)            107.1796         -DE/DX =    0.0                 !
 ! A7    A(1,2,3)              108.9295         -DE/DX =    0.0                 !
 ! A8    A(1,2,4)              109.0755         -DE/DX =    0.0                 !
 ! A9    A(1,2,5)              112.2609         -DE/DX =    0.0                 !
 ! A10   A(3,2,4)              109.8373         -DE/DX =    0.0                 !
 ! A11   A(3,2,5)              106.1931         -DE/DX =    0.0                 !
 ! A12   A(4,2,5)              110.4878         -DE/DX =    0.0                 !
 ! A13   A(2,3,33)             111.2897         -DE/DX =    0.0                 !
 ! A14   A(2,3,34)             110.4421         -DE/DX =    0.0                 !
 ! A15   A(2,3,35)             111.5215         -DE/DX =    0.0                 !
 ! A16   A(33,3,34)            107.7281         -DE/DX =    0.0                 !
 ! A17   A(33,3,35)            107.8972         -DE/DX =    0.0                 !
 ! A18   A(34,3,35)            107.8039         -DE/DX =    0.0                 !
 ! A19   A(2,4,36)             110.0457         -DE/DX =    0.0                 !
 ! A20   A(2,4,37)             110.4582         -DE/DX =    0.0                 !
 ! A21   A(2,4,38)             111.3872         -DE/DX =    0.0                 !
 ! A22   A(36,4,37)            107.3133         -DE/DX =    0.0                 !
 ! A23   A(36,4,38)            107.5243         -DE/DX =    0.0                 !
 ! A24   A(37,4,38)            109.9853         -DE/DX =    0.0                 !
 ! A25   A(2,5,6)              120.0907         -DE/DX =    0.0                 !
 ! A26   A(2,5,39)             107.5141         -DE/DX =    0.0                 !
 ! A27   A(2,5,40)             109.1452         -DE/DX =    0.0                 !
 ! A28   A(6,5,39)             105.1522         -DE/DX =    0.0                 !
 ! A29   A(6,5,40)             107.8694         -DE/DX =    0.0                 !
 ! A30   A(39,5,40)            106.2232         -DE/DX =    0.0                 !
 ! A31   A(5,6,7)              110.8871         -DE/DX =    0.0                 !
 ! A32   A(5,6,29)             113.0362         -DE/DX =    0.0                 !
 ! A33   A(5,6,41)             110.7304         -DE/DX =    0.0                 !
 ! A34   A(7,6,29)             101.4951         -DE/DX =    0.0                 !
 ! A35   A(7,6,41)             111.8597         -DE/DX =    0.0                 !
 ! A36   A(29,6,41)            108.5206         -DE/DX =    0.0                 !
 ! A37   A(6,7,8)              104.1467         -DE/DX =    0.0                 !
 ! A38   A(6,7,42)             113.4101         -DE/DX =    0.0                 !
 ! A39   A(6,7,43)             113.9929         -DE/DX =    0.0                 !
 ! A40   A(8,7,42)             107.0393         -DE/DX =    0.0                 !
 ! A41   A(8,7,43)             107.4043         -DE/DX =    0.0                 !
 ! A42   A(42,7,43)            110.2481         -DE/DX =    0.0                 !
 ! A43   A(7,8,9)              104.7328         -DE/DX =    0.0                 !
 ! A44   A(8,9,10)             120.5002         -DE/DX =    0.0                 !
 ! A45   A(8,9,29)             118.0194         -DE/DX =    0.0                 !
 ! A46   A(10,9,29)            121.4753         -DE/DX =    0.0                 !
 ! A47   A(9,10,11)            123.6068         -DE/DX =    0.0                 !
 ! A48   A(9,10,28)            113.0758         -DE/DX =    0.0                 !
 ! A49   A(11,10,28)           123.3162         -DE/DX =    0.0                 !
 ! A50   A(10,11,12)           117.5447         -DE/DX =    0.0                 !
 ! A51   A(10,11,44)           120.2112         -DE/DX =    0.0                 !
 ! A52   A(12,11,44)           122.2441         -DE/DX =    0.0                 !
 ! A53   A(11,12,13)           119.1314         -DE/DX =    0.0                 !
 ! A54   A(11,12,45)           120.3363         -DE/DX =    0.0                 !
 ! A55   A(13,12,45)           120.5318         -DE/DX =    0.0                 !
 ! A56   A(12,13,14)           119.8247         -DE/DX =    0.0                 !
 ! A57   A(12,13,46)           121.1331         -DE/DX =    0.0                 !
 ! A58   A(14,13,46)           119.0318         -DE/DX =    0.0                 !
 ! A59   A(13,14,15)           119.8025         -DE/DX =    0.0                 !
 ! A60   A(13,14,28)           120.8022         -DE/DX =    0.0                 !
 ! A61   A(15,14,28)           119.3635         -DE/DX =    0.0                 !
 ! A62   A(14,15,16)           109.0528         -DE/DX =    0.0                 !
 ! A63   A(14,15,22)           112.6079         -DE/DX =    0.0                 !
 ! A64   A(14,15,47)           105.6394         -DE/DX =    0.0                 !
 ! A65   A(16,15,22)           115.4205         -DE/DX =    0.0                 !
 ! A66   A(16,15,47)           106.7693         -DE/DX =    0.0                 !
 ! A67   A(22,15,47)           106.6973         -DE/DX =    0.0                 !
 ! A68   A(15,16,17)           119.6512         -DE/DX =    0.0                 !
 ! A69   A(15,16,21)           120.7154         -DE/DX =    0.0                 !
 ! A70   A(17,16,21)           119.6323         -DE/DX =    0.0                 !
 ! A71   A(16,17,18)           120.5337         -DE/DX =    0.0                 !
 ! A72   A(16,17,48)           119.5943         -DE/DX =    0.0                 !
 ! A73   A(18,17,48)           119.8709         -DE/DX =    0.0                 !
 ! A74   A(17,18,19)           119.8498         -DE/DX =    0.0                 !
 ! A75   A(17,18,49)           119.8547         -DE/DX =    0.0                 !
 ! A76   A(19,18,49)           120.2955         -DE/DX =    0.0                 !
 ! A77   A(18,19,20)           119.721          -DE/DX =    0.0                 !
 ! A78   A(18,19,50)           120.0675         -DE/DX =    0.0                 !
 ! A79   A(20,19,50)           120.2114         -DE/DX =    0.0                 !
 ! A80   A(19,20,21)           120.7009         -DE/DX =    0.0                 !
 ! A81   A(19,20,51)           120.0902         -DE/DX =    0.0                 !
 ! A82   A(21,20,51)           119.2087         -DE/DX =    0.0                 !
 ! A83   A(16,21,20)           119.5607         -DE/DX =    0.0                 !
 ! A84   A(16,21,52)           120.2606         -DE/DX =    0.0                 !
 ! A85   A(20,21,52)           120.1447         -DE/DX =    0.0                 !
 ! A86   A(15,22,23)           118.398          -DE/DX =    0.0                 !
 ! A87   A(15,22,27)           122.8792         -DE/DX =    0.0                 !
 ! A88   A(23,22,27)           118.7228         -DE/DX =    0.0                 !
 ! A89   A(22,23,24)           120.8086         -DE/DX =    0.0                 !
 ! A90   A(22,23,53)           119.3334         -DE/DX =    0.0                 !
 ! A91   A(24,23,53)           119.8564         -DE/DX =    0.0                 !
 ! A92   A(23,24,25)           120.0204         -DE/DX =    0.0                 !
 ! A93   A(23,24,54)           119.7646         -DE/DX =    0.0                 !
 ! A94   A(25,24,54)           120.2073         -DE/DX =    0.0                 !
 ! A95   A(24,25,26)           119.6778         -DE/DX =    0.0                 !
 ! A96   A(24,25,55)           120.178          -DE/DX =    0.0                 !
 ! A97   A(26,25,55)           120.1233         -DE/DX =    0.0                 !
 ! A98   A(25,26,27)           120.4286         -DE/DX =    0.0                 !
 ! A99   A(25,26,56)           120.2155         -DE/DX =    0.0                 !
 ! A100  A(27,26,56)           119.3189         -DE/DX =    0.0                 !
 ! A101  A(22,27,26)           120.3409         -DE/DX =    0.0                 !
 ! A102  A(22,27,57)           119.8625         -DE/DX =    0.0                 !
 ! A103  A(26,27,57)           119.7923         -DE/DX =    0.0                 !
 ! A104  A(10,28,14)           119.3788         -DE/DX =    0.0                 !
 ! A105  A(6,29,9)             108.1443         -DE/DX =    0.0                 !
 ! A106  A(6,29,58)            136.7103         -DE/DX =    0.0                 !
 ! A107  A(9,29,58)            111.3106         -DE/DX =    0.0                 !
 ! A108  A(29,58,59)           102.3068         -DE/DX =    0.0                 !
 ! A109  A(29,58,60)            98.6713         -DE/DX =    0.0                 !
 ! A110  A(59,58,60)           114.322          -DE/DX =    0.0                 !
 ! D1    D(30,1,2,3)           -73.8264         -DE/DX =    0.0                 !
 ! D2    D(30,1,2,4)           166.2933         -DE/DX =    0.0                 !
 ! D3    D(30,1,2,5)            43.4926         -DE/DX =    0.0                 !
 ! D4    D(31,1,2,3)            45.3625         -DE/DX =    0.0                 !
 ! D5    D(31,1,2,4)           -74.5179         -DE/DX =    0.0                 !
 ! D6    D(31,1,2,5)           162.6815         -DE/DX =    0.0                 !
 ! D7    D(32,1,2,3)           163.4876         -DE/DX =    0.0                 !
 ! D8    D(32,1,2,4)            43.6073         -DE/DX =    0.0                 !
 ! D9    D(32,1,2,5)           -79.1934         -DE/DX =    0.0                 !
 ! D10   D(1,2,3,33)            60.9935         -DE/DX =    0.0                 !
 ! D11   D(1,2,3,34)           -58.6111         -DE/DX =    0.0                 !
 ! D12   D(1,2,3,35)          -178.4623         -DE/DX =    0.0                 !
 ! D13   D(4,2,3,33)          -179.599          -DE/DX =    0.0                 !
 ! D14   D(4,2,3,34)            60.7963         -DE/DX =    0.0                 !
 ! D15   D(4,2,3,35)           -59.0549         -DE/DX =    0.0                 !
 ! D16   D(5,2,3,33)           -60.1123         -DE/DX =    0.0                 !
 ! D17   D(5,2,3,34)          -179.7169         -DE/DX =    0.0                 !
 ! D18   D(5,2,3,35)            60.4319         -DE/DX =    0.0                 !
 ! D19   D(1,2,4,36)            65.4135         -DE/DX =    0.0                 !
 ! D20   D(1,2,4,37)           -52.8957         -DE/DX =    0.0                 !
 ! D21   D(1,2,4,38)          -175.4343         -DE/DX =    0.0                 !
 ! D22   D(3,2,4,36)           -53.9046         -DE/DX =    0.0                 !
 ! D23   D(3,2,4,37)          -172.2138         -DE/DX =    0.0                 !
 ! D24   D(3,2,4,38)            65.2476         -DE/DX =    0.0                 !
 ! D25   D(5,2,4,36)          -170.7305         -DE/DX =    0.0                 !
 ! D26   D(5,2,4,37)            70.9603         -DE/DX =    0.0                 !
 ! D27   D(5,2,4,38)           -51.5783         -DE/DX =    0.0                 !
 ! D28   D(1,2,5,6)             71.9106         -DE/DX =    0.0                 !
 ! D29   D(1,2,5,39)          -168.1131         -DE/DX =    0.0                 !
 ! D30   D(1,2,5,40)           -53.2994         -DE/DX =    0.0                 !
 ! D31   D(3,2,5,6)           -169.1503         -DE/DX =    0.0                 !
 ! D32   D(3,2,5,39)           -49.1739         -DE/DX =    0.0                 !
 ! D33   D(3,2,5,40)            65.6397         -DE/DX =    0.0                 !
 ! D34   D(4,2,5,6)            -50.0896         -DE/DX =    0.0                 !
 ! D35   D(4,2,5,39)            69.8867         -DE/DX =    0.0                 !
 ! D36   D(4,2,5,40)          -175.2996         -DE/DX =    0.0                 !
 ! D37   D(2,5,6,7)            178.4            -DE/DX =    0.0                 !
 ! D38   D(2,5,6,29)           -68.3933         -DE/DX =    0.0                 !
 ! D39   D(2,5,6,41)            53.6121         -DE/DX =    0.0                 !
 ! D40   D(39,5,6,7)            57.2514         -DE/DX =    0.0                 !
 ! D41   D(39,5,6,29)          170.4581         -DE/DX =    0.0                 !
 ! D42   D(39,5,6,41)          -67.5365         -DE/DX =    0.0                 !
 ! D43   D(40,5,6,7)           -55.7915         -DE/DX =    0.0                 !
 ! D44   D(40,5,6,29)           57.4152         -DE/DX =    0.0                 !
 ! D45   D(40,5,6,41)          179.4207         -DE/DX =    0.0                 !
 ! D46   D(5,6,7,8)            102.3313         -DE/DX =    0.0                 !
 ! D47   D(5,6,7,42)          -141.6654         -DE/DX =    0.0                 !
 ! D48   D(5,6,7,43)           -14.401          -DE/DX =    0.0                 !
 ! D49   D(29,6,7,8)           -18.001          -DE/DX =    0.0                 !
 ! D50   D(29,6,7,42)           98.0024         -DE/DX =    0.0                 !
 ! D51   D(29,6,7,43)         -134.7333         -DE/DX =    0.0                 !
 ! D52   D(41,6,7,8)          -133.5222         -DE/DX =    0.0                 !
 ! D53   D(41,6,7,42)          -17.5188         -DE/DX =    0.0                 !
 ! D54   D(41,6,7,43)          109.7455         -DE/DX =    0.0                 !
 ! D55   D(5,6,29,9)          -105.1959         -DE/DX =    0.0                 !
 ! D56   D(5,6,29,58)           99.8962         -DE/DX =    0.0                 !
 ! D57   D(7,6,29,9)            13.6088         -DE/DX =    0.0                 !
 ! D58   D(7,6,29,58)         -141.299          -DE/DX =    0.0                 !
 ! D59   D(41,6,29,9)          131.5675         -DE/DX =    0.0                 !
 ! D60   D(41,6,29,58)         -23.3404         -DE/DX =    0.0                 !
 ! D61   D(6,7,8,9)             16.4317         -DE/DX =    0.0                 !
 ! D62   D(42,7,8,9)          -103.9525         -DE/DX =    0.0                 !
 ! D63   D(43,7,8,9)           137.6613         -DE/DX =    0.0                 !
 ! D64   D(7,8,9,10)           170.3717         -DE/DX =    0.0                 !
 ! D65   D(7,8,9,29)            -8.8186         -DE/DX =    0.0                 !
 ! D66   D(8,9,10,11)            4.7118         -DE/DX =    0.0                 !
 ! D67   D(8,9,10,28)         -175.6802         -DE/DX =    0.0                 !
 ! D68   D(29,9,10,11)        -176.1263         -DE/DX =    0.0                 !
 ! D69   D(29,9,10,28)           3.4817         -DE/DX =    0.0                 !
 ! D70   D(8,9,29,6)            -3.7204         -DE/DX =    0.0                 !
 ! D71   D(8,9,29,58)          158.0923         -DE/DX =    0.0                 !
 ! D72   D(10,9,29,6)          177.0977         -DE/DX =    0.0                 !
 ! D73   D(10,9,29,58)         -21.0897         -DE/DX =    0.0                 !
 ! D74   D(9,10,11,12)         179.4478         -DE/DX =    0.0                 !
 ! D75   D(9,10,11,44)          -0.6531         -DE/DX =    0.0                 !
 ! D76   D(28,10,11,12)         -0.1206         -DE/DX =    0.0                 !
 ! D77   D(28,10,11,44)        179.7786         -DE/DX =    0.0                 !
 ! D78   D(9,10,28,14)        -179.9005         -DE/DX =    0.0                 !
 ! D79   D(11,10,28,14)         -0.2913         -DE/DX =    0.0                 !
 ! D80   D(10,11,12,13)          0.2965         -DE/DX =    0.0                 !
 ! D81   D(10,11,12,45)       -179.9673         -DE/DX =    0.0                 !
 ! D82   D(44,11,12,13)       -179.6004         -DE/DX =    0.0                 !
 ! D83   D(44,11,12,45)          0.1357         -DE/DX =    0.0                 !
 ! D84   D(11,12,13,14)         -0.0816         -DE/DX =    0.0                 !
 ! D85   D(11,12,13,46)        178.7272         -DE/DX =    0.0                 !
 ! D86   D(45,12,13,14)       -179.8173         -DE/DX =    0.0                 !
 ! D87   D(45,12,13,46)         -1.0085         -DE/DX =    0.0                 !
 ! D88   D(12,13,14,15)        177.6022         -DE/DX =    0.0                 !
 ! D89   D(12,13,14,28)         -0.336          -DE/DX =    0.0                 !
 ! D90   D(46,13,14,15)         -1.2316         -DE/DX =    0.0                 !
 ! D91   D(46,13,14,28)       -179.1698         -DE/DX =    0.0                 !
 ! D92   D(13,14,15,16)        -68.2448         -DE/DX =    0.0                 !
 ! D93   D(13,14,15,22)        162.2793         -DE/DX =    0.0                 !
 ! D94   D(13,14,15,47)         46.1899         -DE/DX =    0.0                 !
 ! D95   D(28,14,15,16)        109.7232         -DE/DX =    0.0                 !
 ! D96   D(28,14,15,22)        -19.7527         -DE/DX =    0.0                 !
 ! D97   D(28,14,15,47)       -135.8421         -DE/DX =    0.0                 !
 ! D98   D(13,14,28,10)          0.5161         -DE/DX =    0.0                 !
 ! D99   D(15,14,28,10)       -177.4311         -DE/DX =    0.0                 !
 ! D100  D(14,15,16,17)        127.6888         -DE/DX =    0.0                 !
 ! D101  D(14,15,16,21)        -51.918          -DE/DX =    0.0                 !
 ! D102  D(22,15,16,17)       -104.4            -DE/DX =    0.0                 !
 ! D103  D(22,15,16,21)         75.9932         -DE/DX =    0.0                 !
 ! D104  D(47,15,16,17)         13.9892         -DE/DX =    0.0                 !
 ! D105  D(47,15,16,21)       -165.6176         -DE/DX =    0.0                 !
 ! D106  D(14,15,22,23)        -68.5638         -DE/DX =    0.0                 !
 ! D107  D(14,15,22,27)        111.3592         -DE/DX =    0.0                 !
 ! D108  D(16,15,22,23)        165.3195         -DE/DX =    0.0                 !
 ! D109  D(16,15,22,27)        -14.7575         -DE/DX =    0.0                 !
 ! D110  D(47,15,22,23)         46.8903         -DE/DX =    0.0                 !
 ! D111  D(47,15,22,27)       -133.1867         -DE/DX =    0.0                 !
 ! D112  D(15,16,17,18)       -179.8648         -DE/DX =    0.0                 !
 ! D113  D(15,16,17,48)          0.5083         -DE/DX =    0.0                 !
 ! D114  D(21,16,17,18)         -0.2538         -DE/DX =    0.0                 !
 ! D115  D(21,16,17,48)       -179.8806         -DE/DX =    0.0                 !
 ! D116  D(15,16,21,20)       -179.9648         -DE/DX =    0.0                 !
 ! D117  D(15,16,21,52)         -2.0841         -DE/DX =    0.0                 !
 ! D118  D(17,16,21,20)          0.4283         -DE/DX =    0.0                 !
 ! D119  D(17,16,21,52)        178.3091         -DE/DX =    0.0                 !
 ! D120  D(16,17,18,19)          0.0977         -DE/DX =    0.0                 !
 ! D121  D(16,17,18,49)       -179.9223         -DE/DX =    0.0                 !
 ! D122  D(48,17,18,19)        179.7235         -DE/DX =    0.0                 !
 ! D123  D(48,17,18,49)         -0.2965         -DE/DX =    0.0                 !
 ! D124  D(17,18,19,20)         -0.1172         -DE/DX =    0.0                 !
 ! D125  D(17,18,19,50)       -179.9991         -DE/DX =    0.0                 !
 ! D126  D(49,18,19,20)        179.9028         -DE/DX =    0.0                 !
 ! D127  D(49,18,19,50)          0.0209         -DE/DX =    0.0                 !
 ! D128  D(18,19,20,21)          0.2978         -DE/DX =    0.0                 !
 ! D129  D(18,19,20,51)       -179.5242         -DE/DX =    0.0                 !
 ! D130  D(50,19,20,21)       -179.8204         -DE/DX =    0.0                 !
 ! D131  D(50,19,20,51)          0.3575         -DE/DX =    0.0                 !
 ! D132  D(19,20,21,16)         -0.4535         -DE/DX =    0.0                 !
 ! D133  D(19,20,21,52)       -178.3368         -DE/DX =    0.0                 !
 ! D134  D(51,20,21,16)        179.3701         -DE/DX =    0.0                 !
 ! D135  D(51,20,21,52)          1.4868         -DE/DX =    0.0                 !
 ! D136  D(15,22,23,24)        179.8565         -DE/DX =    0.0                 !
 ! D137  D(15,22,23,53)          0.3247         -DE/DX =    0.0                 !
 ! D138  D(27,22,23,24)         -0.0698         -DE/DX =    0.0                 !
 ! D139  D(27,22,23,53)       -179.6016         -DE/DX =    0.0                 !
 ! D140  D(15,22,27,26)       -179.6301         -DE/DX =    0.0                 !
 ! D141  D(15,22,27,57)         -0.3891         -DE/DX =    0.0                 !
 ! D142  D(23,22,27,26)          0.2927         -DE/DX =    0.0                 !
 ! D143  D(23,22,27,57)        179.5337         -DE/DX =    0.0                 !
 ! D144  D(22,23,24,25)         -0.1996         -DE/DX =    0.0                 !
 ! D145  D(22,23,24,54)       -179.1911         -DE/DX =    0.0                 !
 ! D146  D(53,23,24,25)        179.3298         -DE/DX =    0.0                 !
 ! D147  D(53,23,24,54)          0.3382         -DE/DX =    0.0                 !
 ! D148  D(23,24,25,26)          0.2459         -DE/DX =    0.0                 !
 ! D149  D(23,24,25,55)       -178.0945         -DE/DX =    0.0                 !
 ! D150  D(54,24,25,26)        179.233          -DE/DX =    0.0                 !
 ! D151  D(54,24,25,55)          0.8926         -DE/DX =    0.0                 !
 ! D152  D(24,25,26,27)         -0.0232         -DE/DX =    0.0                 !
 ! D153  D(24,25,26,56)       -177.7948         -DE/DX =    0.0                 !
 ! D154  D(55,25,26,27)        178.3181         -DE/DX =    0.0                 !
 ! D155  D(55,25,26,56)          0.5465         -DE/DX =    0.0                 !
 ! D156  D(25,26,27,22)         -0.249          -DE/DX =    0.0                 !
 ! D157  D(25,26,27,57)       -179.4905         -DE/DX =    0.0                 !
 ! D158  D(56,26,27,22)        177.5425         -DE/DX =    0.0                 !
 ! D159  D(56,26,27,57)         -1.699          -DE/DX =    0.0                 !
 ! D160  D(6,29,58,59)          93.0541         -DE/DX =    0.0                 !
 ! D161  D(6,29,58,60)         -24.3135         -DE/DX =    0.0                 !
 ! D162  D(9,29,58,59)         -61.3155         -DE/DX =    0.0                 !
 ! D163  D(9,29,58,60)        -178.6831         -DE/DX =    0.0                 !
 --------------------------------------------------------------------------------
 GradGradGradGradGradGradGradGradGradGradGradGradGradGradGradGradGradGrad

 Stoichiometry    C26H28F2N2NiO(3)
 Framework group  C1[X(C26H28F2N2NiO)]
 Deg. of freedom   174
 Full point group                 C1      NOp   1
 Largest Abelian subgroup         C1      NOp   1
 Largest concise Abelian subgroup C1      NOp   1
                         Standard orientation:                         
 ---------------------------------------------------------------------
 Center     Atomic      Atomic             Coordinates (Angstroms)
 Number     Number       Type             X           Y           Z
 ---------------------------------------------------------------------
      1          6           0       -3.392928   -1.373835    1.077923
      2          6           0       -4.526701   -0.772810    0.223384
      3          6           0       -5.860128   -0.931668    0.978979
      4          6           0       -4.595071   -1.520966   -1.119272
      5          6           0       -4.341975    0.745519   -0.011428
      6          6           0       -3.239101    1.250973   -0.956328
      7          6           0       -3.270538    2.799168   -1.065557
      8          8           0       -2.165550    3.241406   -0.208941
      9          6           0       -1.417151    2.142735   -0.022754
     10          6           0       -0.099928    2.238501    0.616297
     11          6           0        0.412655    3.412853    1.145382
     12          6           0        1.679098    3.357217    1.736892
     13          6           0        2.359403    2.149839    1.762544
     14          6           0        1.771148    1.003405    1.198965
     15          6           0        2.541774   -0.310992    1.178410
     16          6           0        3.721426   -0.181183    0.222197
     17          6           0        5.007256   -0.509845    0.661538
     18          6           0        6.100758   -0.395200   -0.197464
     19          6           0        5.912485    0.052721   -1.505257
     20          6           0        4.629000    0.381200   -1.946521
     21          6           0        3.532237    0.272260   -1.091386
     22          6           0        1.637752   -1.517278    0.943220
     23          6           0        0.731161   -1.879116    1.952329
     24          6           0       -0.119535   -2.969481    1.789376
     25          6           0       -0.080686   -3.715643    0.609894
     26          6           0        0.814203   -3.367085   -0.396437
     27          6           0        1.672754   -2.275691   -0.233741
     28          7           0        0.562267    1.059989    0.644695
     29          7           0       -1.881859    1.021184   -0.432945
     30          1           0       -3.145010   -0.729782    1.931644
     31          1           0       -3.705370   -2.347412    1.476558
     32          1           0       -2.502084   -1.544538    0.472454
     33          1           0       -5.839911   -0.400058    1.939222
     34          1           0       -6.058461   -1.989034    1.187092
     35          1           0       -6.702883   -0.540854    0.394833
     36          1           0       -4.889196   -2.564270   -0.953647
     37          1           0       -3.613188   -1.532146   -1.601131
     38          1           0       -5.338045   -1.070569   -1.791439
     39          1           0       -5.281452    1.131945   -0.433353
     40          1           0       -4.211420    1.247375    0.958752
     41          1           0       -3.319149    0.772783   -1.934416
     42          1           0       -3.061832    3.167957   -2.073762
     43          1           0       -4.184197    3.252505   -0.679448
     44          1           0       -0.160552    4.330762    1.091854
     45          1           0        2.123567    4.249867    2.165866
     46          1           0        3.351816    2.074162    2.194674
     47          1           0        2.962041   -0.423507    2.186523
     48          1           0        5.153036   -0.863382    1.680023
     49          1           0        7.095164   -0.654847    0.155184
     50          1           0        6.761566    0.143321   -2.177225
     51          1           0        4.474428    0.723269   -2.966121
     52          1           0        2.529914    0.505328   -1.453523
     53          1           0        0.691035   -1.292993    2.867918
     54          1           0       -0.823434   -3.226386    2.575568
     55          1           0       -0.763706   -4.546863    0.467459
     56          1           0        0.827154   -3.918424   -1.330416
     57          1           0        2.359872   -2.008327   -1.027522
     58         28           0       -0.385778   -0.341140   -0.723849
     59          9           0        0.638184    0.471263   -2.030177
     60          9           0       -1.398474   -1.738710   -1.322454
 ---------------------------------------------------------------------
 Rotational constants (GHZ):           0.2272739           0.1036997           0.0862688

 **********************************************************************

            Population analysis using the SCF Density.

 **********************************************************************

 Orbital symmetries:
 Alpha Orbitals:
       Occupied  (A) (A) (A) (A) (A) (A) (A) (A) (A) (A) (A) (A)
                 (A) (A) (A) (A) (A) (A) (A) (A) (A) (A) (A) (A)
                 (A) (A) (A) (A) (A) (A) (A) (A) (A) (A) (A) (A)
                 (A) (A) (A) (A) (A) (A) (A) (A) (A) (A) (A) (A)
                 (A) (A) (A) (A) (A) (A) (A) (A) (A) (A) (A) (A)
                 (A) (A) (A) (A) (A) (A) (A) (A) (A) (A) (A) (A)
                 (A) (A) (A) (A) (A) (A) (A) (A) (A) (A) (A) (A)
                 (A) (A) (A) (A) (A) (A) (A) (A) (A) (A) (A) (A)
                 (A) (A) (A) (A) (A) (A) (A) (A) (A) (A) (A) (A)
                 (A) (A) (A) (A) (A) (A) (A) (A) (A) (A) (A) (A)
                 (A) (A)
       Virtual   (A) (A) (A) (A) (A) (A) (A) (A) (A) (A) (A) (A)
                 (A) (A) (A) (A) (A) (A) (A) (A) (A) (A) (A) (A)
                 (A) (A) (A) (A) (A) (A) (A) (A) (A) (A) (A) (A)
                 (A) (A) (A) (A) (A) (A) (A) (A) (A) (A) (A) (A)
                 (A) (A) (A) (A) (A) (A) (A) (A) (A) (A) (A) (A)
                 (A) (A) (A) (A) (A) (A) (A) (A) (A) (A) (A) (A)
                 (A) (A) (A) (A) (A) (A) (A) (A) (A) (A) (A) (A)
                 (A) (A) (A) (A) (A) (A) (A) (A) (A) (A) (A) (A)
                 (A) (A) (A) (A) (A) (A) (A) (A) (A) (A) (A) (A)
                 (A) (A) (A) (A) (A) (A) (A) (A) (A) (A) (A) (A)
                 (A) (A) (A) (A) (A) (A) (A) (A) (A) (A) (A) (A)
                 (A) (A) (A) (A) (A) (A) (A) (A) (A) (A) (A) (A)
                 (A) (A) (A) (A) (A) (A) (A) (A) (A) (A) (A) (A)
                 (A) (A) (A) (A) (A) (A) (A) (A) (A) (A) (A) (A)
                 (A) (A) (A) (A) (A) (A) (A) (A) (A) (A) (A) (A)
                 (A) (A) (A) (A) (A) (A) (A) (A) (A) (A) (A) (A)
                 (A) (A) (A) (A) (A) (A) (A) (A) (A) (A) (A) (A)
                 (A) (A) (A) (A) (A) (A) (A) (A) (A) (A) (A) (A)
                 (A) (A) (A) (A) (A) (A) (A) (A) (A) (A) (A) (A)
                 (A) (A) (A) (A) (A) (A) (A) (A) (A) (A) (A) (A)
                 (A) (A) (A) (A) (A) (A) (A) (A) (A) (A) (A) (A)
                 (A) (A) (A) (A) (A) (A) (A) (A) (A) (A) (A) (A)
                 (A) (A) (A) (A) (A) (A) (A) (A) (A) (A) (A) (A)
                 (A) (A) (A) (A) (A) (A) (A) (A) (A) (A) (A) (A)
                 (A) (A) (A) (A) (A) (A) (A) (A) (A) (A) (A) (A)
                 (A) (A) (A) (A) (A) (A) (A) (A) (A) (A) (A) (A)
                 (A) (A) (A) (A) (A) (A) (A) (A) (A) (A) (A) (A)
                 (A) (A) (A) (A) (A) (A) (A) (A) (A) (A) (A) (A)
                 (A) (A) (A) (A) (A) (A) (A) (A) (A) (A) (A) (A)
                 (A) (A) (A) (A) (A) (A) (A) (A) (A) (A) (A) (A)
                 (A) (A) (A) (A) (A) (A) (A) (A) (A) (A) (A) (A)
                 (A) (A) (A) (A) (A) (A) (A) (A) (A) (A) (A) (A)
                 (A) (A) (A) (A) (A) (A) (A) (A) (A) (A) (A) (A)
                 (A) (A) (A) (A) (A) (A) (A) (A) (A) (A) (A) (A)
                 (A) (A) (A) (A) (A) (A) (A) (A) (A) (A) (A) (A)
                 (A) (A) (A) (A) (A) (A) (A) (A) (A) (A) (A) (A)
                 (A) (A) (A) (A) (A) (A) (A) (A) (A) (A) (A) (A)
                 (A) (A) (A) (A) (A) (A) (A) (A) (A) (A) (A) (A)
                 (A) (A) (A) (A) (A) (A) (A) (A) (A) (A) (A) (A)
                 (A) (A) (A) (A)
 Beta  Orbitals:
       Occupied  (A) (A) (A) (A) (A) (A) (A) (A) (A) (A) (A) (A)
                 (A) (A) (A) (A) (A) (A) (A) (A) (A) (A) (A) (A)
                 (A) (A) (A) (A) (A) (A) (A) (A) (A) (A) (A) (A)
                 (A) (A) (A) (A) (A) (A) (A) (A) (A) (A) (A) (A)
                 (A) (A) (A) (A) (A) (A) (A) (A) (A) (A) (A) (A)
                 (A) (A) (A) (A) (A) (A) (A) (A) (A) (A) (A) (A)
                 (A) (A) (A) (A) (A) (A) (A) (A) (A) (A) (A) (A)
                 (A) (A) (A) (A) (A) (A) (A) (A) (A) (A) (A) (A)
                 (A) (A) (A) (A) (A) (A) (A) (A) (A) (A) (A) (A)
                 (A) (A) (A) (A) (A) (A) (A) (A) (A) (A) (A) (A)
       Virtual   (A) (A) (A) (A) (A) (A) (A) (A) (A) (A) (A) (A)
                 (A) (A) (A) (A) (A) (A) (A) (A) (A) (A) (A) (A)
                 (A) (A) (A) (A) (A) (A) (A) (A) (A) (A) (A) (A)
                 (A) (A) (A) (A) (A) (A) (A) (A) (A) (A) (A) (A)
                 (A) (A) (A) (A) (A) (A) (A) (A) (A) (A) (A) (A)
                 (A) (A) (A) (A) (A) (A) (A) (A) (A) (A) (A) (A)
                 (A) (A) (A) (A) (A) (A) (A) (A) (A) (A) (A) (A)
                 (A) (A) (A) (A) (A) (A) (A) (A) (A) (A) (A) (A)
                 (A) (A) (A) (A) (A) (A) (A) (A) (A) (A) (A) (A)
                 (A) (A) (A) (A) (A) (A) (A) (A) (A) (A) (A) (A)
                 (A) (A) (A) (A) (A) (A) (A) (A) (A) (A) (A) (A)
                 (A) (A) (A) (A) (A) (A) (A) (A) (A) (A) (A) (A)
                 (A) (A) (A) (A) (A) (A) (A) (A) (A) (A) (A) (A)
                 (A) (A) (A) (A) (A) (A) (A) (A) (A) (A) (A) (A)
                 (A) (A) (A) (A) (A) (A) (A) (A) (A) (A) (A) (A)
                 (A) (A) (A) (A) (A) (A) (A) (A) (A) (A) (A) (A)
                 (A) (A) (A) (A) (A) (A) (A) (A) (A) (A) (A) (A)
                 (A) (A) (A) (A) (A) (A) (A) (A) (A) (A) (A) (A)
                 (A) (A) (A) (A) (A) (A) (A) (A) (A) (A) (A) (A)
                 (A) (A) (A) (A) (A) (A) (A) (A) (A) (A) (A) (A)
                 (A) (A) (A) (A) (A) (A) (A) (A) (A) (A) (A) (A)
                 (A) (A) (A) (A) (A) (A) (A) (A) (A) (A) (A) (A)
                 (A) (A) (A) (A) (A) (A) (A) (A) (A) (A) (A) (A)
                 (A) (A) (A) (A) (A) (A) (A) (A) (A) (A) (A) (A)
                 (A) (A) (A) (A) (A) (A) (A) (A) (A) (A) (A) (A)
                 (A) (A) (A) (A) (A) (A) (A) (A) (A) (A) (A) (A)
                 (A) (A) (A) (A) (A) (A) (A) (A) (A) (A) (A) (A)
                 (A) (A) (A) (A) (A) (A) (A) (A) (A) (A) (A) (A)
                 (A) (A) (A) (A) (A) (A) (A) (A) (A) (A) (A) (A)
                 (A) (A) (A) (A) (A) (A) (A) (A) (A) (A) (A) (A)
                 (A) (A) (A) (A) (A) (A) (A) (A) (A) (A) (A) (A)
                 (A) (A) (A) (A) (A) (A) (A) (A) (A) (A) (A) (A)
                 (A) (A) (A) (A) (A) (A) (A) (A) (A) (A) (A) (A)
                 (A) (A) (A) (A) (A) (A) (A) (A) (A) (A) (A) (A)
                 (A) (A) (A) (A) (A) (A) (A) (A) (A) (A) (A) (A)
                 (A) (A) (A) (A) (A) (A) (A) (A) (A) (A) (A) (A)
                 (A) (A) (A) (A) (A) (A) (A) (A) (A) (A) (A) (A)
                 (A) (A) (A) (A) (A) (A) (A) (A) (A) (A) (A) (A)
                 (A) (A) (A) (A) (A) (A) (A) (A) (A) (A) (A) (A)
                 (A) (A) (A) (A) (A) (A)
 The electronic state is 3-A.
 Alpha  occ. eigenvalues --  -24.55423 -24.54845 -19.21857 -14.38151 -14.35866
 Alpha  occ. eigenvalues --  -10.31292 -10.26958 -10.26584 -10.26438 -10.23965
 Alpha  occ. eigenvalues --  -10.23895 -10.23280 -10.22848 -10.21822 -10.20166
 Alpha  occ. eigenvalues --  -10.19565 -10.18952 -10.18876 -10.18790 -10.18762
 Alpha  occ. eigenvalues --  -10.18661 -10.18650 -10.18482 -10.18333 -10.18276
 Alpha  occ. eigenvalues --  -10.18221 -10.18125 -10.17142 -10.16404 -10.14790
 Alpha  occ. eigenvalues --  -10.14664  -4.08632  -2.70207  -2.69102  -2.67374
 Alpha  occ. eigenvalues --   -1.12340  -1.01385  -1.00744  -0.99164  -0.93933
 Alpha  occ. eigenvalues --   -0.86876  -0.84681  -0.83744  -0.83594  -0.81444
 Alpha  occ. eigenvalues --   -0.79179  -0.76753  -0.74270  -0.73933  -0.73579
 Alpha  occ. eigenvalues --   -0.70663  -0.69274  -0.68418  -0.67037  -0.66160
 Alpha  occ. eigenvalues --   -0.64819  -0.62217  -0.60736  -0.60425  -0.59329
 Alpha  occ. eigenvalues --   -0.59171  -0.57070  -0.55214  -0.53622  -0.52690
 Alpha  occ. eigenvalues --   -0.51930  -0.51137  -0.50411  -0.49798  -0.48014
 Alpha  occ. eigenvalues --   -0.47324  -0.46760  -0.45626  -0.45386  -0.44841
 Alpha  occ. eigenvalues --   -0.44546  -0.43849  -0.43496  -0.43300  -0.43028
 Alpha  occ. eigenvalues --   -0.42514  -0.41659  -0.41408  -0.41272  -0.40752
 Alpha  occ. eigenvalues --   -0.40037  -0.39789  -0.39377  -0.39109  -0.38774
 Alpha  occ. eigenvalues --   -0.38421  -0.37572  -0.36995  -0.36294  -0.35980
 Alpha  occ. eigenvalues --   -0.35615  -0.35230  -0.35010  -0.34594  -0.34179
 Alpha  occ. eigenvalues --   -0.34040  -0.33811  -0.33268  -0.32984  -0.32596
 Alpha  occ. eigenvalues --   -0.32192  -0.31686  -0.31002  -0.30559  -0.30455
 Alpha  occ. eigenvalues --   -0.29255  -0.28077  -0.27073  -0.26682  -0.25467
 Alpha  occ. eigenvalues --   -0.25090  -0.24662  -0.24285  -0.23935  -0.23867
 Alpha  occ. eigenvalues --   -0.23612  -0.22978
 Alpha virt. eigenvalues --   -0.08235  -0.04975  -0.00823   0.00131   0.00504
 Alpha virt. eigenvalues --    0.00646   0.01915   0.02569   0.02585   0.03720
 Alpha virt. eigenvalues --    0.04265   0.07850   0.08695   0.09441   0.09939
 Alpha virt. eigenvalues --    0.10618   0.10872   0.11790   0.12416   0.13441
 Alpha virt. eigenvalues --    0.13538   0.13859   0.14097   0.14543   0.14593
 Alpha virt. eigenvalues --    0.15057   0.15488   0.15885   0.15985   0.16304
 Alpha virt. eigenvalues --    0.16778   0.16950   0.17184   0.17861   0.18552
 Alpha virt. eigenvalues --    0.18694   0.18729   0.19265   0.19525   0.19967
 Alpha virt. eigenvalues --    0.20445   0.20686   0.21121   0.21990   0.22334
 Alpha virt. eigenvalues --    0.22667   0.23353   0.24131   0.24306   0.24751
 Alpha virt. eigenvalues --    0.25079   0.25509   0.26051   0.26415   0.26690
 Alpha virt. eigenvalues --    0.27123   0.27503   0.27882   0.28357   0.28941
 Alpha virt. eigenvalues --    0.30002   0.30503   0.30982   0.31495   0.31648
 Alpha virt. eigenvalues --    0.32604   0.33424   0.34178   0.34367   0.34946
 Alpha virt. eigenvalues --    0.35878   0.37833   0.38057   0.38964   0.39389
 Alpha virt. eigenvalues --    0.41829   0.44764   0.46022   0.46678   0.48466
 Alpha virt. eigenvalues --    0.48905   0.49773   0.50386   0.50774   0.51868
 Alpha virt. eigenvalues --    0.52065   0.52652   0.52908   0.53081   0.53866
 Alpha virt. eigenvalues --    0.54483   0.55095   0.55407   0.55710   0.56300
 Alpha virt. eigenvalues --    0.56735   0.57066   0.57683   0.57914   0.58254
 Alpha virt. eigenvalues --    0.58561   0.58972   0.59300   0.59561   0.60077
 Alpha virt. eigenvalues --    0.60484   0.60782   0.61329   0.61511   0.61841
 Alpha virt. eigenvalues --    0.62109   0.62728   0.63103   0.63207   0.64112
 Alpha virt. eigenvalues --    0.64287   0.65356   0.65698   0.65972   0.66563
 Alpha virt. eigenvalues --    0.66976   0.67574   0.67985   0.68851   0.69165
 Alpha virt. eigenvalues --    0.69924   0.70412   0.70860   0.71482   0.72981
 Alpha virt. eigenvalues --    0.73308   0.73957   0.74780   0.75866   0.76278
 Alpha virt. eigenvalues --    0.77269   0.78264   0.79058   0.79870   0.80134
 Alpha virt. eigenvalues --    0.80755   0.80977   0.81719   0.82270   0.82940
 Alpha virt. eigenvalues --    0.83657   0.84241   0.84423   0.84570   0.85280
 Alpha virt. eigenvalues --    0.85567   0.85880   0.86133   0.87117   0.87345
 Alpha virt. eigenvalues --    0.87794   0.88302   0.88442   0.89235   0.89698
 Alpha virt. eigenvalues --    0.90439   0.90580   0.91145   0.91586   0.91963
 Alpha virt. eigenvalues --    0.92143   0.92717   0.92783   0.93142   0.94433
 Alpha virt. eigenvalues --    0.94836   0.95366   0.95961   0.96494   0.96626
 Alpha virt. eigenvalues --    0.97306   0.97513   0.97852   0.98692   0.98941
 Alpha virt. eigenvalues --    0.99491   0.99754   1.00396   1.00856   1.01484
 Alpha virt. eigenvalues --    1.02739   1.03390   1.04804   1.05903   1.06224
 Alpha virt. eigenvalues --    1.07411   1.09028   1.09531   1.11352   1.11609
 Alpha virt. eigenvalues --    1.12945   1.13657   1.14239   1.14635   1.16106
 Alpha virt. eigenvalues --    1.17034   1.17980   1.18556   1.19120   1.20676
 Alpha virt. eigenvalues --    1.21506   1.22162   1.23098   1.24095   1.25307
 Alpha virt. eigenvalues --    1.25822   1.26767   1.27073   1.27890   1.30318
 Alpha virt. eigenvalues --    1.30603   1.31329   1.32622   1.35846   1.37839
 Alpha virt. eigenvalues --    1.39831   1.40450   1.41580   1.42417   1.42610
 Alpha virt. eigenvalues --    1.43844   1.43870   1.44139   1.44529   1.45370
 Alpha virt. eigenvalues --    1.45946   1.46811   1.47278   1.48217   1.48813
 Alpha virt. eigenvalues --    1.49615   1.50047   1.50653   1.50727   1.51838
 Alpha virt. eigenvalues --    1.52316   1.52523   1.52794   1.53656   1.54983
 Alpha virt. eigenvalues --    1.55587   1.56804   1.58618   1.59365   1.60909
 Alpha virt. eigenvalues --    1.62934   1.64085   1.65212   1.67463   1.68273
 Alpha virt. eigenvalues --    1.69868   1.70779   1.71517   1.73069   1.73748
 Alpha virt. eigenvalues --    1.74841   1.75381   1.76062   1.77228   1.78563
 Alpha virt. eigenvalues --    1.79036   1.79884   1.80312   1.81419   1.82175
 Alpha virt. eigenvalues --    1.83383   1.83726   1.84283   1.85469   1.85649
 Alpha virt. eigenvalues --    1.87387   1.87702   1.88143   1.88898   1.89976
 Alpha virt. eigenvalues --    1.90267   1.90839   1.91242   1.92193   1.92984
 Alpha virt. eigenvalues --    1.93179   1.93766   1.94318   1.94955   1.95757
 Alpha virt. eigenvalues --    1.96706   1.97224   1.98300   1.98787   1.99954
 Alpha virt. eigenvalues --    2.00783   2.01461   2.01870   2.03760   2.04135
 Alpha virt. eigenvalues --    2.05732   2.06246   2.07306   2.08121   2.08911
 Alpha virt. eigenvalues --    2.09908   2.10179   2.10594   2.11339   2.12798
 Alpha virt. eigenvalues --    2.13183   2.13376   2.14143   2.14223   2.15477
 Alpha virt. eigenvalues --    2.16003   2.16093   2.16310   2.17172   2.17768
 Alpha virt. eigenvalues --    2.18176   2.18854   2.19039   2.20227   2.21257
 Alpha virt. eigenvalues --    2.21991   2.22637   2.22918   2.24259   2.25506
 Alpha virt. eigenvalues --    2.26152   2.26802   2.26864   2.27428   2.28002
 Alpha virt. eigenvalues --    2.28395   2.29168   2.29450   2.30286   2.30981
 Alpha virt. eigenvalues --    2.31516   2.32250   2.33122   2.33694   2.34243
 Alpha virt. eigenvalues --    2.35635   2.36011   2.37701   2.39122   2.41593
 Alpha virt. eigenvalues --    2.43103   2.43624   2.44025   2.46813   2.47418
 Alpha virt. eigenvalues --    2.48827   2.50512   2.51325   2.54232   2.55837
 Alpha virt. eigenvalues --    2.56829   2.57173   2.57567   2.59047   2.59886
 Alpha virt. eigenvalues --    2.60660   2.60758   2.61511   2.63927   2.63958
 Alpha virt. eigenvalues --    2.65589   2.65761   2.66326   2.67614   2.68240
 Alpha virt. eigenvalues --    2.69302   2.70471   2.72489   2.72924   2.73229
 Alpha virt. eigenvalues --    2.74177   2.74500   2.75341   2.75535   2.76629
 Alpha virt. eigenvalues --    2.76897   2.77832   2.78036   2.78753   2.79474
 Alpha virt. eigenvalues --    2.80991   2.81409   2.82138   2.84112   2.85767
 Alpha virt. eigenvalues --    2.86679   2.89465   2.92027   2.93797   2.97690
 Alpha virt. eigenvalues --    2.98463   3.04833   3.07566   3.10621   3.12717
 Alpha virt. eigenvalues --    3.26721   3.35338   3.41528   3.42840   3.43002
 Alpha virt. eigenvalues --    3.49642   3.65365   3.82151   3.86013   4.08166
 Alpha virt. eigenvalues --    4.10584   4.12075   4.12571   4.13873   4.16952
 Alpha virt. eigenvalues --    4.18210   4.19411   4.20965   4.22986   4.26727
 Alpha virt. eigenvalues --    4.29408   4.31130   4.33319   4.35747   4.36286
 Alpha virt. eigenvalues --    4.38458   4.38750   4.40924   4.44861   4.46069
 Alpha virt. eigenvalues --    4.49561   4.57391   4.59933   4.65813   4.70528
 Alpha virt. eigenvalues --    4.71290   4.75695   4.77292   4.81292   4.89394
 Alpha virt. eigenvalues --    5.15017   5.97613   6.02277   6.09637   6.22114
 Alpha virt. eigenvalues --    6.32452  11.10738  17.63984  17.77299  18.03392
 Alpha virt. eigenvalues --   18.51859  18.92198  22.87829  23.00400  23.07848
 Alpha virt. eigenvalues --   26.07613  56.88266 118.93524 119.04435 119.10079
 Alpha virt. eigenvalues --  134.91666 379.94187 926.94943 927.76389 928.05984
 Alpha virt. eigenvalues -- 1461.28152**********
  Beta  occ. eigenvalues --  -24.55139 -24.54541 -19.21846 -14.38055 -14.35696
  Beta  occ. eigenvalues --  -10.31288 -10.26960 -10.26578 -10.26436 -10.23960
  Beta  occ. eigenvalues --  -10.23895 -10.23279 -10.22845 -10.21821 -10.20150
  Beta  occ. eigenvalues --  -10.19565 -10.18958 -10.18876 -10.18790 -10.18751
  Beta  occ. eigenvalues --  -10.18660 -10.18650 -10.18483 -10.18325 -10.18274
  Beta  occ. eigenvalues --  -10.18224 -10.18125 -10.17142 -10.16404 -10.14790
  Beta  occ. eigenvalues --  -10.14665  -3.97802  -2.57808  -2.57372  -2.57172
  Beta  occ. eigenvalues --   -1.12297  -1.00682  -1.00008  -0.99023  -0.93750
  Beta  occ. eigenvalues --   -0.86862  -0.84672  -0.83713  -0.83578  -0.81430
  Beta  occ. eigenvalues --   -0.79166  -0.76735  -0.74260  -0.73926  -0.73572
  Beta  occ. eigenvalues --   -0.70648  -0.69267  -0.68386  -0.67036  -0.66161
  Beta  occ. eigenvalues --   -0.64784  -0.62179  -0.60727  -0.60382  -0.59300
  Beta  occ. eigenvalues --   -0.59157  -0.57030  -0.55068  -0.53607  -0.52617
  Beta  occ. eigenvalues --   -0.51830  -0.51130  -0.50392  -0.49788  -0.47957
  Beta  occ. eigenvalues --   -0.47265  -0.46735  -0.45567  -0.45320  -0.44772
  Beta  occ. eigenvalues --   -0.44383  -0.43839  -0.43423  -0.43274  -0.42921
  Beta  occ. eigenvalues --   -0.42448  -0.41650  -0.41283  -0.41244  -0.40463
  Beta  occ. eigenvalues --   -0.39750  -0.39564  -0.39127  -0.38390  -0.37492
  Beta  occ. eigenvalues --   -0.36711  -0.36115  -0.35916  -0.35635  -0.35183
  Beta  occ. eigenvalues --   -0.34957  -0.34367  -0.34073  -0.33668  -0.33582
  Beta  occ. eigenvalues --   -0.33079  -0.32450  -0.32346  -0.31867  -0.31164
  Beta  occ. eigenvalues --   -0.30901  -0.30528  -0.30141  -0.29697  -0.29241
  Beta  occ. eigenvalues --   -0.28915  -0.26573  -0.26232  -0.25558  -0.24506
  Beta  occ. eigenvalues --   -0.24101  -0.24018  -0.23405  -0.22736  -0.22058
  Beta virt. eigenvalues --   -0.08376  -0.05127  -0.02805  -0.01466  -0.00569
  Beta virt. eigenvalues --    0.00368   0.00562   0.00739   0.01958   0.02592
  Beta virt. eigenvalues --    0.02884   0.03732   0.04416   0.07951   0.08750
  Beta virt. eigenvalues --    0.09801   0.10041   0.10885   0.11180   0.11807
  Beta virt. eigenvalues --    0.12462   0.13462   0.13694   0.13911   0.14183
  Beta virt. eigenvalues --    0.14571   0.14617   0.15091   0.15518   0.15904
  Beta virt. eigenvalues --    0.16045   0.16357   0.16800   0.17010   0.17232
  Beta virt. eigenvalues --    0.17983   0.18575   0.18732   0.18811   0.19289
  Beta virt. eigenvalues --    0.19597   0.19987   0.20467   0.20698   0.21144
  Beta virt. eigenvalues --    0.22016   0.22360   0.22686   0.23520   0.24169
  Beta virt. eigenvalues --    0.24442   0.24785   0.25204   0.25697   0.26149
  Beta virt. eigenvalues --    0.26459   0.26808   0.27219   0.27707   0.28007
  Beta virt. eigenvalues --    0.28388   0.29019   0.30059   0.30516   0.31004
  Beta virt. eigenvalues --    0.31515   0.31718   0.33025   0.33480   0.34235
  Beta virt. eigenvalues --    0.34436   0.35243   0.35907   0.38092   0.38208
  Beta virt. eigenvalues --    0.39063   0.39536   0.41914   0.44818   0.46087
  Beta virt. eigenvalues --    0.46735   0.48534   0.49081   0.49824   0.50462
  Beta virt. eigenvalues --    0.50829   0.51935   0.52153   0.52735   0.53002
  Beta virt. eigenvalues --    0.53123   0.53911   0.54565   0.55202   0.55485
  Beta virt. eigenvalues --    0.55736   0.56320   0.56822   0.57157   0.57725
  Beta virt. eigenvalues --    0.57988   0.58460   0.58635   0.59049   0.59375
  Beta virt. eigenvalues --    0.59677   0.60146   0.60531   0.60824   0.61379
  Beta virt. eigenvalues --    0.61550   0.61867   0.62183   0.62773   0.63140
  Beta virt. eigenvalues --    0.63276   0.64163   0.64411   0.65733   0.65880
  Beta virt. eigenvalues --    0.66129   0.66674   0.67104   0.67731   0.68102
  Beta virt. eigenvalues --    0.68896   0.69263   0.70121   0.70670   0.70979
  Beta virt. eigenvalues --    0.71556   0.73086   0.73416   0.74221   0.74901
  Beta virt. eigenvalues --    0.75994   0.76581   0.77353   0.78395   0.79139
  Beta virt. eigenvalues --    0.79904   0.80191   0.80890   0.81062   0.81846
  Beta virt. eigenvalues --    0.82452   0.83005   0.83686   0.84305   0.84461
  Beta virt. eigenvalues --    0.84593   0.85318   0.85640   0.85959   0.86153
  Beta virt. eigenvalues --    0.87155   0.87498   0.87994   0.88401   0.88566
  Beta virt. eigenvalues --    0.89374   0.89754   0.90468   0.90599   0.91236
  Beta virt. eigenvalues --    0.91631   0.92045   0.92232   0.92801   0.92865
  Beta virt. eigenvalues --    0.93285   0.94476   0.94879   0.95402   0.96004
  Beta virt. eigenvalues --    0.96524   0.96650   0.97421   0.97526   0.97967
  Beta virt. eigenvalues --    0.98745   0.99005   0.99719   0.99936   1.00457
  Beta virt. eigenvalues --    1.00947   1.01567   1.02850   1.03469   1.04965
  Beta virt. eigenvalues --    1.05942   1.06472   1.07506   1.09248   1.09605
  Beta virt. eigenvalues --    1.11643   1.12369   1.13110   1.13902   1.14333
  Beta virt. eigenvalues --    1.14908   1.16358   1.17112   1.18104   1.18619
  Beta virt. eigenvalues --    1.19188   1.20741   1.21680   1.22353   1.23164
  Beta virt. eigenvalues --    1.24389   1.25340   1.26043   1.27073   1.27133
  Beta virt. eigenvalues --    1.27948   1.30519   1.30983   1.31536   1.32702
  Beta virt. eigenvalues --    1.36017   1.38097   1.39940   1.40527   1.41741
  Beta virt. eigenvalues --    1.42468   1.42717   1.43894   1.43982   1.44276
  Beta virt. eigenvalues --    1.44610   1.45455   1.46007   1.46938   1.47446
  Beta virt. eigenvalues --    1.48270   1.48876   1.49658   1.50064   1.50704
  Beta virt. eigenvalues --    1.50829   1.51929   1.52351   1.52624   1.52878
  Beta virt. eigenvalues --    1.53755   1.55071   1.55680   1.57036   1.58786
  Beta virt. eigenvalues --    1.59616   1.61087   1.63061   1.64206   1.65391
  Beta virt. eigenvalues --    1.67712   1.68340   1.70162   1.70997   1.71669
  Beta virt. eigenvalues --    1.73304   1.73803   1.75040   1.75498   1.76181
  Beta virt. eigenvalues --    1.77327   1.78618   1.79137   1.80138   1.80453
  Beta virt. eigenvalues --    1.81551   1.82266   1.83463   1.83923   1.84384
  Beta virt. eigenvalues --    1.85634   1.85720   1.87495   1.87851   1.88278
  Beta virt. eigenvalues --    1.88976   1.90052   1.90352   1.90889   1.91301
  Beta virt. eigenvalues --    1.92365   1.93217   1.93305   1.93960   1.94462
  Beta virt. eigenvalues --    1.95158   1.95947   1.97004   1.97464   1.98425
  Beta virt. eigenvalues --    1.98828   2.00006   2.01090   2.02023   2.02238
  Beta virt. eigenvalues --    2.03992   2.04410   2.05889   2.06502   2.07465
  Beta virt. eigenvalues --    2.08220   2.09029   2.09975   2.10309   2.10857
  Beta virt. eigenvalues --    2.11371   2.13050   2.13247   2.13726   2.14381
  Beta virt. eigenvalues --    2.14707   2.15570   2.16082   2.16247   2.16402
  Beta virt. eigenvalues --    2.17270   2.17840   2.18210   2.19021   2.19163
  Beta virt. eigenvalues --    2.20615   2.21340   2.22075   2.22939   2.23129
  Beta virt. eigenvalues --    2.24438   2.25801   2.26175   2.26920   2.26964
  Beta virt. eigenvalues --    2.27648   2.28170   2.28434   2.29303   2.29735
  Beta virt. eigenvalues --    2.30365   2.31029   2.31548   2.32312   2.33269
  Beta virt. eigenvalues --    2.33807   2.34467   2.35761   2.36182   2.38045
  Beta virt. eigenvalues --    2.39434   2.41722   2.43706   2.44177   2.44362
  Beta virt. eigenvalues --    2.46921   2.47896   2.49225   2.50735   2.51905
  Beta virt. eigenvalues --    2.54924   2.56151   2.57060   2.57603   2.58450
  Beta virt. eigenvalues --    2.59322   2.59941   2.60817   2.60926   2.61823
  Beta virt. eigenvalues --    2.64209   2.64541   2.65685   2.66079   2.67078
  Beta virt. eigenvalues --    2.67900   2.69490   2.70481   2.71497   2.72790
  Beta virt. eigenvalues --    2.73250   2.74219   2.74390   2.74701   2.75512
  Beta virt. eigenvalues --    2.76019   2.76981   2.77503   2.78144   2.78361
  Beta virt. eigenvalues --    2.79610   2.80163   2.81320   2.81850   2.82501
  Beta virt. eigenvalues --    2.84818   2.86427   2.87260   2.90491   2.92670
  Beta virt. eigenvalues --    2.95498   2.97839   2.98938   3.05638   3.07589
  Beta virt. eigenvalues --    3.10787   3.13257   3.26839   3.38375   3.41572
  Beta virt. eigenvalues --    3.42975   3.43410   3.53097   3.69080   3.86666
  Beta virt. eigenvalues --    3.90226   4.08244   4.10591   4.12308   4.12677
  Beta virt. eigenvalues --    4.13918   4.17055   4.18233   4.19473   4.21055
  Beta virt. eigenvalues --    4.23172   4.26866   4.29494   4.31187   4.33340
  Beta virt. eigenvalues --    4.35768   4.36311   4.38484   4.38814   4.41011
  Beta virt. eigenvalues --    4.44891   4.46222   4.49621   4.57558   4.59973
  Beta virt. eigenvalues --    4.65868   4.70663   4.71333   4.75960   4.77441
  Beta virt. eigenvalues --    4.81505   4.92195   5.15602   6.00681   6.04762
  Beta virt. eigenvalues --    6.13201   6.33190   6.42730  11.16421  17.65651
  Beta virt. eigenvalues --   17.78600  18.05246  18.57641  18.97287  22.99113
  Beta virt. eigenvalues --   23.13204  23.19704  26.16510  56.98290 118.99146
  Beta virt. eigenvalues --  119.11445 119.17171 134.99150 379.41110 923.93794
  Beta virt. eigenvalues --  924.60270 924.609061452.20799**********
          Condensed to atoms (all electrons):
          Atomic-Atomic Spin Densities.
 Mulliken charges and spin densities:
               1          2
     1  C   -0.494479  -0.000053
     2  C    0.112847   0.000043
     3  C   -0.442103  -0.000017
     4  C   -0.486318   0.000021
     5  C   -0.267371   0.000008
     6  C   -0.013537   0.000502
     7  C   -0.083595   0.003085
     8  O   -0.513765   0.002838
     9  C    0.599947   0.001739
    10  C    0.332565   0.000303
    11  C   -0.164942   0.000315
    12  C   -0.103259   0.000375
    13  C   -0.162713   0.000879
    14  C    0.379210   0.000082
    15  C   -0.347285   0.000896
    16  C    0.139134  -0.000102
    17  C   -0.189280  -0.000149
    18  C   -0.132309   0.000106
    19  C   -0.125422  -0.000103
    20  C   -0.150938   0.000078
    21  C   -0.211026   0.000174
    22  C    0.130399   0.009495
    23  C   -0.168939  -0.005551
    24  C   -0.131093   0.008676
    25  C   -0.104147  -0.005264
    26  C   -0.089911   0.008912
    27  C   -0.220125  -0.004104
    28  N   -0.612552   0.027186
    29  N   -0.519203   0.052205
    30  H    0.126563   0.000059
    31  H    0.129260   0.000184
    32  H    0.216120  -0.001876
    33  H    0.132239  -0.000000
    34  H    0.141209   0.000001
    35  H    0.130881  -0.000004
    36  H    0.137952  -0.000005
    37  H    0.216660  -0.000277
    38  H    0.117084   0.000021
    39  H    0.131181  -0.000086
    40  H    0.133996  -0.000017
    41  H    0.199305   0.000690
    42  H    0.186520  -0.000209
    43  H    0.173807   0.000436
    44  H    0.178815   0.000189
    45  H    0.161894  -0.000052
    46  H    0.163090   0.000516
    47  H    0.157830  -0.000059
    48  H    0.121739   0.000020
    49  H    0.127320  -0.000009
    50  H    0.128079   0.000006
    51  H    0.142739   0.000000
    52  H    0.236893  -0.000272
    53  H    0.131817   0.000235
    54  H    0.137959  -0.000398
    55  H    0.141768   0.000209
    56  H    0.156118  -0.000423
    57  H    0.179359   0.000283
    58  Ni   0.618361   1.737049
    59  F   -0.455026   0.084099
    60  F   -0.461321   0.077113
 Sum of Mulliken charges =  -0.00000   2.00000
 Mulliken charges and spin densities with hydrogens summed into heavy atoms:
               1          2
     1  C   -0.022537  -0.001687
     2  C    0.112847   0.000043
     3  C   -0.037775  -0.000020
     4  C   -0.014622  -0.000239
     5  C   -0.002194  -0.000095
     6  C    0.185768   0.001192
     7  C    0.276732   0.003312
     8  O   -0.513765   0.002838
     9  C    0.599947   0.001739
    10  C    0.332565   0.000303
    11  C    0.013873   0.000504
    12  C    0.058636   0.000324
    13  C    0.000376   0.001395
    14  C    0.379210   0.000082
    15  C   -0.189454   0.000837
    16  C    0.139134  -0.000102
    17  C   -0.067541  -0.000130
    18  C   -0.004989   0.000097
    19  C    0.002657  -0.000098
    20  C   -0.008199   0.000078
    21  C    0.025867  -0.000098
    22  C    0.130399   0.009495
    23  C   -0.037122  -0.005316
    24  C    0.006867   0.008278
    25  C    0.037621  -0.005055
    26  C    0.066207   0.008489
    27  C   -0.040766  -0.003821
    28  N   -0.612552   0.027186
    29  N   -0.519203   0.052205
    58  Ni   0.618361   1.737049
    59  F   -0.455026   0.084099
    60  F   -0.461321   0.077113
 Electronic spatial extent (au):  <R**2>=          13161.5605
 Charge=             -0.0000 electrons
 Dipole moment (field-independent basis, Debye):
    X=              0.3185    Y=              5.0467    Z=              5.3053  Tot=              7.3292
 Quadrupole moment (field-independent basis, Debye-Ang):
   XX=           -174.7711   YY=           -179.5360   ZZ=           -193.5315
   XY=             -6.1488   XZ=              7.4261   YZ=              0.4288
 Traceless Quadrupole moment (field-independent basis, Debye-Ang):
   XX=              7.8418   YY=              3.0768   ZZ=            -10.9186
   XY=             -6.1488   XZ=              7.4261   YZ=              0.4288
 Octapole moment (field-independent basis, Debye-Ang**2):
  XXX=              2.9503  YYY=             37.9069  ZZZ=            -28.5841  XYY=            -27.5333
  XXY=             43.7148  XXZ=            -31.6347  XZZ=              7.8995  YZZ=             16.4304
  YYZ=              0.8567  XYZ=             34.2063
 Hexadecapole moment (field-independent basis, Debye-Ang**3):
 XXXX=         -11286.3598 YYYY=          -4061.0761 ZZZZ=          -1777.5213 XXXY=           -190.4108
 XXXZ=             80.1241 YYYX=             86.1222 YYYZ=            114.2178 ZZZX=             23.6082
 ZZZY=             -3.7138 XXYY=          -2670.6680 XXZZ=          -2146.0149 YYZZ=           -975.1227
 XXYZ=            -50.9637 YYXZ=             48.6029 ZZXY=             -1.3150
 N-N= 3.764272577496D+03 E-N=-1.118129689318D+04  KE= 1.486724053386D+03
                          Isotropic Fermi Contact Couplings
        Atom                 a.u.       MegaHertz       Gauss      10(-4) cm-1
     1  C(13)             -0.00070      -0.39270      -0.14013      -0.13099
     2  C(13)              0.00001       0.00535       0.00191       0.00179
     3  C(13)             -0.00008      -0.04679      -0.01670      -0.01561
     4  C(13)             -0.00003      -0.01627      -0.00581      -0.00543
     5  C(13)             -0.00000      -0.00215      -0.00077      -0.00072
     6  C(13)              0.00326       1.83454       0.65461       0.61194
     7  C(13)              0.00245       1.37465       0.49051       0.45853
     8  O(17)              0.00316      -0.95874      -0.34210      -0.31980
     9  C(13)             -0.00096      -0.53862      -0.19219      -0.17966
    10  C(13)             -0.00125      -0.70362      -0.25107      -0.23470
    11  C(13)              0.00033       0.18628       0.06647       0.06214
    12  C(13)              0.00030       0.16838       0.06008       0.05616
    13  C(13)              0.00135       0.75868       0.27072       0.25307
    14  C(13)             -0.00011      -0.06404      -0.02285      -0.02136
    15  C(13)              0.00070       0.39187       0.13983       0.13071
    16  C(13)             -0.00012      -0.06834      -0.02439      -0.02280
    17  C(13)             -0.00000      -0.00138      -0.00049      -0.00046
    18  C(13)              0.00001       0.00353       0.00126       0.00118
    19  C(13)             -0.00002      -0.01155      -0.00412      -0.00385
    20  C(13)              0.00000       0.00008       0.00003       0.00003
    21  C(13)              0.00004       0.02360       0.00842       0.00787
    22  C(13)              0.00143       0.80105       0.28583       0.26720
    23  C(13)             -0.00070      -0.39341      -0.14038      -0.13123
    24  C(13)              0.00090       0.50447       0.18001       0.16827
    25  C(13)             -0.00074      -0.41554      -0.14827      -0.13861
    26  C(13)              0.00086       0.48281       0.17228       0.16105
    27  C(13)              0.00063       0.35211       0.12564       0.11745
    28  N(14)              0.05580       9.01402       3.21643       3.00675
    29  N(14)              0.10458      16.89526       6.02865       5.63565
    30  H(1)               0.00005       0.10479       0.03739       0.03496
    31  H(1)               0.00009       0.20698       0.07386       0.06904
    32  H(1)               0.00013       0.29746       0.10614       0.09922
    33  H(1)               0.00000       0.00093       0.00033       0.00031
    34  H(1)               0.00000       0.00501       0.00179       0.00167
    35  H(1)               0.00000       0.00565       0.00202       0.00189
    36  H(1)               0.00000       0.00929       0.00331       0.00310
    37  H(1)               0.00001       0.01737       0.00620       0.00580
    38  H(1)               0.00001       0.02067       0.00738       0.00690
    39  H(1)              -0.00003      -0.05983      -0.02135      -0.01996
    40  H(1)               0.00000       0.00089       0.00032       0.00030
    41  H(1)               0.00030       0.67009       0.23910       0.22352
    42  H(1)              -0.00007      -0.15426      -0.05504      -0.05145
    43  H(1)               0.00016       0.35199       0.12560       0.11741
    44  H(1)               0.00012       0.27446       0.09793       0.09155
    45  H(1)              -0.00002      -0.05012      -0.01788      -0.01672
    46  H(1)               0.00019       0.42784       0.15266       0.14271
    47  H(1)               0.00002       0.03988       0.01423       0.01330
    48  H(1)               0.00000       0.00993       0.00354       0.00331
    49  H(1)              -0.00000      -0.00652      -0.00233      -0.00218
    50  H(1)               0.00000       0.00251       0.00090       0.00084
    51  H(1)               0.00000       0.00068       0.00024       0.00023
    52  H(1)              -0.00001      -0.03011      -0.01074      -0.01004
    53  H(1)               0.00007       0.16206       0.05783       0.05406
    54  H(1)              -0.00013      -0.28073      -0.10017      -0.09364
    55  H(1)               0.00007       0.15157       0.05408       0.05056
    56  H(1)              -0.00014      -0.32122      -0.11462      -0.10715
    57  H(1)               0.00016       0.35387       0.12627       0.11804
    58  Ni(61)             0.00000      -0.00022      -0.00008      -0.00007
    59  F(19)              0.04563      95.99331      34.25280      32.01992
    60  F(19)              0.03444      72.44259      25.84932      24.16425
 --------------------------------------------------------
       Center         ----  Spin Dipole Couplings  ----
                      3XX-RR        3YY-RR        3ZZ-RR
 --------------------------------------------------------
     1   Atom        0.005519     -0.004044     -0.001475
     2   Atom        0.006810     -0.003570     -0.003239
     3   Atom        0.002599     -0.001453     -0.001145
     4   Atom        0.006268     -0.002703     -0.003565
     5   Atom        0.007175     -0.003231     -0.003944
     6   Atom        0.014145     -0.005416     -0.008728
     7   Atom       -0.000826      0.006074     -0.005247
     8   Atom       -0.010015      0.021160     -0.011145
     9   Atom        0.000803      0.016795     -0.017598
    10   Atom       -0.010725      0.015965     -0.005240
    11   Atom       -0.003227      0.005055     -0.001827
    12   Atom       -0.001183      0.001783     -0.000600
    13   Atom       -0.000329      0.000323      0.000006
    14   Atom        0.011148     -0.005859     -0.005288
    15   Atom        0.007097     -0.005872     -0.001225
    16   Atom        0.006767     -0.003731     -0.003036
    17   Atom        0.003059     -0.001716     -0.001344
    18   Atom        0.002047     -0.000979     -0.001068
    19   Atom        0.002272     -0.001217     -0.001055
    20   Atom        0.003722     -0.001907     -0.001815
    21   Atom        0.008776     -0.004455     -0.004322
    22   Atom        0.008545     -0.007950     -0.000595
    23   Atom       -0.005939     -0.002937      0.008875
    24   Atom       -0.004180      0.003512      0.000668
    25   Atom       -0.006474      0.008650     -0.002176
    26   Atom       -0.003711      0.014421     -0.010709
    27   Atom        0.006361      0.004863     -0.011224
    28   Atom       -0.016943      0.038987     -0.022044
    29   Atom       -0.006040      0.077033     -0.070993
    30   Atom        0.002467     -0.004755      0.002287
    31   Atom        0.002081     -0.001336     -0.000746
    32   Atom        0.011110     -0.005969     -0.005142
    33   Atom        0.001849     -0.001298     -0.000551
    34   Atom        0.001846     -0.000967     -0.000879
    35   Atom        0.002126     -0.001101     -0.001026
    36   Atom        0.003448     -0.001049     -0.002398
    37   Atom        0.010417     -0.004647     -0.005771
    38   Atom        0.003975     -0.002031     -0.001944
    39   Atom        0.003954     -0.001665     -0.002288
    40   Atom        0.004064     -0.002185     -0.001879
    41   Atom        0.008887     -0.004986     -0.003901
    42   Atom       -0.000333      0.002209     -0.001876
    43   Atom        0.001458      0.000881     -0.002340
    44   Atom       -0.002234      0.003711     -0.001476
    45   Atom       -0.000621      0.001133     -0.000512
    46   Atom        0.001023     -0.000783     -0.000240
    47   Atom        0.002218     -0.003127      0.000910
    48   Atom        0.001985     -0.001274     -0.000711
    49   Atom        0.001340     -0.000680     -0.000660
    50   Atom        0.001419     -0.000748     -0.000671
    51   Atom        0.002650     -0.001672     -0.000978
    52   Atom        0.016170     -0.008204     -0.007966
    53   Atom       -0.003615     -0.003883      0.007498
    54   Atom       -0.003105      0.000572      0.002533
    55   Atom       -0.003472      0.005863     -0.002391
    56   Atom       -0.003603      0.008131     -0.004528
    57   Atom        0.009933     -0.001722     -0.008210
    58   Atom        0.385947      0.538551     -0.924498
    59   Atom        0.079679     -0.175502      0.095824
    60   Atom       -0.153465      0.228851     -0.075386
 --------------------------------------------------------
                        XY            XZ            YZ
 --------------------------------------------------------
     1   Atom        0.004336     -0.006965     -0.002542
     2   Atom        0.001100     -0.002448     -0.000220
     3   Atom        0.000438     -0.001299     -0.000139
     4   Atom        0.002447      0.000905      0.000305
     5   Atom       -0.002691     -0.001937      0.000487
     6   Atom       -0.010082      0.005379     -0.001246
     7   Atom       -0.005401      0.000987     -0.000589
     8   Atom        0.003497     -0.000939     -0.011329
     9   Atom       -0.005959     -0.004004      0.007090
    10   Atom        0.002268      0.003968      0.009655
    11   Atom        0.002018      0.000946      0.004715
    12   Atom        0.002618      0.001340      0.002719
    13   Atom        0.003617      0.003806      0.004335
    14   Atom        0.006472      0.008847      0.006154
    15   Atom       -0.000651      0.008973      0.000008
    16   Atom        0.000485      0.002567      0.000059
    17   Atom       -0.000228      0.001162     -0.000108
    18   Atom       -0.000029      0.000279      0.000040
    19   Atom        0.000175     -0.000397     -0.000066
    20   Atom        0.000819     -0.001288     -0.000169
    21   Atom        0.001774     -0.000773     -0.000353
    22   Atom       -0.015378      0.020967     -0.012307
    23   Atom       -0.000847      0.004708     -0.007445
    24   Atom       -0.006120      0.004373     -0.011924
    25   Atom        0.001074     -0.001156     -0.004478
    26   Atom       -0.014136      0.004252     -0.005568
    27   Atom       -0.017108      0.003998     -0.003667
    28   Atom        0.060618      0.029680      0.046435
    29   Atom       -0.100735     -0.011526      0.005569
    30   Atom        0.001081     -0.007457     -0.001129
    31   Atom        0.003200     -0.003691     -0.002165
    32   Atom        0.014208     -0.015088     -0.007575
    33   Atom        0.000051     -0.001576     -0.000025
    34   Atom        0.000882     -0.001065     -0.000298
    35   Atom        0.000111     -0.000587     -0.000015
    36   Atom        0.002732      0.000232      0.000141
    37   Atom        0.005096      0.004556      0.001577
    38   Atom        0.000841      0.001352      0.000210
    39   Atom       -0.001715     -0.000362      0.000101
    40   Atom       -0.002891     -0.003459      0.001270
    41   Atom       -0.006048      0.007719     -0.002347
    42   Atom       -0.003764      0.001472     -0.002284
    43   Atom       -0.003225     -0.000130      0.000004
    44   Atom        0.000294      0.000188      0.002298
    45   Atom        0.001397      0.000824      0.001501
    46   Atom        0.001830      0.002335      0.001459
    47   Atom       -0.000174      0.004965     -0.000063
    48   Atom       -0.000304      0.001421     -0.000132
    49   Atom       -0.000089      0.000245     -0.000010
    50   Atom        0.000134     -0.000422     -0.000029
    51   Atom        0.000919     -0.001979     -0.000421
    52   Atom        0.006675     -0.004328     -0.001762
    53   Atom       -0.000820      0.003618     -0.003441
    54   Atom        0.000552     -0.001052     -0.005196
    55   Atom        0.000610     -0.000250     -0.002818
    56   Atom       -0.004938     -0.000543      0.002614
    57   Atom       -0.010873     -0.002095      0.001140
    58   Atom        0.967192     -0.558164      0.352709
    59   Atom        0.142338     -0.410555     -0.165998
    60   Atom        0.262633     -0.110035     -0.058940
 --------------------------------------------------------


 ---------------------------------------------------------------------------------
              Anisotropic Spin Dipole Couplings in Principal Axis System
 ---------------------------------------------------------------------------------

       Atom             a.u.   MegaHertz   Gauss  10(-4) cm-1        Axes

              Baa    -0.0058    -0.784    -0.280    -0.261  0.5822 -0.5165  0.6280
     1 C(13)  Bbb    -0.0056    -0.752    -0.268    -0.251  0.0633  0.7988  0.5983
              Bcc     0.0114     1.536     0.548     0.512  0.8106  0.3086 -0.4977
 
              Baa    -0.0038    -0.512    -0.183    -0.171  0.2418 -0.2459  0.9387
     2 C(13)  Bbb    -0.0037    -0.493    -0.176    -0.165 -0.0398  0.9640  0.2628
              Bcc     0.0075     1.005     0.359     0.335  0.9695  0.1009 -0.2233
 
              Baa    -0.0016    -0.208    -0.074    -0.069  0.2951  0.0364  0.9548
     3 C(13)  Bbb    -0.0015    -0.201    -0.072    -0.067 -0.1077  0.9942 -0.0046
              Bcc     0.0031     0.410     0.146     0.137  0.9494  0.1015 -0.2973
 
              Baa    -0.0037    -0.492    -0.176    -0.164 -0.0341 -0.2217  0.9745
     4 C(13)  Bbb    -0.0033    -0.444    -0.159    -0.148 -0.2604  0.9434  0.2055
              Bcc     0.0070     0.936     0.334     0.312  0.9649  0.2467  0.0899
 
              Baa    -0.0043    -0.574    -0.205    -0.191  0.1486 -0.0774  0.9859
     5 C(13)  Bbb    -0.0039    -0.521    -0.186    -0.174  0.2427  0.9693  0.0395
              Bcc     0.0082     1.095     0.391     0.365  0.9587 -0.2334 -0.1628
 
              Baa    -0.0107    -1.431    -0.511    -0.477 -0.3912 -0.5825  0.7125
     6 C(13)  Bbb    -0.0088    -1.181    -0.421    -0.394  0.1581  0.7202  0.6756
              Bcc     0.0195     2.612     0.932     0.871  0.9066 -0.3769  0.1897
 
              Baa    -0.0055    -0.740    -0.264    -0.247 -0.3108 -0.0968  0.9455
     7 C(13)  Bbb    -0.0036    -0.482    -0.172    -0.161  0.8192  0.4772  0.3181
              Bcc     0.0091     1.221     0.436     0.407 -0.4820  0.8734 -0.0690
 
              Baa    -0.0147     1.066     0.380     0.355 -0.0359  0.3040  0.9520
     8 O(17)  Bbb    -0.0104     0.751     0.268     0.251  0.9941 -0.0868  0.0652
              Bcc     0.0251    -1.817    -0.648    -0.606  0.1024  0.9487 -0.2991
 
              Baa    -0.0194    -2.604    -0.929    -0.869  0.1439 -0.1673  0.9753
     9 C(13)  Bbb    -0.0010    -0.141    -0.050    -0.047  0.9357  0.3439 -0.0790
              Bcc     0.0205     2.745     0.979     0.916 -0.3222  0.9240  0.2061
 
              Baa    -0.0131    -1.760    -0.628    -0.587  0.8174  0.1231 -0.5628
    10 C(13)  Bbb    -0.0070    -0.939    -0.335    -0.313  0.5644 -0.3667  0.7396
              Bcc     0.0201     2.699     0.963     0.900  0.1153  0.9222  0.3692
 
              Baa    -0.0042    -0.568    -0.203    -0.189  0.1224 -0.4703  0.8740
    11 C(13)  Bbb    -0.0037    -0.492    -0.175    -0.164  0.9729 -0.1174 -0.1994
              Bcc     0.0079     1.060     0.378     0.353  0.1964  0.8746  0.4432
 
              Baa    -0.0028    -0.372    -0.133    -0.124  0.7407 -0.6026  0.2970
    12 C(13)  Bbb    -0.0022    -0.293    -0.104    -0.098 -0.5155 -0.2264  0.8264
              Bcc     0.0050     0.665     0.237     0.222  0.4308  0.7653  0.4784
 
              Baa    -0.0042    -0.569    -0.203    -0.190 -0.2826 -0.5333  0.7973
    13 C(13)  Bbb    -0.0036    -0.486    -0.173    -0.162  0.7932 -0.5974 -0.1184
              Bcc     0.0079     1.055     0.377     0.352  0.5394  0.5990  0.5918
 
              Baa    -0.0119    -1.595    -0.569    -0.532 -0.1042 -0.6536  0.7496
    14 C(13)  Bbb    -0.0061    -0.821    -0.293    -0.274 -0.5203  0.6782  0.5190
              Bcc     0.0180     2.415     0.862     0.806  0.8476  0.3359  0.4108
 
              Baa    -0.0071    -0.948    -0.338    -0.316 -0.5216 -0.2907  0.8021
    15 C(13)  Bbb    -0.0058    -0.776    -0.277    -0.259 -0.1329  0.9564  0.2601
              Bcc     0.0128     1.723     0.615     0.575  0.8427 -0.0291  0.5375
 
              Baa    -0.0038    -0.508    -0.181    -0.169 -0.1466  0.8886  0.4346
    16 C(13)  Bbb    -0.0036    -0.488    -0.174    -0.163 -0.1930 -0.4566  0.8685
              Bcc     0.0074     0.996     0.355     0.332  0.9702  0.0435  0.2384
 
              Baa    -0.0017    -0.235    -0.084    -0.078 -0.0511  0.9186  0.3919
    17 C(13)  Bbb    -0.0016    -0.216    -0.077    -0.072 -0.2401 -0.3922  0.8880
              Bcc     0.0034     0.451     0.161     0.150  0.9694 -0.0487  0.2406
 
              Baa    -0.0011    -0.149    -0.053    -0.050 -0.0866 -0.3165  0.9446
    18 C(13)  Bbb    -0.0010    -0.129    -0.046    -0.043 -0.0202  0.9486  0.3159
              Bcc     0.0021     0.278     0.099     0.093  0.9960 -0.0083  0.0885
 
              Baa    -0.0012    -0.166    -0.059    -0.056 -0.0123  0.9506  0.3103
    19 C(13)  Bbb    -0.0011    -0.146    -0.052    -0.049  0.1273 -0.3063  0.9434
              Bcc     0.0023     0.312     0.111     0.104  0.9918  0.0511 -0.1173
 
              Baa    -0.0021    -0.282    -0.101    -0.094  0.2330 -0.1449  0.9616
    20 C(13)  Bbb    -0.0020    -0.271    -0.097    -0.090 -0.1011  0.9799  0.1721
              Bcc     0.0041     0.553     0.197     0.185  0.9672  0.1373 -0.2137
 
              Baa    -0.0048    -0.647    -0.231    -0.216 -0.0866  0.8730  0.4801
    21 C(13)  Bbb    -0.0042    -0.568    -0.203    -0.190  0.1161 -0.4698  0.8751
              Bcc     0.0091     1.216     0.434     0.406  0.9895  0.1315 -0.0607
 
              Baa    -0.0175    -2.347    -0.838    -0.783 -0.6651 -0.1216  0.7368
    22 C(13)  Bbb    -0.0171    -2.290    -0.817    -0.764  0.2406  0.8992  0.3656
              Bcc     0.0346     4.638     1.655     1.547  0.7069 -0.4204  0.5688
 
              Baa    -0.0081    -1.081    -0.386    -0.361  0.7533 -0.4988 -0.4287
    23 C(13)  Bbb    -0.0055    -0.739    -0.264    -0.247  0.6159  0.7637  0.1937
              Bcc     0.0136     1.820     0.650     0.607  0.2308 -0.4100  0.8824
 
              Baa    -0.0101    -1.354    -0.483    -0.452  0.2147  0.6966  0.6846
    24 C(13)  Bbb    -0.0067    -0.896    -0.320    -0.299  0.9169  0.0978 -0.3870
              Bcc     0.0168     2.251     0.803     0.751 -0.3365  0.7108 -0.6177
 
              Baa    -0.0068    -0.908    -0.324    -0.303  0.9686  0.0047  0.2485
    25 C(13)  Bbb    -0.0036    -0.485    -0.173    -0.162 -0.2343  0.3515  0.9064
              Bcc     0.0104     1.393     0.497     0.465  0.0831  0.9362 -0.3415
 
              Baa    -0.0129    -1.727    -0.616    -0.576 -0.5919 -0.1449  0.7929
    26 C(13)  Bbb    -0.0107    -1.434    -0.512    -0.478  0.6508  0.4943  0.5762
              Bcc     0.0235     3.160     1.128     1.054 -0.4754  0.8571 -0.1983
 
              Baa    -0.0121    -1.623    -0.579    -0.541 -0.2433 -0.0359  0.9693
    27 C(13)  Bbb    -0.0115    -1.542    -0.550    -0.514  0.6564  0.7297  0.1918
              Bcc     0.0236     3.164     1.129     1.056  0.7141 -0.6829  0.1540
 
              Baa    -0.0557    -2.150    -0.767    -0.717  0.8417 -0.5400  0.0028
    28 N(14)  Bbb    -0.0465    -1.793    -0.640    -0.598 -0.2211 -0.3398  0.9141
              Bcc     0.1022     3.942     1.407     1.315  0.4927  0.7700  0.4054
 
              Baa    -0.0791    -3.049    -1.088    -1.017  0.6470  0.3943  0.6527
    29 N(14)  Bbb    -0.0660    -2.544    -0.908    -0.849 -0.5210 -0.3964  0.7559
              Bcc     0.1450     5.593     1.996     1.866 -0.5568  0.8291  0.0511
 
              Baa    -0.0051    -2.716    -0.969    -0.906  0.6636  0.2425  0.7077
    30 H(1)   Bbb    -0.0049    -2.619    -0.935    -0.874 -0.2441  0.9644 -0.1016
              Bcc     0.0100     5.336     1.904     1.780  0.7072  0.1053 -0.6991
 
              Baa    -0.0033    -1.759    -0.628    -0.587  0.6646 -0.3642  0.6525
    31 H(1)   Bbb    -0.0032    -1.720    -0.614    -0.574 -0.1031  0.8201  0.5628
              Bcc     0.0065     3.479     1.241     1.161  0.7401  0.4413 -0.5075
 
              Baa    -0.0146    -7.815    -2.788    -2.607  0.6268 -0.5183  0.5819
    32 H(1)   Bbb    -0.0131    -7.011    -2.502    -2.339 -0.0140  0.7391  0.6735
              Bcc     0.0278    14.826     5.290     4.945  0.7791  0.4303 -0.4560
 
              Baa    -0.0013    -0.711    -0.254    -0.237  0.4442 -0.0125  0.8958
    33 H(1)   Bbb    -0.0013    -0.693    -0.247    -0.231 -0.0073  0.9998  0.0176
              Bcc     0.0026     1.404     0.501     0.468  0.8959  0.0144 -0.4440
 
              Baa    -0.0012    -0.665    -0.237    -0.222  0.3696 -0.2003  0.9073
    34 H(1)   Bbb    -0.0012    -0.650    -0.232    -0.217 -0.1747  0.9441  0.2796
              Bcc     0.0025     1.315     0.469     0.439  0.9126  0.2619 -0.3140
 
              Baa    -0.0011    -0.604    -0.216    -0.202  0.1804 -0.1677  0.9692
    35 H(1)   Bbb    -0.0011    -0.589    -0.210    -0.196 -0.0026  0.9853  0.1710
              Bcc     0.0022     1.193     0.426     0.398  0.9836  0.0334 -0.1773
 
              Baa    -0.0024    -1.290    -0.460    -0.430  0.1104 -0.3170  0.9420
    36 H(1)   Bbb    -0.0023    -1.243    -0.443    -0.415 -0.4140  0.8470  0.3335
              Bcc     0.0047     2.533     0.904     0.845  0.9036  0.4268  0.0377
 
              Baa    -0.0070    -3.750    -1.338    -1.251 -0.1718 -0.2613  0.9499
    37 H(1)   Bbb    -0.0062    -3.295    -1.176    -1.099 -0.3361  0.9219  0.1928
              Bcc     0.0132     7.044     2.514     2.350  0.9260  0.2861  0.2462
 
              Baa    -0.0022    -1.198    -0.427    -0.399 -0.1723 -0.2551  0.9514
    38 H(1)   Bbb    -0.0021    -1.142    -0.408    -0.381 -0.1812  0.9576  0.2239
              Bcc     0.0044     2.340     0.835     0.781  0.9682  0.1339  0.2113
 
              Baa    -0.0023    -1.232    -0.440    -0.411  0.0558 -0.0074  0.9984
    39 H(1)   Bbb    -0.0021    -1.146    -0.409    -0.382  0.2701  0.9628 -0.0079
              Bcc     0.0045     2.378     0.849     0.793  0.9612 -0.2702 -0.0557
 
              Baa    -0.0035    -1.857    -0.663    -0.620  0.4800  0.2445  0.8425
    40 H(1)   Bbb    -0.0033    -1.753    -0.625    -0.585  0.1844  0.9108 -0.3693
              Bcc     0.0068     3.610     1.288     1.204  0.8577 -0.3326 -0.3921
 
              Baa    -0.0078    -4.161    -1.485    -1.388 -0.5064 -0.5066  0.6978
    41 H(1)   Bbb    -0.0069    -3.655    -1.304    -1.219  0.0167  0.8033  0.5953
              Bcc     0.0147     7.817     2.789     2.607  0.8621 -0.3131  0.3984
 
              Baa    -0.0031    -1.652    -0.589    -0.551  0.6524  0.6386  0.4081
    42 H(1)   Bbb    -0.0028    -1.476    -0.527    -0.492 -0.5254 -0.0069  0.8508
              Bcc     0.0059     3.128     1.116     1.043 -0.5462  0.7695 -0.3310
 
              Baa    -0.0024    -1.262    -0.450    -0.421  0.1963  0.1938  0.9612
    43 H(1)   Bbb    -0.0020    -1.091    -0.389    -0.364  0.6456  0.7122 -0.2755
              Bcc     0.0044     2.353     0.840     0.785  0.7380 -0.6747 -0.0147
 
              Baa    -0.0024    -1.273    -0.454    -0.425 -0.4695 -0.2915  0.8334
    44 H(1)   Bbb    -0.0022    -1.181    -0.421    -0.394  0.8815 -0.2081  0.4238
              Bcc     0.0046     2.454     0.876     0.819  0.0500  0.9337  0.3547
 
              Baa    -0.0014    -0.748    -0.267    -0.250  0.2272 -0.5859  0.7779
    45 H(1)   Bbb    -0.0014    -0.742    -0.265    -0.248  0.8742 -0.2294 -0.4281
              Bcc     0.0028     1.490     0.532     0.497  0.4292  0.7773  0.4600
 
              Baa    -0.0020    -1.090    -0.389    -0.364 -0.4425 -0.3250  0.8358
    46 H(1)   Bbb    -0.0019    -1.025    -0.366    -0.342 -0.5476  0.8360  0.0352
              Bcc     0.0040     2.115     0.755     0.705  0.7102  0.4421  0.5479
 
              Baa    -0.0035    -1.845    -0.658    -0.615 -0.6483 -0.2021  0.7340
    47 H(1)   Bbb    -0.0031    -1.663    -0.593    -0.555 -0.1202  0.9792  0.1635
              Bcc     0.0066     3.508     1.252     1.170  0.7518 -0.0178  0.6591
 
              Baa    -0.0013    -0.705    -0.252    -0.235 -0.3899  0.0551  0.9192
    48 H(1)   Bbb    -0.0013    -0.695    -0.248    -0.232  0.0996  0.9949 -0.0174
              Bcc     0.0026     1.400     0.499     0.467  0.9154 -0.0848  0.3934
 
              Baa    -0.0007    -0.368    -0.131    -0.123 -0.1259 -0.1955  0.9726
    49 H(1)   Bbb    -0.0007    -0.365    -0.130    -0.122  0.0191  0.9797  0.1994
              Bcc     0.0014     0.733     0.261     0.244  0.9919 -0.0436  0.1196
 
              Baa    -0.0008    -0.405    -0.144    -0.135  0.0476  0.8545  0.5173
    50 H(1)   Bbb    -0.0008    -0.401    -0.143    -0.134  0.1942 -0.5159  0.8344
              Bcc     0.0015     0.805     0.287     0.269  0.9798  0.0607 -0.1905
 
              Baa    -0.0019    -0.998    -0.356    -0.333  0.0815  0.8198  0.5669
    51 H(1)   Bbb    -0.0018    -0.981    -0.350    -0.327  0.4294 -0.5421  0.7223
              Bcc     0.0037     1.980     0.706     0.660  0.8994  0.1846 -0.3962
 
              Baa    -0.0102    -5.436    -1.940    -1.813 -0.1633  0.9028  0.3977
    52 H(1)   Bbb    -0.0085    -4.533    -1.617    -1.512  0.2532 -0.3513  0.9014
              Bcc     0.0187     9.968     3.557     3.325  0.9535  0.2480 -0.1713
 
              Baa    -0.0049    -2.640    -0.942    -0.881 -0.5005  0.7861  0.3628
    53 H(1)   Bbb    -0.0046    -2.430    -0.867    -0.811  0.8220  0.5630 -0.0860
              Bcc     0.0095     5.071     1.809     1.691  0.2718 -0.2552  0.9279
 
              Baa    -0.0038    -2.046    -0.730    -0.683  0.3780  0.6858  0.6219
    54 H(1)   Bbb    -0.0031    -1.675    -0.598    -0.559  0.9187 -0.3610 -0.1603
              Bcc     0.0070     3.721     1.328     1.241 -0.1146 -0.6320  0.7665
 
              Baa    -0.0035    -1.882    -0.672    -0.628  0.9746  0.0039  0.2241
    55 H(1)   Bbb    -0.0032    -1.733    -0.618    -0.578 -0.2148  0.3016  0.9289
              Bcc     0.0068     3.615     1.290     1.206  0.0640  0.9534 -0.2948
 
              Baa    -0.0056    -3.005    -1.072    -1.002  0.7770  0.3748 -0.5057
    56 H(1)   Bbb    -0.0048    -2.545    -0.908    -0.849  0.5339  0.0331  0.8449
              Bcc     0.0104     5.549     1.980     1.851 -0.3335  0.9265  0.1744
 
              Baa    -0.0085    -4.523    -1.614    -1.509  0.2645  0.2694  0.9260
    57 H(1)   Bbb    -0.0082    -4.371    -1.560    -1.458  0.4474  0.8163 -0.3653
              Bcc     0.0167     8.894     3.174     2.967  0.8543 -0.5110 -0.0954
 
              Baa    -1.4014    66.935    23.884    22.327  0.4547 -0.3737  0.8085
    58 Ni(61) Bbb    -0.0377     1.801     0.643     0.601 -0.5617  0.5842  0.5859
              Bcc     1.4391   -68.736   -24.527   -22.928  0.6912  0.7205 -0.0557
 
              Baa    -0.3252  -163.323   -58.278   -54.479  0.6755  0.1566  0.7205
    59 F(19)  Bbb    -0.2377  -119.368   -42.593   -39.817 -0.3120  0.9461  0.0868
              Bcc     0.5629   282.691   100.871    94.296 -0.6681 -0.2835  0.6880
 
              Baa    -0.3103  -155.858   -55.614   -51.989  0.8679 -0.3890  0.3089
    60 F(19)  Bbb    -0.0753   -37.834   -13.500   -12.620 -0.1795  0.3342  0.9252
              Bcc     0.3857   193.692    69.114    64.609  0.4632  0.8585 -0.2203
 

 ---------------------------------------------------------------------------------

 Unable to Open any file for archive entry.
 1\1\GINC-NOTCH423\FOpt\UB3LYP\Gen\C26H28F2N2Ni1O1(3)\U1365460\06-Mar-2
 026\0\\# B3LYP gen 6D pseudo=read int=(grid=fine) empiricaldispersion=
 GD3BJ opt freq=noraman\\Lig2224.xyz\\0,3\C,3.3240682015,-1.7508126749,
 3.5066387775\C,3.9559575897,-0.5131091478,2.8390203311\C,5.2818495155,
 -0.1831799504,3.5513019781\C,2.9866546842,0.6752090506,2.9634714818\C,
 4.3146164148,-0.7664009237,1.3551778799\C,3.2006612706,-0.8787136831,0
 .3010706776\C,3.7986381786,-1.0920985088,-1.1155156581\O,3.6155960562,
 -2.5246585115,-1.3697429981\C,2.710578481,-2.9198075622,-0.4605427276\
 C,2.1127996648,-4.2574792593,-0.5375382637\C,2.4940837918,-5.216154132
 2,-1.4634641284\C,1.8467941541,-6.4553374982,-1.415520266\C,0.86244871
 7,-6.6660208576,-0.4626761385\C,0.5303454962,-5.6389232509,0.438853112
 8\C,-0.5893025985,-5.8517197524,1.4503039774\C,-1.9197449682,-5.928706
 2613,0.7108664962\C,-2.7739484141,-7.0124213608,0.9351367986\C,-3.9949
 872337,-7.1028704636,0.2660661616\C,-4.3679730702,-6.1061599998,-0.636
 071804\C,-3.5166063421,-5.0224920195,-0.8614296989\C,-2.2928741873,-4.
 9282486097,-0.1983987277\C,-0.5370073429,-4.8524607554,2.6020172014\C,
 0.524236753,-4.942809441,3.5167490817\C,0.6227896966,-4.0547274084,4.5
 847986871\C,-0.3384128804,-3.0562848648,4.7540517119\C,-1.3949274256,-
 2.9577788144,3.8545551489\C,-1.4990223949,-3.8509245811,2.7839600082\N
 ,1.1551434568,-4.4644233985,0.3942707365\N,2.3786155132,-2.0904832278,
 0.4582109\H,3.8575802329,-2.6718564912,3.2380289995\H,3.3699183352,-1.
 6472092793,4.5982185164\H,2.2715630028,-1.8406160959,3.2355228599\H,5.
 9949344269,-1.0139244988,3.4709414005\H,5.1074821248,0.0050010416,4.61
 65976159\H,5.7558374763,0.7104489007,3.1259072243\H,2.8664722853,0.953
 4539923,4.0173030074\H,1.9975876885,0.403185371,2.5837906718\H,3.36417
 38828,1.5577359563,2.4293355559\H,4.9448338045,0.0703087096,1.01946314
 94\H,4.9389983397,-1.6693021833,1.283976047\H,2.5442889853,-0.00720328
 1,0.3381432475\H,3.2582744017,-0.5556962404,-1.9005768205\H,4.86689070
 19,-0.8828694072,-1.1820551914\H,3.2658655548,-4.9948671512,-2.1910448
 99\H,2.1102027423,-7.2390786504,-2.1189125546\H,0.3254087626,-7.607354
 6863,-0.4095263482\H,-0.4106966015,-6.8439637619,1.8851907471\H,-2.484
 7717479,-7.7871441655,1.6420552237\H,-4.6509762458,-7.9493798029,0.449
 6979233\H,-5.3180817912,-6.1730379836,-1.1590511688\H,-3.8045434131,-4
 .2389710906,-1.5568965464\H,-1.6469245287,-4.0642448617,-0.3607632343\
 H,1.2805981117,-5.7128650173,3.3811561125\H,1.4580221942,-4.1317480427
 ,5.2747456997\H,-0.2473778726,-2.3436510386,5.5674386097\H,-2.12670222
 63,-2.1637416425,3.9568786799\H,-2.3215718106,-3.7596412802,2.08482917
 25\Ni,0.5575639878,-2.559536626,1.2598155374\F,-0.56467624,-2.41631746
 49,-0.2013667062\F,0.4189546579,-1.1830153599,2.4527367307\\Version=ES
 64L-G16RevC.01\State=3-A\HF=-1561.6677137\S2=2.005331\S2-1=0.\S2A=2.00
 0017\RMSD=7.068e-09\RMSF=2.962e-06\Dipole=1.8289122,-2.0265201,-0.9289
 634\Quadrupole=-0.1547046,2.2075531,-2.0528485,7.3002601,-6.788212,0.3
 373648\PG=C01 [X(C26H28F2N2Ni1O1)]\\@
 The archive entry for this job was punched.


 ACCORDING TO HEN3RY, LIFE IS MUCH LIKE A SEWER........
 YOU GET OUT OF IT JUST WHAT YOU PUT INTO IT...........
                         TOM LEHRER - (THE 3 IS SILENT)
 Job cpu time:       0 days  5 hours 38 minutes  4.9 seconds.
 Elapsed time:       0 days  0 hours 21 minutes 19.8 seconds.
 File lengths (MBytes):  RWF=    396 Int=      0 D2E=      0 Chk=     37 Scr=      2
 Normal termination of Gaussian 16 at Fri Mar  6 16:46:23 2026.
 Link1:  Proceeding to internal job step number  2.
 ------------------------------------------------------------------
 #N Geom=AllCheck Guess=TCheck SCRF=Check GenChk UB3LYP/ChkBas Freq
 ------------------------------------------------------------------
 1/10=4,29=7,30=1,38=1,40=1/1,3;
 2/12=2,40=1/2;
 3/5=7,6=2,8=2,11=2,14=-4,16=1,17=8,25=1,30=1,67=1,70=2,71=2,74=-5,75=-4,82=7,116=2,124=41,140=1/1,2,3;
 4/5=101/1;
 5/5=2,38=6,98=1/2;
 8/6=4,10=90,11=11/1;
 11/6=1,8=1,9=11,15=111,16=1/1,2,10;
 10/6=1/2;
 6/7=2,8=2,9=2,10=2,28=1/1;
 7/8=1,10=1,25=1/1,2,3,16;
 1/10=4,30=1/3;
 99//99;
 Structure from the checkpoint file:  "Lig2224_xyz_4.chk"
 -----------
 Lig2224.xyz
 -----------
 Charge =  0 Multiplicity = 3
 Redundant internal coordinates found in file.  (old form).
 C,0,3.3240682015,-1.7508126749,3.5066387775
 C,0,3.9559575897,-0.5131091478,2.8390203311
 C,0,5.2818495155,-0.1831799504,3.5513019781
 C,0,2.9866546842,0.6752090506,2.9634714818
 C,0,4.3146164148,-0.7664009237,1.3551778799
 C,0,3.2006612706,-0.8787136831,0.3010706776
 C,0,3.7986381786,-1.0920985088,-1.1155156581
 O,0,3.6155960562,-2.5246585115,-1.3697429981
 C,0,2.710578481,-2.9198075622,-0.4605427276
 C,0,2.1127996648,-4.2574792593,-0.5375382637
 C,0,2.4940837918,-5.2161541322,-1.4634641284
 C,0,1.8467941541,-6.4553374982,-1.415520266
 C,0,0.862448717,-6.6660208576,-0.4626761385
 C,0,0.5303454962,-5.6389232509,0.4388531128
 C,0,-0.5893025985,-5.8517197524,1.4503039774
 C,0,-1.9197449682,-5.9287062613,0.7108664962
 C,0,-2.7739484141,-7.0124213608,0.9351367986
 C,0,-3.9949872337,-7.1028704636,0.2660661616
 C,0,-4.3679730702,-6.1061599998,-0.636071804
 C,0,-3.5166063421,-5.0224920195,-0.8614296989
 C,0,-2.2928741873,-4.9282486097,-0.1983987277
 C,0,-0.5370073429,-4.8524607554,2.6020172014
 C,0,0.524236753,-4.942809441,3.5167490817
 C,0,0.6227896966,-4.0547274084,4.5847986871
 C,0,-0.3384128804,-3.0562848648,4.7540517119
 C,0,-1.3949274256,-2.9577788144,3.8545551489
 C,0,-1.4990223949,-3.8509245811,2.7839600082
 N,0,1.1551434568,-4.4644233985,0.3942707365
 N,0,2.3786155132,-2.0904832278,0.4582109
 H,0,3.8575802329,-2.6718564912,3.2380289995
 H,0,3.3699183352,-1.6472092793,4.5982185164
 H,0,2.2715630028,-1.8406160959,3.2355228599
 H,0,5.9949344269,-1.0139244988,3.4709414005
 H,0,5.1074821248,0.0050010416,4.6165976159
 H,0,5.7558374763,0.7104489007,3.1259072243
 H,0,2.8664722853,0.9534539923,4.0173030074
 H,0,1.9975876885,0.403185371,2.5837906718
 H,0,3.3641738828,1.5577359563,2.4293355559
 H,0,4.9448338045,0.0703087096,1.0194631494
 H,0,4.9389983397,-1.6693021833,1.283976047
 H,0,2.5442889853,-0.007203281,0.3381432475
 H,0,3.2582744017,-0.5556962404,-1.9005768205
 H,0,4.8668907019,-0.8828694072,-1.1820551914
 H,0,3.2658655548,-4.9948671512,-2.191044899
 H,0,2.1102027423,-7.2390786504,-2.1189125546
 H,0,0.3254087626,-7.6073546863,-0.4095263482
 H,0,-0.4106966015,-6.8439637619,1.8851907471
 H,0,-2.4847717479,-7.7871441655,1.6420552237
 H,0,-4.6509762458,-7.9493798029,0.4496979233
 H,0,-5.3180817912,-6.1730379836,-1.1590511688
 H,0,-3.8045434131,-4.2389710906,-1.5568965464
 H,0,-1.6469245287,-4.0642448617,-0.3607632343
 H,0,1.2805981117,-5.7128650173,3.3811561125
 H,0,1.4580221942,-4.1317480427,5.2747456997
 H,0,-0.2473778726,-2.3436510386,5.5674386097
 H,0,-2.1267022263,-2.1637416425,3.9568786799
 H,0,-2.3215718106,-3.7596412802,2.0848291725
 Ni,0,0.5575639878,-2.559536626,1.2598155374
 F,0,-0.56467624,-2.4163174649,-0.2013667062
 F,0,0.4189546579,-1.1830153599,2.4527367307
 Recover connectivity data from disk.

 GradGradGradGradGradGradGradGradGradGradGradGradGradGradGradGradGradGrad
 Berny optimization.
 Initialization pass.
                           ----------------------------
                           !    Initial Parameters    !
                           ! (Angstroms and Degrees)  !
 --------------------------                            --------------------------
 ! Name  Definition              Value          Derivative Info.                !
 --------------------------------------------------------------------------------
 ! R1    R(1,2)                  1.5417         calculate D2E/DX2 analytically  !
 ! R2    R(1,30)                 1.0978         calculate D2E/DX2 analytically  !
 ! R3    R(1,31)                 1.0974         calculate D2E/DX2 analytically  !
 ! R4    R(1,32)                 1.0906         calculate D2E/DX2 analytically  !
 ! R5    R(2,3)                  1.5408         calculate D2E/DX2 analytically  !
 ! R6    R(2,4)                  1.5386         calculate D2E/DX2 analytically  !
 ! R7    R(2,5)                  1.5474         calculate D2E/DX2 analytically  !
 ! R8    R(3,33)                 1.0978         calculate D2E/DX2 analytically  !
 ! R9    R(3,34)                 1.0958         calculate D2E/DX2 analytically  !
 ! R10   R(3,35)                 1.0974         calculate D2E/DX2 analytically  !
 ! R11   R(4,36)                 1.0966         calculate D2E/DX2 analytically  !
 ! R12   R(4,37)                 1.0938         calculate D2E/DX2 analytically  !
 ! R13   R(4,38)                 1.0985         calculate D2E/DX2 analytically  !
 ! R14   R(5,6)                  1.5377         calculate D2E/DX2 analytically  !
 ! R15   R(5,39)                 1.1            calculate D2E/DX2 analytically  !
 ! R16   R(5,40)                 1.1001         calculate D2E/DX2 analytically  !
 ! R17   R(6,7)                  1.5524         calculate D2E/DX2 analytically  !
 ! R18   R(6,29)                 1.4727         calculate D2E/DX2 analytically  !
 ! R19   R(6,41)                 1.0917         calculate D2E/DX2 analytically  !
 ! R20   R(7,8)                  1.4664         calculate D2E/DX2 analytically  !
 ! R21   R(7,42)                 1.0936         calculate D2E/DX2 analytically  !
 ! R22   R(7,43)                 1.0906         calculate D2E/DX2 analytically  !
 ! R23   R(8,9)                  1.3423         calculate D2E/DX2 analytically  !
 ! R24   R(9,10)                 1.4672         calculate D2E/DX2 analytically  !
 ! R25   R(9,29)                 1.2814         calculate D2E/DX2 analytically  !
 ! R26   R(10,11)                1.3863         calculate D2E/DX2 analytically  !
 ! R27   R(10,28)                1.3521         calculate D2E/DX2 analytically  !
 ! R28   R(11,12)                1.3989         calculate D2E/DX2 analytically  !
 ! R29   R(11,44)                1.0835         calculate D2E/DX2 analytically  !
 ! R30   R(12,13)                1.3861         calculate D2E/DX2 analytically  !
 ! R31   R(12,45)                1.0855         calculate D2E/DX2 analytically  !
 ! R32   R(13,14)                1.4064         calculate D2E/DX2 analytically  !
 ! R33   R(13,46)                1.0851         calculate D2E/DX2 analytically  !
 ! R34   R(14,15)                1.5238         calculate D2E/DX2 analytically  !
 ! R35   R(14,28)                1.3311         calculate D2E/DX2 analytically  !
 ! R36   R(15,16)                1.5241         calculate D2E/DX2 analytically  !
 ! R37   R(15,22)                1.5257         calculate D2E/DX2 analytically  !
 ! R38   R(15,47)                1.098          calculate D2E/DX2 analytically  !
 ! R39   R(16,17)                1.398          calculate D2E/DX2 analytically  !
 ! R40   R(16,21)                1.4025         calculate D2E/DX2 analytically  !
 ! R41   R(17,18)                1.3953         calculate D2E/DX2 analytically  !
 ! R42   R(17,48)                1.0879         calculate D2E/DX2 analytically  !
 ! R43   R(18,19)                1.3951         calculate D2E/DX2 analytically  !
 ! R44   R(18,49)                1.0866         calculate D2E/DX2 analytically  !
 ! R45   R(19,20)                1.3964         calculate D2E/DX2 analytically  !
 ! R46   R(19,50)                1.0866         calculate D2E/DX2 analytically  !
 ! R47   R(20,21)                1.395          calculate D2E/DX2 analytically  !
 ! R48   R(20,51)                1.0865         calculate D2E/DX2 analytically  !
 ! R49   R(21,52)                1.0909         calculate D2E/DX2 analytically  !
 ! R50   R(22,23)                1.404          calculate D2E/DX2 analytically  !
 ! R51   R(22,27)                1.4006         calculate D2E/DX2 analytically  !
 ! R52   R(23,24)                1.3925         calculate D2E/DX2 analytically  !
 ! R53   R(23,53)                1.0879         calculate D2E/DX2 analytically  !
 ! R54   R(24,25)                1.3962         calculate D2E/DX2 analytically  !
 ! R55   R(24,54)                1.0861         calculate D2E/DX2 analytically  !
 ! R56   R(25,26)                1.3911         calculate D2E/DX2 analytically  !
 ! R57   R(25,55)                1.0852         calculate D2E/DX2 analytically  !
 ! R58   R(26,27)                1.3981         calculate D2E/DX2 analytically  !
 ! R59   R(26,56)                1.0846         calculate D2E/DX2 analytically  !
 ! R60   R(27,57)                1.0834         calculate D2E/DX2 analytically  !
 ! R61   R(29,58)                2.0442         calculate D2E/DX2 analytically  !
 ! R62   R(58,59)                1.848          calculate D2E/DX2 analytically  !
 ! R63   R(58,60)                1.8268         calculate D2E/DX2 analytically  !
 ! A1    A(2,1,30)             111.6179         calculate D2E/DX2 analytically  !
 ! A2    A(2,1,31)             109.7434         calculate D2E/DX2 analytically  !
 ! A3    A(2,1,32)             110.7328         calculate D2E/DX2 analytically  !
 ! A4    A(30,1,31)            107.5946         calculate D2E/DX2 analytically  !
 ! A5    A(30,1,32)            109.823          calculate D2E/DX2 analytically  !
 ! A6    A(31,1,32)            107.1796         calculate D2E/DX2 analytically  !
 ! A7    A(1,2,3)              108.9295         calculate D2E/DX2 analytically  !
 ! A8    A(1,2,4)              109.0755         calculate D2E/DX2 analytically  !
 ! A9    A(1,2,5)              112.2609         calculate D2E/DX2 analytically  !
 ! A10   A(3,2,4)              109.8373         calculate D2E/DX2 analytically  !
 ! A11   A(3,2,5)              106.1931         calculate D2E/DX2 analytically  !
 ! A12   A(4,2,5)              110.4878         calculate D2E/DX2 analytically  !
 ! A13   A(2,3,33)             111.2897         calculate D2E/DX2 analytically  !
 ! A14   A(2,3,34)             110.4421         calculate D2E/DX2 analytically  !
 ! A15   A(2,3,35)             111.5215         calculate D2E/DX2 analytically  !
 ! A16   A(33,3,34)            107.7281         calculate D2E/DX2 analytically  !
 ! A17   A(33,3,35)            107.8972         calculate D2E/DX2 analytically  !
 ! A18   A(34,3,35)            107.8039         calculate D2E/DX2 analytically  !
 ! A19   A(2,4,36)             110.0457         calculate D2E/DX2 analytically  !
 ! A20   A(2,4,37)             110.4582         calculate D2E/DX2 analytically  !
 ! A21   A(2,4,38)             111.3872         calculate D2E/DX2 analytically  !
 ! A22   A(36,4,37)            107.3133         calculate D2E/DX2 analytically  !
 ! A23   A(36,4,38)            107.5243         calculate D2E/DX2 analytically  !
 ! A24   A(37,4,38)            109.9853         calculate D2E/DX2 analytically  !
 ! A25   A(2,5,6)              120.0907         calculate D2E/DX2 analytically  !
 ! A26   A(2,5,39)             107.5141         calculate D2E/DX2 analytically  !
 ! A27   A(2,5,40)             109.1452         calculate D2E/DX2 analytically  !
 ! A28   A(6,5,39)             105.1522         calculate D2E/DX2 analytically  !
 ! A29   A(6,5,40)             107.8694         calculate D2E/DX2 analytically  !
 ! A30   A(39,5,40)            106.2232         calculate D2E/DX2 analytically  !
 ! A31   A(5,6,7)              110.8871         calculate D2E/DX2 analytically  !
 ! A32   A(5,6,29)             113.0362         calculate D2E/DX2 analytically  !
 ! A33   A(5,6,41)             110.7304         calculate D2E/DX2 analytically  !
 ! A34   A(7,6,29)             101.4951         calculate D2E/DX2 analytically  !
 ! A35   A(7,6,41)             111.8597         calculate D2E/DX2 analytically  !
 ! A36   A(29,6,41)            108.5206         calculate D2E/DX2 analytically  !
 ! A37   A(6,7,8)              104.1467         calculate D2E/DX2 analytically  !
 ! A38   A(6,7,42)             113.4101         calculate D2E/DX2 analytically  !
 ! A39   A(6,7,43)             113.9929         calculate D2E/DX2 analytically  !
 ! A40   A(8,7,42)             107.0393         calculate D2E/DX2 analytically  !
 ! A41   A(8,7,43)             107.4043         calculate D2E/DX2 analytically  !
 ! A42   A(42,7,43)            110.2481         calculate D2E/DX2 analytically  !
 ! A43   A(7,8,9)              104.7328         calculate D2E/DX2 analytically  !
 ! A44   A(8,9,10)             120.5002         calculate D2E/DX2 analytically  !
 ! A45   A(8,9,29)             118.0194         calculate D2E/DX2 analytically  !
 ! A46   A(10,9,29)            121.4753         calculate D2E/DX2 analytically  !
 ! A47   A(9,10,11)            123.6068         calculate D2E/DX2 analytically  !
 ! A48   A(9,10,28)            113.0758         calculate D2E/DX2 analytically  !
 ! A49   A(11,10,28)           123.3162         calculate D2E/DX2 analytically  !
 ! A50   A(10,11,12)           117.5447         calculate D2E/DX2 analytically  !
 ! A51   A(10,11,44)           120.2112         calculate D2E/DX2 analytically  !
 ! A52   A(12,11,44)           122.2441         calculate D2E/DX2 analytically  !
 ! A53   A(11,12,13)           119.1314         calculate D2E/DX2 analytically  !
 ! A54   A(11,12,45)           120.3363         calculate D2E/DX2 analytically  !
 ! A55   A(13,12,45)           120.5318         calculate D2E/DX2 analytically  !
 ! A56   A(12,13,14)           119.8247         calculate D2E/DX2 analytically  !
 ! A57   A(12,13,46)           121.1331         calculate D2E/DX2 analytically  !
 ! A58   A(14,13,46)           119.0318         calculate D2E/DX2 analytically  !
 ! A59   A(13,14,15)           119.8025         calculate D2E/DX2 analytically  !
 ! A60   A(13,14,28)           120.8022         calculate D2E/DX2 analytically  !
 ! A61   A(15,14,28)           119.3635         calculate D2E/DX2 analytically  !
 ! A62   A(14,15,16)           109.0528         calculate D2E/DX2 analytically  !
 ! A63   A(14,15,22)           112.6079         calculate D2E/DX2 analytically  !
 ! A64   A(14,15,47)           105.6394         calculate D2E/DX2 analytically  !
 ! A65   A(16,15,22)           115.4205         calculate D2E/DX2 analytically  !
 ! A66   A(16,15,47)           106.7693         calculate D2E/DX2 analytically  !
 ! A67   A(22,15,47)           106.6973         calculate D2E/DX2 analytically  !
 ! A68   A(15,16,17)           119.6512         calculate D2E/DX2 analytically  !
 ! A69   A(15,16,21)           120.7154         calculate D2E/DX2 analytically  !
 ! A70   A(17,16,21)           119.6323         calculate D2E/DX2 analytically  !
 ! A71   A(16,17,18)           120.5337         calculate D2E/DX2 analytically  !
 ! A72   A(16,17,48)           119.5943         calculate D2E/DX2 analytically  !
 ! A73   A(18,17,48)           119.8709         calculate D2E/DX2 analytically  !
 ! A74   A(17,18,19)           119.8498         calculate D2E/DX2 analytically  !
 ! A75   A(17,18,49)           119.8547         calculate D2E/DX2 analytically  !
 ! A76   A(19,18,49)           120.2955         calculate D2E/DX2 analytically  !
 ! A77   A(18,19,20)           119.721          calculate D2E/DX2 analytically  !
 ! A78   A(18,19,50)           120.0675         calculate D2E/DX2 analytically  !
 ! A79   A(20,19,50)           120.2114         calculate D2E/DX2 analytically  !
 ! A80   A(19,20,21)           120.7009         calculate D2E/DX2 analytically  !
 ! A81   A(19,20,51)           120.0902         calculate D2E/DX2 analytically  !
 ! A82   A(21,20,51)           119.2087         calculate D2E/DX2 analytically  !
 ! A83   A(16,21,20)           119.5607         calculate D2E/DX2 analytically  !
 ! A84   A(16,21,52)           120.2606         calculate D2E/DX2 analytically  !
 ! A85   A(20,21,52)           120.1447         calculate D2E/DX2 analytically  !
 ! A86   A(15,22,23)           118.398          calculate D2E/DX2 analytically  !
 ! A87   A(15,22,27)           122.8792         calculate D2E/DX2 analytically  !
 ! A88   A(23,22,27)           118.7228         calculate D2E/DX2 analytically  !
 ! A89   A(22,23,24)           120.8086         calculate D2E/DX2 analytically  !
 ! A90   A(22,23,53)           119.3334         calculate D2E/DX2 analytically  !
 ! A91   A(24,23,53)           119.8564         calculate D2E/DX2 analytically  !
 ! A92   A(23,24,25)           120.0204         calculate D2E/DX2 analytically  !
 ! A93   A(23,24,54)           119.7646         calculate D2E/DX2 analytically  !
 ! A94   A(25,24,54)           120.2073         calculate D2E/DX2 analytically  !
 ! A95   A(24,25,26)           119.6778         calculate D2E/DX2 analytically  !
 ! A96   A(24,25,55)           120.178          calculate D2E/DX2 analytically  !
 ! A97   A(26,25,55)           120.1233         calculate D2E/DX2 analytically  !
 ! A98   A(25,26,27)           120.4286         calculate D2E/DX2 analytically  !
 ! A99   A(25,26,56)           120.2155         calculate D2E/DX2 analytically  !
 ! A100  A(27,26,56)           119.3189         calculate D2E/DX2 analytically  !
 ! A101  A(22,27,26)           120.3409         calculate D2E/DX2 analytically  !
 ! A102  A(22,27,57)           119.8625         calculate D2E/DX2 analytically  !
 ! A103  A(26,27,57)           119.7923         calculate D2E/DX2 analytically  !
 ! A104  A(10,28,14)           119.3788         calculate D2E/DX2 analytically  !
 ! A105  A(6,29,9)             108.1443         calculate D2E/DX2 analytically  !
 ! A106  A(6,29,58)            136.7103         calculate D2E/DX2 analytically  !
 ! A107  A(9,29,58)            111.3106         calculate D2E/DX2 analytically  !
 ! A108  A(29,58,59)           102.3068         calculate D2E/DX2 analytically  !
 ! A109  A(29,58,60)            98.6713         calculate D2E/DX2 analytically  !
 ! A110  A(59,58,60)           114.322          calculate D2E/DX2 analytically  !
 ! D1    D(30,1,2,3)           -73.8264         calculate D2E/DX2 analytically  !
 ! D2    D(30,1,2,4)           166.2933         calculate D2E/DX2 analytically  !
 ! D3    D(30,1,2,5)            43.4926         calculate D2E/DX2 analytically  !
 ! D4    D(31,1,2,3)            45.3625         calculate D2E/DX2 analytically  !
 ! D5    D(31,1,2,4)           -74.5179         calculate D2E/DX2 analytically  !
 ! D6    D(31,1,2,5)           162.6815         calculate D2E/DX2 analytically  !
 ! D7    D(32,1,2,3)           163.4876         calculate D2E/DX2 analytically  !
 ! D8    D(32,1,2,4)            43.6073         calculate D2E/DX2 analytically  !
 ! D9    D(32,1,2,5)           -79.1934         calculate D2E/DX2 analytically  !
 ! D10   D(1,2,3,33)            60.9935         calculate D2E/DX2 analytically  !
 ! D11   D(1,2,3,34)           -58.6111         calculate D2E/DX2 analytically  !
 ! D12   D(1,2,3,35)          -178.4623         calculate D2E/DX2 analytically  !
 ! D13   D(4,2,3,33)          -179.599          calculate D2E/DX2 analytically  !
 ! D14   D(4,2,3,34)            60.7963         calculate D2E/DX2 analytically  !
 ! D15   D(4,2,3,35)           -59.0549         calculate D2E/DX2 analytically  !
 ! D16   D(5,2,3,33)           -60.1123         calculate D2E/DX2 analytically  !
 ! D17   D(5,2,3,34)          -179.7169         calculate D2E/DX2 analytically  !
 ! D18   D(5,2,3,35)            60.4319         calculate D2E/DX2 analytically  !
 ! D19   D(1,2,4,36)            65.4135         calculate D2E/DX2 analytically  !
 ! D20   D(1,2,4,37)           -52.8957         calculate D2E/DX2 analytically  !
 ! D21   D(1,2,4,38)          -175.4343         calculate D2E/DX2 analytically  !
 ! D22   D(3,2,4,36)           -53.9046         calculate D2E/DX2 analytically  !
 ! D23   D(3,2,4,37)          -172.2138         calculate D2E/DX2 analytically  !
 ! D24   D(3,2,4,38)            65.2476         calculate D2E/DX2 analytically  !
 ! D25   D(5,2,4,36)          -170.7305         calculate D2E/DX2 analytically  !
 ! D26   D(5,2,4,37)            70.9603         calculate D2E/DX2 analytically  !
 ! D27   D(5,2,4,38)           -51.5783         calculate D2E/DX2 analytically  !
 ! D28   D(1,2,5,6)             71.9106         calculate D2E/DX2 analytically  !
 ! D29   D(1,2,5,39)          -168.1131         calculate D2E/DX2 analytically  !
 ! D30   D(1,2,5,40)           -53.2994         calculate D2E/DX2 analytically  !
 ! D31   D(3,2,5,6)           -169.1503         calculate D2E/DX2 analytically  !
 ! D32   D(3,2,5,39)           -49.1739         calculate D2E/DX2 analytically  !
 ! D33   D(3,2,5,40)            65.6397         calculate D2E/DX2 analytically  !
 ! D34   D(4,2,5,6)            -50.0896         calculate D2E/DX2 analytically  !
 ! D35   D(4,2,5,39)            69.8867         calculate D2E/DX2 analytically  !
 ! D36   D(4,2,5,40)          -175.2996         calculate D2E/DX2 analytically  !
 ! D37   D(2,5,6,7)            178.4            calculate D2E/DX2 analytically  !
 ! D38   D(2,5,6,29)           -68.3933         calculate D2E/DX2 analytically  !
 ! D39   D(2,5,6,41)            53.6121         calculate D2E/DX2 analytically  !
 ! D40   D(39,5,6,7)            57.2514         calculate D2E/DX2 analytically  !
 ! D41   D(39,5,6,29)          170.4581         calculate D2E/DX2 analytically  !
 ! D42   D(39,5,6,41)          -67.5365         calculate D2E/DX2 analytically  !
 ! D43   D(40,5,6,7)           -55.7915         calculate D2E/DX2 analytically  !
 ! D44   D(40,5,6,29)           57.4152         calculate D2E/DX2 analytically  !
 ! D45   D(40,5,6,41)          179.4207         calculate D2E/DX2 analytically  !
 ! D46   D(5,6,7,8)            102.3313         calculate D2E/DX2 analytically  !
 ! D47   D(5,6,7,42)          -141.6654         calculate D2E/DX2 analytically  !
 ! D48   D(5,6,7,43)           -14.401          calculate D2E/DX2 analytically  !
 ! D49   D(29,6,7,8)           -18.001          calculate D2E/DX2 analytically  !
 ! D50   D(29,6,7,42)           98.0024         calculate D2E/DX2 analytically  !
 ! D51   D(29,6,7,43)         -134.7333         calculate D2E/DX2 analytically  !
 ! D52   D(41,6,7,8)          -133.5222         calculate D2E/DX2 analytically  !
 ! D53   D(41,6,7,42)          -17.5188         calculate D2E/DX2 analytically  !
 ! D54   D(41,6,7,43)          109.7455         calculate D2E/DX2 analytically  !
 ! D55   D(5,6,29,9)          -105.1959         calculate D2E/DX2 analytically  !
 ! D56   D(5,6,29,58)           99.8962         calculate D2E/DX2 analytically  !
 ! D57   D(7,6,29,9)            13.6088         calculate D2E/DX2 analytically  !
 ! D58   D(7,6,29,58)         -141.299          calculate D2E/DX2 analytically  !
 ! D59   D(41,6,29,9)          131.5675         calculate D2E/DX2 analytically  !
 ! D60   D(41,6,29,58)         -23.3404         calculate D2E/DX2 analytically  !
 ! D61   D(6,7,8,9)             16.4317         calculate D2E/DX2 analytically  !
 ! D62   D(42,7,8,9)          -103.9525         calculate D2E/DX2 analytically  !
 ! D63   D(43,7,8,9)           137.6613         calculate D2E/DX2 analytically  !
 ! D64   D(7,8,9,10)           170.3717         calculate D2E/DX2 analytically  !
 ! D65   D(7,8,9,29)            -8.8186         calculate D2E/DX2 analytically  !
 ! D66   D(8,9,10,11)            4.7118         calculate D2E/DX2 analytically  !
 ! D67   D(8,9,10,28)         -175.6802         calculate D2E/DX2 analytically  !
 ! D68   D(29,9,10,11)        -176.1263         calculate D2E/DX2 analytically  !
 ! D69   D(29,9,10,28)           3.4817         calculate D2E/DX2 analytically  !
 ! D70   D(8,9,29,6)            -3.7204         calculate D2E/DX2 analytically  !
 ! D71   D(8,9,29,58)          158.0923         calculate D2E/DX2 analytically  !
 ! D72   D(10,9,29,6)          177.0977         calculate D2E/DX2 analytically  !
 ! D73   D(10,9,29,58)         -21.0897         calculate D2E/DX2 analytically  !
 ! D74   D(9,10,11,12)         179.4478         calculate D2E/DX2 analytically  !
 ! D75   D(9,10,11,44)          -0.6531         calculate D2E/DX2 analytically  !
 ! D76   D(28,10,11,12)         -0.1206         calculate D2E/DX2 analytically  !
 ! D77   D(28,10,11,44)        179.7786         calculate D2E/DX2 analytically  !
 ! D78   D(9,10,28,14)        -179.9005         calculate D2E/DX2 analytically  !
 ! D79   D(11,10,28,14)         -0.2913         calculate D2E/DX2 analytically  !
 ! D80   D(10,11,12,13)          0.2965         calculate D2E/DX2 analytically  !
 ! D81   D(10,11,12,45)       -179.9673         calculate D2E/DX2 analytically  !
 ! D82   D(44,11,12,13)       -179.6004         calculate D2E/DX2 analytically  !
 ! D83   D(44,11,12,45)          0.1357         calculate D2E/DX2 analytically  !
 ! D84   D(11,12,13,14)         -0.0816         calculate D2E/DX2 analytically  !
 ! D85   D(11,12,13,46)        178.7272         calculate D2E/DX2 analytically  !
 ! D86   D(45,12,13,14)       -179.8173         calculate D2E/DX2 analytically  !
 ! D87   D(45,12,13,46)         -1.0085         calculate D2E/DX2 analytically  !
 ! D88   D(12,13,14,15)        177.6022         calculate D2E/DX2 analytically  !
 ! D89   D(12,13,14,28)         -0.336          calculate D2E/DX2 analytically  !
 ! D90   D(46,13,14,15)         -1.2316         calculate D2E/DX2 analytically  !
 ! D91   D(46,13,14,28)       -179.1698         calculate D2E/DX2 analytically  !
 ! D92   D(13,14,15,16)        -68.2448         calculate D2E/DX2 analytically  !
 ! D93   D(13,14,15,22)        162.2793         calculate D2E/DX2 analytically  !
 ! D94   D(13,14,15,47)         46.1899         calculate D2E/DX2 analytically  !
 ! D95   D(28,14,15,16)        109.7232         calculate D2E/DX2 analytically  !
 ! D96   D(28,14,15,22)        -19.7527         calculate D2E/DX2 analytically  !
 ! D97   D(28,14,15,47)       -135.8421         calculate D2E/DX2 analytically  !
 ! D98   D(13,14,28,10)          0.5161         calculate D2E/DX2 analytically  !
 ! D99   D(15,14,28,10)       -177.4311         calculate D2E/DX2 analytically  !
 ! D100  D(14,15,16,17)        127.6888         calculate D2E/DX2 analytically  !
 ! D101  D(14,15,16,21)        -51.918          calculate D2E/DX2 analytically  !
 ! D102  D(22,15,16,17)       -104.4            calculate D2E/DX2 analytically  !
 ! D103  D(22,15,16,21)         75.9932         calculate D2E/DX2 analytically  !
 ! D104  D(47,15,16,17)         13.9892         calculate D2E/DX2 analytically  !
 ! D105  D(47,15,16,21)       -165.6176         calculate D2E/DX2 analytically  !
 ! D106  D(14,15,22,23)        -68.5638         calculate D2E/DX2 analytically  !
 ! D107  D(14,15,22,27)        111.3592         calculate D2E/DX2 analytically  !
 ! D108  D(16,15,22,23)        165.3195         calculate D2E/DX2 analytically  !
 ! D109  D(16,15,22,27)        -14.7575         calculate D2E/DX2 analytically  !
 ! D110  D(47,15,22,23)         46.8903         calculate D2E/DX2 analytically  !
 ! D111  D(47,15,22,27)       -133.1867         calculate D2E/DX2 analytically  !
 ! D112  D(15,16,17,18)       -179.8648         calculate D2E/DX2 analytically  !
 ! D113  D(15,16,17,48)          0.5083         calculate D2E/DX2 analytically  !
 ! D114  D(21,16,17,18)         -0.2538         calculate D2E/DX2 analytically  !
 ! D115  D(21,16,17,48)       -179.8806         calculate D2E/DX2 analytically  !
 ! D116  D(15,16,21,20)       -179.9648         calculate D2E/DX2 analytically  !
 ! D117  D(15,16,21,52)         -2.0841         calculate D2E/DX2 analytically  !
 ! D118  D(17,16,21,20)          0.4283         calculate D2E/DX2 analytically  !
 ! D119  D(17,16,21,52)        178.3091         calculate D2E/DX2 analytically  !
 ! D120  D(16,17,18,19)          0.0977         calculate D2E/DX2 analytically  !
 ! D121  D(16,17,18,49)       -179.9223         calculate D2E/DX2 analytically  !
 ! D122  D(48,17,18,19)        179.7235         calculate D2E/DX2 analytically  !
 ! D123  D(48,17,18,49)         -0.2965         calculate D2E/DX2 analytically  !
 ! D124  D(17,18,19,20)         -0.1172         calculate D2E/DX2 analytically  !
 ! D125  D(17,18,19,50)       -179.9991         calculate D2E/DX2 analytically  !
 ! D126  D(49,18,19,20)        179.9028         calculate D2E/DX2 analytically  !
 ! D127  D(49,18,19,50)          0.0209         calculate D2E/DX2 analytically  !
 ! D128  D(18,19,20,21)          0.2978         calculate D2E/DX2 analytically  !
 ! D129  D(18,19,20,51)       -179.5242         calculate D2E/DX2 analytically  !
 ! D130  D(50,19,20,21)       -179.8204         calculate D2E/DX2 analytically  !
 ! D131  D(50,19,20,51)          0.3575         calculate D2E/DX2 analytically  !
 ! D132  D(19,20,21,16)         -0.4535         calculate D2E/DX2 analytically  !
 ! D133  D(19,20,21,52)       -178.3368         calculate D2E/DX2 analytically  !
 ! D134  D(51,20,21,16)        179.3701         calculate D2E/DX2 analytically  !
 ! D135  D(51,20,21,52)          1.4868         calculate D2E/DX2 analytically  !
 ! D136  D(15,22,23,24)        179.8565         calculate D2E/DX2 analytically  !
 ! D137  D(15,22,23,53)          0.3247         calculate D2E/DX2 analytically  !
 ! D138  D(27,22,23,24)         -0.0698         calculate D2E/DX2 analytically  !
 ! D139  D(27,22,23,53)       -179.6016         calculate D2E/DX2 analytically  !
 ! D140  D(15,22,27,26)       -179.6301         calculate D2E/DX2 analytically  !
 ! D141  D(15,22,27,57)         -0.3891         calculate D2E/DX2 analytically  !
 ! D142  D(23,22,27,26)          0.2927         calculate D2E/DX2 analytically  !
 ! D143  D(23,22,27,57)        179.5337         calculate D2E/DX2 analytically  !
 ! D144  D(22,23,24,25)         -0.1996         calculate D2E/DX2 analytically  !
 ! D145  D(22,23,24,54)       -179.1911         calculate D2E/DX2 analytically  !
 ! D146  D(53,23,24,25)        179.3298         calculate D2E/DX2 analytically  !
 ! D147  D(53,23,24,54)          0.3382         calculate D2E/DX2 analytically  !
 ! D148  D(23,24,25,26)          0.2459         calculate D2E/DX2 analytically  !
 ! D149  D(23,24,25,55)       -178.0945         calculate D2E/DX2 analytically  !
 ! D150  D(54,24,25,26)        179.233          calculate D2E/DX2 analytically  !
 ! D151  D(54,24,25,55)          0.8926         calculate D2E/DX2 analytically  !
 ! D152  D(24,25,26,27)         -0.0232         calculate D2E/DX2 analytically  !
 ! D153  D(24,25,26,56)       -177.7948         calculate D2E/DX2 analytically  !
 ! D154  D(55,25,26,27)        178.3181         calculate D2E/DX2 analytically  !
 ! D155  D(55,25,26,56)          0.5465         calculate D2E/DX2 analytically  !
 ! D156  D(25,26,27,22)         -0.249          calculate D2E/DX2 analytically  !
 ! D157  D(25,26,27,57)       -179.4905         calculate D2E/DX2 analytically  !
 ! D158  D(56,26,27,22)        177.5425         calculate D2E/DX2 analytically  !
 ! D159  D(56,26,27,57)         -1.699          calculate D2E/DX2 analytically  !
 ! D160  D(6,29,58,59)          93.0541         calculate D2E/DX2 analytically  !
 ! D161  D(6,29,58,60)         -24.3135         calculate D2E/DX2 analytically  !
 ! D162  D(9,29,58,59)         -61.3155         calculate D2E/DX2 analytically  !
 ! D163  D(9,29,58,60)        -178.6831         calculate D2E/DX2 analytically  !
 --------------------------------------------------------------------------------
 Trust Radius=3.00D-01 FncErr=1.00D-07 GrdErr=1.00D-07 EigMax=2.50D+02 EigMin=1.00D-04
 Number of steps in this run=      2 maximum allowed number of steps=      2.
 GradGradGradGradGradGradGradGradGradGradGradGradGradGradGradGradGradGrad

 Stoichiometry    C26H28F2N2NiO(3)
 Framework group  C1[X(C26H28F2N2NiO)]
 Deg. of freedom   174
 Full point group                 C1      NOp   1
 Largest Abelian subgroup         C1      NOp   1
 Largest concise Abelian subgroup C1      NOp   1
                         Standard orientation:                         
 ---------------------------------------------------------------------
 Center     Atomic      Atomic             Coordinates (Angstroms)
 Number     Number       Type             X           Y           Z
 ---------------------------------------------------------------------
      1          6           0       -3.392928   -1.373835    1.077923
      2          6           0       -4.526701   -0.772810    0.223384
      3          6           0       -5.860128   -0.931668    0.978979
      4          6           0       -4.595071   -1.520966   -1.119272
      5          6           0       -4.341975    0.745519   -0.011428
      6          6           0       -3.239101    1.250973   -0.956328
      7          6           0       -3.270538    2.799168   -1.065557
      8          8           0       -2.165550    3.241406   -0.208941
      9          6           0       -1.417151    2.142735   -0.022754
     10          6           0       -0.099928    2.238501    0.616297
     11          6           0        0.412655    3.412853    1.145382
     12          6           0        1.679098    3.357217    1.736892
     13          6           0        2.359403    2.149839    1.762544
     14          6           0        1.771148    1.003405    1.198965
     15          6           0        2.541774   -0.310992    1.178410
     16          6           0        3.721426   -0.181183    0.222197
     17          6           0        5.007256   -0.509845    0.661538
     18          6           0        6.100758   -0.395200   -0.197464
     19          6           0        5.912485    0.052721   -1.505257
     20          6           0        4.629000    0.381200   -1.946521
     21          6           0        3.532237    0.272260   -1.091386
     22          6           0        1.637752   -1.517278    0.943220
     23          6           0        0.731161   -1.879116    1.952329
     24          6           0       -0.119535   -2.969481    1.789376
     25          6           0       -0.080686   -3.715643    0.609894
     26          6           0        0.814203   -3.367085   -0.396437
     27          6           0        1.672754   -2.275691   -0.233741
     28          7           0        0.562267    1.059989    0.644695
     29          7           0       -1.881859    1.021184   -0.432945
     30          1           0       -3.145010   -0.729782    1.931644
     31          1           0       -3.705370   -2.347412    1.476558
     32          1           0       -2.502084   -1.544538    0.472454
     33          1           0       -5.839911   -0.400058    1.939222
     34          1           0       -6.058461   -1.989034    1.187092
     35          1           0       -6.702883   -0.540854    0.394833
     36          1           0       -4.889196   -2.564270   -0.953647
     37          1           0       -3.613188   -1.532146   -1.601131
     38          1           0       -5.338045   -1.070569   -1.791439
     39          1           0       -5.281452    1.131945   -0.433353
     40          1           0       -4.211420    1.247375    0.958752
     41          1           0       -3.319149    0.772783   -1.934416
     42          1           0       -3.061832    3.167957   -2.073762
     43          1           0       -4.184197    3.252505   -0.679448
     44          1           0       -0.160552    4.330762    1.091854
     45          1           0        2.123567    4.249867    2.165866
     46          1           0        3.351816    2.074162    2.194674
     47          1           0        2.962041   -0.423507    2.186523
     48          1           0        5.153036   -0.863382    1.680023
     49          1           0        7.095164   -0.654847    0.155184
     50          1           0        6.761566    0.143321   -2.177225
     51          1           0        4.474428    0.723269   -2.966121
     52          1           0        2.529914    0.505328   -1.453523
     53          1           0        0.691035   -1.292993    2.867918
     54          1           0       -0.823434   -3.226386    2.575568
     55          1           0       -0.763706   -4.546863    0.467459
     56          1           0        0.827154   -3.918424   -1.330416
     57          1           0        2.359872   -2.008327   -1.027522
     58         28           0       -0.385778   -0.341140   -0.723849
     59          9           0        0.638184    0.471263   -2.030177
     60          9           0       -1.398474   -1.738710   -1.322454
 ---------------------------------------------------------------------
 Rotational constants (GHZ):           0.2272739           0.1036997           0.0862688
 Basis read from chk: "Lig2224_xyz_4.chk" (6D, 7F)
 Pseudo-potential data read from chk file.
 There are   598 symmetry adapted cartesian basis functions of A   symmetry.
 There are   595 symmetry adapted basis functions of A   symmetry.
   595 basis functions,  1134 primitive gaussians,   598 cartesian basis functions
   122 alpha electrons      120 beta electrons
       nuclear repulsion energy      3764.4299108274 Hartrees.
 NAtoms=   60 NActive=   60 NUniq=   60 SFac= 1.00D+00 NAtFMM=   60 NAOKFM=T Big=T
 Integral buffers will be    131072 words long.
 Raffenetti 2 integral format.
 Two-electron integral symmetry is turned on.
 Nuclear repulsion after empirical dispersion term =     3764.2725774964 Hartrees.
 One-electron integrals computed using PRISM.
 PrsmSu:  requested number of processors reduced to:  12 ShMem   1 Linda.
   1 Symmetry operations used in ECPInt.
 ECPInt:  NShTT=   20301 NPrTT=  123456 LenC2=   17174 LenP2D=   56656.
 LDataN:  DoStor=T MaxTD1= 6 Len=  172
 Number of processors reduced to  12 by ecpmxn.
 NBasis=   595 RedAO= T EigKep=  6.97D-06  NBF=   595
 NBsUse=   594 1.00D-06 EigRej=  9.33D-07 NBFU=   594
 Initial guess from the checkpoint file:  "Lig2224_xyz_4.chk"
 B after Tr=     0.000000    0.000000   -0.000000
         Rot=    1.000000   -0.000000   -0.000000    0.000000 Ang=   0.00 deg.
 Initial guess <Sx>= 0.0000 <Sy>= 0.0000 <Sz>= 1.0000 <S**2>= 2.0053 S= 1.0018
 Requested convergence on RMS density matrix=1.00D-08 within 128 cycles.
 Requested convergence on MAX density matrix=1.00D-06.
 Requested convergence on             energy=1.00D-06.
 No special actions if energy rises.
 SCF Done:  E(UB3LYP) =  -1561.66771370     A.U. after    1 cycles
            NFock=  1  Conv=0.36D-08     -V/T= 2.0504
 <Sx>= 0.0000 <Sy>= 0.0000 <Sz>= 1.0000 <S**2>= 2.0053 S= 1.0018
 <L.S>=  0.00000000000    
 Annihilation of the first spin contaminant:
 S**2 before annihilation     2.0053,   after     2.0000
 DoSCS=F DFT=T ScalE2(SS,OS)=  1.000000  1.000000
 Range of M.O.s used for correlation:     1   594
 NBasis=   595 NAE=   122 NBE=   120 NFC=     0 NFV=     0
 NROrb=    594 NOA=   122 NOB=   120 NVA=   472 NVB=   474

 **** Warning!!: The largest alpha MO coefficient is  0.15920392D+03


 **** Warning!!: The largest beta MO coefficient is  0.15917581D+03

 PrsmSu:  requested number of processors reduced to:  11 ShMem   1 Linda.
 PrsmSu:  requested number of processors reduced to:   2 ShMem   1 Linda.
   1 Symmetry operations used in ECPInt.
 ECPInt:  NShTT=   20301 NPrTT=  123456 LenC2=   17174 LenP2D=   56656.
 LDataN:  DoStor=T MaxTD1= 7 Len=  274
 Number of processors reduced to   1 by ecpmxn.
 Symmetrizing basis deriv contribution to polar:
 IMax=3 JMax=2 DiffMx= 0.00D+00
 G2DrvN: will do     1 centers at a time, making   61 passes.
 Calling FoFCou, ICntrl=  3107 FMM=T I1Cent=   0 AccDes= 0.00D+00.
 Calling FoFCou, ICntrl=  3107 FMM=T I1Cent=   0 AccDes= 0.00D+00.
 Calling FoFCou, ICntrl=  3107 FMM=T I1Cent=   0 AccDes= 0.00D+00.
 Calling FoFCou, ICntrl=  3107 FMM=T I1Cent=   0 AccDes= 0.00D+00.
 Calling FoFCou, ICntrl=  3107 FMM=T I1Cent=   0 AccDes= 0.00D+00.
 Calling FoFCou, ICntrl=  3107 FMM=T I1Cent=   0 AccDes= 0.00D+00.
 Calling FoFCou, ICntrl=  3107 FMM=T I1Cent=   0 AccDes= 0.00D+00.
 Calling FoFCou, ICntrl=  3107 FMM=T I1Cent=   0 AccDes= 0.00D+00.
 Calling FoFCou, ICntrl=  3107 FMM=T I1Cent=   0 AccDes= 0.00D+00.
 Calling FoFCou, ICntrl=  3107 FMM=T I1Cent=   0 AccDes= 0.00D+00.
 Calling FoFCou, ICntrl=  3107 FMM=T I1Cent=   0 AccDes= 0.00D+00.
 Calling FoFCou, ICntrl=  3107 FMM=T I1Cent=   0 AccDes= 0.00D+00.
 Calling FoFCou, ICntrl=  3107 FMM=T I1Cent=   0 AccDes= 0.00D+00.
 Calling FoFCou, ICntrl=  3107 FMM=T I1Cent=   0 AccDes= 0.00D+00.
 Calling FoFCou, ICntrl=  3107 FMM=T I1Cent=   0 AccDes= 0.00D+00.
 Calling FoFCou, ICntrl=  3107 FMM=T I1Cent=   0 AccDes= 0.00D+00.
 Calling FoFCou, ICntrl=  3107 FMM=T I1Cent=   0 AccDes= 0.00D+00.
 Calling FoFCou, ICntrl=  3107 FMM=T I1Cent=   0 AccDes= 0.00D+00.
 Calling FoFCou, ICntrl=  3107 FMM=T I1Cent=   0 AccDes= 0.00D+00.
 Calling FoFCou, ICntrl=  3107 FMM=T I1Cent=   0 AccDes= 0.00D+00.
 Calling FoFCou, ICntrl=  3107 FMM=T I1Cent=   0 AccDes= 0.00D+00.
 Calling FoFCou, ICntrl=  3107 FMM=T I1Cent=   0 AccDes= 0.00D+00.
 Calling FoFCou, ICntrl=  3107 FMM=T I1Cent=   0 AccDes= 0.00D+00.
 Calling FoFCou, ICntrl=  3107 FMM=T I1Cent=   0 AccDes= 0.00D+00.
 Calling FoFCou, ICntrl=  3107 FMM=T I1Cent=   0 AccDes= 0.00D+00.
 Calling FoFCou, ICntrl=  3107 FMM=T I1Cent=   0 AccDes= 0.00D+00.
 Calling FoFCou, ICntrl=  3107 FMM=T I1Cent=   0 AccDes= 0.00D+00.
 Calling FoFCou, ICntrl=  3107 FMM=T I1Cent=   0 AccDes= 0.00D+00.
 Calling FoFCou, ICntrl=  3107 FMM=T I1Cent=   0 AccDes= 0.00D+00.
 Calling FoFCou, ICntrl=  3107 FMM=T I1Cent=   0 AccDes= 0.00D+00.
 Calling FoFCou, ICntrl=  3107 FMM=T I1Cent=   0 AccDes= 0.00D+00.
 Calling FoFCou, ICntrl=  3107 FMM=T I1Cent=   0 AccDes= 0.00D+00.
 Calling FoFCou, ICntrl=  3107 FMM=T I1Cent=   0 AccDes= 0.00D+00.
 Calling FoFCou, ICntrl=  3107 FMM=T I1Cent=   0 AccDes= 0.00D+00.
 Calling FoFCou, ICntrl=  3107 FMM=T I1Cent=   0 AccDes= 0.00D+00.
 Calling FoFCou, ICntrl=  3107 FMM=T I1Cent=   0 AccDes= 0.00D+00.
 Calling FoFCou, ICntrl=  3107 FMM=T I1Cent=   0 AccDes= 0.00D+00.
 Calling FoFCou, ICntrl=  3107 FMM=T I1Cent=   0 AccDes= 0.00D+00.
 Calling FoFCou, ICntrl=  3107 FMM=T I1Cent=   0 AccDes= 0.00D+00.
 Calling FoFCou, ICntrl=  3107 FMM=T I1Cent=   0 AccDes= 0.00D+00.
 Calling FoFCou, ICntrl=  3107 FMM=T I1Cent=   0 AccDes= 0.00D+00.
 Calling FoFCou, ICntrl=  3107 FMM=T I1Cent=   0 AccDes= 0.00D+00.
 Calling FoFCou, ICntrl=  3107 FMM=T I1Cent=   0 AccDes= 0.00D+00.
 Calling FoFCou, ICntrl=  3107 FMM=T I1Cent=   0 AccDes= 0.00D+00.
 Calling FoFCou, ICntrl=  3107 FMM=T I1Cent=   0 AccDes= 0.00D+00.
 Calling FoFCou, ICntrl=  3107 FMM=T I1Cent=   0 AccDes= 0.00D+00.
 Calling FoFCou, ICntrl=  3107 FMM=T I1Cent=   0 AccDes= 0.00D+00.
 Calling FoFCou, ICntrl=  3107 FMM=T I1Cent=   0 AccDes= 0.00D+00.
 Calling FoFCou, ICntrl=  3107 FMM=T I1Cent=   0 AccDes= 0.00D+00.
 Calling FoFCou, ICntrl=  3107 FMM=T I1Cent=   0 AccDes= 0.00D+00.
 Calling FoFCou, ICntrl=  3107 FMM=T I1Cent=   0 AccDes= 0.00D+00.
 Calling FoFCou, ICntrl=  3107 FMM=T I1Cent=   0 AccDes= 0.00D+00.
 Calling FoFCou, ICntrl=  3107 FMM=T I1Cent=   0 AccDes= 0.00D+00.
 Calling FoFCou, ICntrl=  3107 FMM=T I1Cent=   0 AccDes= 0.00D+00.
 Calling FoFCou, ICntrl=  3107 FMM=T I1Cent=   0 AccDes= 0.00D+00.
 Calling FoFCou, ICntrl=  3107 FMM=T I1Cent=   0 AccDes= 0.00D+00.
 Calling FoFCou, ICntrl=  3107 FMM=T I1Cent=   0 AccDes= 0.00D+00.
 Calling FoFCou, ICntrl=  3107 FMM=T I1Cent=   0 AccDes= 0.00D+00.
 Calling FoFCou, ICntrl=  3107 FMM=T I1Cent=   0 AccDes= 0.00D+00.
 Calling FoFCou, ICntrl=  3107 FMM=T I1Cent=   0 AccDes= 0.00D+00.
 Calling FoFCou, ICntrl=  3107 FMM=T I1Cent=   0 AccDes= 0.00D+00.
 End of G2Drv F.D. properties file   721 does not exist.
 End of G2Drv F.D. properties file   722 does not exist.
 End of G2Drv F.D. properties file   788 does not exist.
          IDoAtm=11111111111111111111111111111111111111111111111111
          IDoAtm=1111111111
          Differentiating once with respect to electric field.
                with respect to dipole field.
          Differentiating once with respect to nuclear coordinates.
 CalDSu exits because no D1Ps are significant.
          There are   183 degrees of freedom in the 1st order CPHF.  IDoFFX=6 NUNeed=     3.
    183 vectors produced by pass  0 Test12= 1.14D-13 1.00D-09 XBig12= 7.25D+02 5.44D+00.
 AX will form     3 AO Fock derivatives at one time.
    183 vectors produced by pass  1 Test12= 1.14D-13 1.00D-09 XBig12= 1.29D+02 1.32D+00.
