 Entering Gaussian System, Link 0=g16
 Input=Lig2214_xyz_3.com
 Output=Lig2214_xyz_3.log
 Initial command:
 /uufs/chpc.utah.edu/sys/installdir/gaussian16/C01/AVX/g16/l1.exe "/scratch/general/vast/u1365460/GAUSSSCRDIR/11267757-notchpeak.peaks/Gau-1573504.inp" -scrdir="/scratch/general/vast/u1365460/GAUSSSCRDIR/11267757-notchpeak.peaks/"
 Entering Link 1 = /uufs/chpc.utah.edu/sys/installdir/gaussian16/C01/AVX/g16/l1.exe PID=   1573505.
  
 Copyright (c) 1988-2019, Gaussian, Inc.  All Rights Reserved.
  
 This is part of the Gaussian(R) 16 program.  It is based on
 the Gaussian(R) 09 system (copyright 2009, Gaussian, Inc.),
 the Gaussian(R) 03 system (copyright 2003, Gaussian, Inc.),
 the Gaussian(R) 98 system (copyright 1998, Gaussian, Inc.),
 the Gaussian(R) 94 system (copyright 1995, Gaussian, Inc.),
 the Gaussian 92(TM) system (copyright 1992, Gaussian, Inc.),
 the Gaussian 90(TM) system (copyright 1990, Gaussian, Inc.),
 the Gaussian 88(TM) system (copyright 1988, Gaussian, Inc.),
 the Gaussian 86(TM) system (copyright 1986, Carnegie Mellon
 University), and the Gaussian 82(TM) system (copyright 1983,
 Carnegie Mellon University). Gaussian is a federally registered
 trademark of Gaussian, Inc.
  
 This software contains proprietary and confidential information,
 including trade secrets, belonging to Gaussian, Inc.
  
 This software is provided under written license and may be
 used, copied, transmitted, or stored only in accord with that
 written license.
  
 The following legend is applicable only to US Government
 contracts under FAR:
  
                    RESTRICTED RIGHTS LEGEND
  
 Use, reproduction and disclosure by the US Government is
 subject to restrictions as set forth in subparagraphs (a)
 and (c) of the Commercial Computer Software - Restricted
 Rights clause in FAR 52.227-19.
  
 Gaussian, Inc.
 340 Quinnipiac St., Bldg. 40, Wallingford CT 06492
  
  
 ---------------------------------------------------------------
 Warning -- This program may not be used in any manner that
 competes with the business of Gaussian, Inc. or will provide
 assistance to any competitor of Gaussian, Inc.  The licensee
 of this program is prohibited from giving any competitor of
 Gaussian, Inc. access to this program.  By using this program,
 the user acknowledges that Gaussian, Inc. is engaged in the
 business of creating and licensing software in the field of
 computational chemistry and represents and warrants to the
 licensee that it is not a competitor of Gaussian, Inc. and that
 it will not use this program in any manner prohibited above.
 ---------------------------------------------------------------
  

 Cite this work as:
 Gaussian 16, Revision C.01,
 M. J. Frisch, G. W. Trucks, H. B. Schlegel, G. E. Scuseria, 
 M. A. Robb, J. R. Cheeseman, G. Scalmani, V. Barone, 
 G. A. Petersson, H. Nakatsuji, X. Li, M. Caricato, A. V. Marenich, 
 J. Bloino, B. G. Janesko, R. Gomperts, B. Mennucci, H. P. Hratchian, 
 J. V. Ortiz, A. F. Izmaylov, J. L. Sonnenberg, D. Williams-Young, 
 F. Ding, F. Lipparini, F. Egidi, J. Goings, B. Peng, A. Petrone, 
 T. Henderson, D. Ranasinghe, V. G. Zakrzewski, J. Gao, N. Rega, 
 G. Zheng, W. Liang, M. Hada, M. Ehara, K. Toyota, R. Fukuda, 
 J. Hasegawa, M. Ishida, T. Nakajima, Y. Honda, O. Kitao, H. Nakai, 
 T. Vreven, K. Throssell, J. A. Montgomery, Jr., J. E. Peralta, 
 F. Ogliaro, M. J. Bearpark, J. J. Heyd, E. N. Brothers, K. N. Kudin, 
 V. N. Staroverov, T. A. Keith, R. Kobayashi, J. Normand, 
 K. Raghavachari, A. P. Rendell, J. C. Burant, S. S. Iyengar, 
 J. Tomasi, M. Cossi, J. M. Millam, M. Klene, C. Adamo, R. Cammi, 
 J. W. Ochterski, R. L. Martin, K. Morokuma, O. Farkas, 
 J. B. Foresman, and D. J. Fox, Gaussian, Inc., Wallingford CT, 2019.
 
 ******************************************
 Gaussian 16:  ES64L-G16RevC.01  3-Jul-2019
                 6-Mar-2026 
 ******************************************
 %NProcShared=16
 Will use up to   16 processors via shared memory.
 %chk=Lig2214_xyz_3.chk
 ----------------------------------------------------------------------
 # B3LYP gen 6D pseudo=read int=(grid=fine) empiricaldispersion=GD3BJ o
 pt freq=noraman SCF=XQC
 ----------------------------------------------------------------------
 1/18=20,19=15,26=3,38=1/1,3;
 2/9=110,12=2,17=6,18=5,40=1/2;
 3/5=7,8=2,11=2,16=1,17=8,25=1,30=1,71=1,74=-5,75=-4,124=41/1,2,3;
 4//1;
 5/5=2,8=3,13=1,38=5/2,8;
 6/7=2,8=2,9=2,10=2,28=1/1;
 7//1,2,3,16;
 1/18=20,19=15,26=3/3(2);
 2/9=110/2;
 99//99;
 2/9=110/2;
 3/5=7,6=1,8=2,11=2,16=1,17=8,25=1,30=1,71=1,74=-5,75=-4,82=7,124=41/1,2,3;
 4/5=5,16=3,69=1/1;
 5/5=2,8=3,13=1,38=5/2,8;
 7//1,2,3,16;
 1/18=20,19=15,26=3/3(-5);
 2/9=110/2;
 6/7=2,8=2,9=2,10=2,19=2,28=1/1;
 99/9=1/99;
 -----------
 Lig2214.xyz
 -----------
 Symbolic Z-matrix:
 Charge =  0 Multiplicity = 3
 C                    -6.0354    1.6355   -2.596 
 C                    -4.8302    2.2609   -3.32 
 C                    -3.5105    1.4483   -3.2915 
 C                    -3.617     0.1352   -4.1038 
 C                    -2.908     1.2988   -1.8544 
 C                    -3.4741    0.1454   -0.9893 
 O                    -2.4421   -0.8359   -1.0346 
 C                    -1.3411   -0.2339   -1.5602 
 C                    -0.0309   -0.8926   -1.7485 
 C                     0.3387   -2.1547   -1.2853 
 C                     1.6129   -2.6389   -1.6066 
 O                     1.9301   -3.8904   -1.1229 
 C                     3.2048   -4.449    -1.4222 
 C                     2.4746   -1.8429   -2.3929 
 C                     2.0462   -0.5861   -2.8328 
 N                     0.8183   -0.1323   -2.5 
 N                    -1.5151    0.9621   -1.9237 
 H                    -6.2554    0.6339   -2.966 
 H                    -5.8752    1.5774   -1.5199 
 H                    -6.9297    2.2401   -2.7512 
 H                    -4.6463    3.2533   -2.9038 
 H                    -5.1068    2.4415   -4.3605 
 H                    -2.8072    2.0715   -3.8497 
 H                    -2.6446   -0.3466   -4.2106 
 H                    -4.2958   -0.5851   -3.649 
 H                    -3.9795    0.3305   -5.1137 
 H                    -2.9907    2.251    -1.3253 
 H                    -3.626     0.4646    0.0435 
 H                    -4.4148   -0.2653   -1.3538 
 H                    -0.3391   -2.7574   -0.6995 
 H                     3.3451   -4.5746   -2.497 
 H                     3.2821   -5.4349   -0.9636 
 H                     4.015    -3.8365   -1.0234 
 H                     3.4578   -2.1882   -2.6719 
 H                     2.6649    0.0464   -3.4571 
 Ni                   -0.0482    1.4529   -2.921 
 F                     0.8233    2.9802   -2.2849 
 F                    -0.4079    1.6556   -4.7448 
 

 GradGradGradGradGradGradGradGradGradGradGradGradGradGradGradGradGradGrad
 Berny optimization.
 Initialization pass.
                           ----------------------------
                           !    Initial Parameters    !
                           ! (Angstroms and Degrees)  !
 --------------------------                            --------------------------
 ! Name  Definition              Value          Derivative Info.                !
 --------------------------------------------------------------------------------
 ! R1    R(1,2)                  1.5388         estimate D2E/DX2                !
 ! R2    R(1,18)                 1.0902         estimate D2E/DX2                !
 ! R3    R(1,19)                 1.0895         estimate D2E/DX2                !
 ! R4    R(1,20)                 1.0906         estimate D2E/DX2                !
 ! R5    R(2,3)                  1.5501         estimate D2E/DX2                !
 ! R6    R(2,21)                 1.0917         estimate D2E/DX2                !
 ! R7    R(2,22)                 1.0917         estimate D2E/DX2                !
 ! R8    R(3,4)                  1.5477         estimate D2E/DX2                !
 ! R9    R(3,5)                  1.5654         estimate D2E/DX2                !
 ! R10   R(3,23)                 1.093          estimate D2E/DX2                !
 ! R11   R(4,24)                 1.0905         estimate D2E/DX2                !
 ! R12   R(4,25)                 1.0892         estimate D2E/DX2                !
 ! R13   R(4,26)                 1.0906         estimate D2E/DX2                !
 ! R14   R(5,6)                  1.5489         estimate D2E/DX2                !
 ! R15   R(5,17)                 1.4347         estimate D2E/DX2                !
 ! R16   R(5,27)                 1.0925         estimate D2E/DX2                !
 ! R17   R(6,7)                  1.4248         estimate D2E/DX2                !
 ! R18   R(6,28)                 1.0916         estimate D2E/DX2                !
 ! R19   R(6,29)                 1.0892         estimate D2E/DX2                !
 ! R20   R(7,8)                  1.3605         estimate D2E/DX2                !
 ! R21   R(8,9)                  1.4785         estimate D2E/DX2                !
 ! R22   R(8,17)                 1.2621         estimate D2E/DX2                !
 ! R23   R(9,10)                 1.3943         estimate D2E/DX2                !
 ! R24   R(9,16)                 1.3653         estimate D2E/DX2                !
 ! R25   R(10,11)                1.4005         estimate D2E/DX2                !
 ! R26   R(10,30)                1.0797         estimate D2E/DX2                !
 ! R27   R(11,12)                1.3787         estimate D2E/DX2                !
 ! R28   R(11,14)                1.4122         estimate D2E/DX2                !
 ! R29   R(12,13)                1.4235         estimate D2E/DX2                !
 ! R30   R(13,31)                1.0912         estimate D2E/DX2                !
 ! R31   R(13,32)                1.0901         estimate D2E/DX2                !
 ! R32   R(13,33)                1.0912         estimate D2E/DX2                !
 ! R33   R(14,15)                1.3988         estimate D2E/DX2                !
 ! R34   R(14,34)                1.0788         estimate D2E/DX2                !
 ! R35   R(15,16)                1.3507         estimate D2E/DX2                !
 ! R36   R(15,35)                1.0829         estimate D2E/DX2                !
 ! R37   R(16,36)                1.855          estimate D2E/DX2                !
 ! R38   R(17,36)                1.8405         estimate D2E/DX2                !
 ! R39   R(36,37)                1.87           estimate D2E/DX2                !
 ! R40   R(36,38)                1.87           estimate D2E/DX2                !
 ! A1    A(2,1,18)             111.825          estimate D2E/DX2                !
 ! A2    A(2,1,19)             111.7912         estimate D2E/DX2                !
 ! A3    A(2,1,20)             110.4861         estimate D2E/DX2                !
 ! A4    A(18,1,19)            108.4148         estimate D2E/DX2                !
 ! A5    A(18,1,20)            107.1907         estimate D2E/DX2                !
 ! A6    A(19,1,20)            106.8994         estimate D2E/DX2                !
 ! A7    A(1,2,3)              116.43           estimate D2E/DX2                !
 ! A8    A(1,2,21)             108.7844         estimate D2E/DX2                !
 ! A9    A(1,2,22)             108.496          estimate D2E/DX2                !
 ! A10   A(3,2,21)             109.0328         estimate D2E/DX2                !
 ! A11   A(3,2,22)             108.6607         estimate D2E/DX2                !
 ! A12   A(21,2,22)            104.8123         estimate D2E/DX2                !
 ! A13   A(2,3,4)              112.119          estimate D2E/DX2                !
 ! A14   A(2,3,5)              113.2421         estimate D2E/DX2                !
 ! A15   A(2,3,23)             103.8593         estimate D2E/DX2                !
 ! A16   A(4,3,5)              115.2945         estimate D2E/DX2                !
 ! A17   A(4,3,23)             105.0694         estimate D2E/DX2                !
 ! A18   A(5,3,23)             106.0002         estimate D2E/DX2                !
 ! A19   A(3,4,24)             111.4014         estimate D2E/DX2                !
 ! A20   A(3,4,25)             112.6305         estimate D2E/DX2                !
 ! A21   A(3,4,26)             110.9124         estimate D2E/DX2                !
 ! A22   A(24,4,25)            107.7241         estimate D2E/DX2                !
 ! A23   A(24,4,26)            106.5483         estimate D2E/DX2                !
 ! A24   A(25,4,26)            107.3327         estimate D2E/DX2                !
 ! A25   A(3,5,6)              116.3065         estimate D2E/DX2                !
 ! A26   A(3,5,17)             110.5934         estimate D2E/DX2                !
 ! A27   A(3,5,27)             109.4047         estimate D2E/DX2                !
 ! A28   A(6,5,17)             101.9497         estimate D2E/DX2                !
 ! A29   A(6,5,27)             110.5406         estimate D2E/DX2                !
 ! A30   A(17,5,27)            107.5443         estimate D2E/DX2                !
 ! A31   A(5,6,7)              103.3194         estimate D2E/DX2                !
 ! A32   A(5,6,28)             111.1945         estimate D2E/DX2                !
 ! A33   A(5,6,29)             114.1737         estimate D2E/DX2                !
 ! A34   A(7,6,28)             109.4061         estimate D2E/DX2                !
 ! A35   A(7,6,29)             110.8065         estimate D2E/DX2                !
 ! A36   A(28,6,29)            107.8594         estimate D2E/DX2                !
 ! A37   A(6,7,8)              107.0796         estimate D2E/DX2                !
 ! A38   A(7,8,9)              124.6961         estimate D2E/DX2                !
 ! A39   A(7,8,17)             114.7733         estimate D2E/DX2                !
 ! A40   A(9,8,17)             120.51           estimate D2E/DX2                !
 ! A41   A(8,9,10)             126.575          estimate D2E/DX2                !
 ! A42   A(8,9,16)             111.913          estimate D2E/DX2                !
 ! A43   A(10,9,16)            121.4713         estimate D2E/DX2                !
 ! A44   A(9,10,11)            118.5503         estimate D2E/DX2                !
 ! A45   A(9,10,30)            121.2723         estimate D2E/DX2                !
 ! A46   A(11,10,30)           120.1745         estimate D2E/DX2                !
 ! A47   A(10,11,12)           116.2752         estimate D2E/DX2                !
 ! A48   A(10,11,14)           119.2106         estimate D2E/DX2                !
 ! A49   A(12,11,14)           124.5132         estimate D2E/DX2                !
 ! A50   A(11,12,13)           119.2386         estimate D2E/DX2                !
 ! A51   A(12,13,31)           111.5552         estimate D2E/DX2                !
 ! A52   A(12,13,32)           109.2653         estimate D2E/DX2                !
 ! A53   A(12,13,33)           111.5781         estimate D2E/DX2                !
 ! A54   A(31,13,32)           107.5277         estimate D2E/DX2                !
 ! A55   A(31,13,33)           109.2167         estimate D2E/DX2                !
 ! A56   A(32,13,33)           107.5338         estimate D2E/DX2                !
 ! A57   A(11,14,15)           119.6473         estimate D2E/DX2                !
 ! A58   A(11,14,34)           121.3116         estimate D2E/DX2                !
 ! A59   A(15,14,34)           119.0383         estimate D2E/DX2                !
 ! A60   A(14,15,16)           120.1855         estimate D2E/DX2                !
 ! A61   A(14,15,35)           122.0822         estimate D2E/DX2                !
 ! A62   A(16,15,35)           117.724          estimate D2E/DX2                !
 ! A63   A(9,16,15)            120.9288         estimate D2E/DX2                !
 ! A64   A(9,16,36)            108.0757         estimate D2E/DX2                !
 ! A65   A(15,16,36)           130.9833         estimate D2E/DX2                !
 ! A66   A(5,17,8)             110.0194         estimate D2E/DX2                !
 ! A67   A(5,17,36)            137.5107         estimate D2E/DX2                !
 ! A68   A(8,17,36)            107.3914         estimate D2E/DX2                !
 ! A69   A(16,36,17)            91.2284         estimate D2E/DX2                !
 ! A70   A(16,36,37)           113.7699         estimate D2E/DX2                !
 ! A71   A(16,36,38)           113.8188         estimate D2E/DX2                !
 ! A72   A(17,36,37)           113.887          estimate D2E/DX2                !
 ! A73   A(17,36,38)           113.8344         estimate D2E/DX2                !
 ! A74   A(37,36,38)           109.444          estimate D2E/DX2                !
 ! D1    D(18,1,2,3)           -55.6492         estimate D2E/DX2                !
 ! D2    D(18,1,2,21)         -179.2721         estimate D2E/DX2                !
 ! D3    D(18,1,2,22)           67.2421         estimate D2E/DX2                !
 ! D4    D(19,1,2,3)            66.1254         estimate D2E/DX2                !
 ! D5    D(19,1,2,21)          -57.4975         estimate D2E/DX2                !
 ! D6    D(19,1,2,22)         -170.9833         estimate D2E/DX2                !
 ! D7    D(20,1,2,3)          -174.9562         estimate D2E/DX2                !
 ! D8    D(20,1,2,21)           61.421          estimate D2E/DX2                !
 ! D9    D(20,1,2,22)          -52.0649         estimate D2E/DX2                !
 ! D10   D(1,2,3,4)             67.3574         estimate D2E/DX2                !
 ! D11   D(1,2,3,5)            -65.2138         estimate D2E/DX2                !
 ! D12   D(1,2,3,23)          -179.7294         estimate D2E/DX2                !
 ! D13   D(21,2,3,4)          -169.148          estimate D2E/DX2                !
 ! D14   D(21,2,3,5)            58.2808         estimate D2E/DX2                !
 ! D15   D(21,2,3,23)          -56.2348         estimate D2E/DX2                !
 ! D16   D(22,2,3,4)           -55.4482         estimate D2E/DX2                !
 ! D17   D(22,2,3,5)           171.9806         estimate D2E/DX2                !
 ! D18   D(22,2,3,23)           57.4651         estimate D2E/DX2                !
 ! D19   D(2,3,4,24)           170.8829         estimate D2E/DX2                !
 ! D20   D(2,3,4,25)           -67.9429         estimate D2E/DX2                !
 ! D21   D(2,3,4,26)            52.377          estimate D2E/DX2                !
 ! D22   D(5,3,4,24)           -57.5716         estimate D2E/DX2                !
 ! D23   D(5,3,4,25)            63.6026         estimate D2E/DX2                !
 ! D24   D(5,3,4,26)          -176.0774         estimate D2E/DX2                !
 ! D25   D(23,3,4,24)           58.7219         estimate D2E/DX2                !
 ! D26   D(23,3,4,25)          179.8961         estimate D2E/DX2                !
 ! D27   D(23,3,4,26)          -59.7839         estimate D2E/DX2                !
 ! D28   D(2,3,5,6)             84.0482         estimate D2E/DX2                !
 ! D29   D(2,3,5,17)          -160.3256         estimate D2E/DX2                !
 ! D30   D(2,3,5,27)           -42.0464         estimate D2E/DX2                !
 ! D31   D(4,3,5,6)            -46.9626         estimate D2E/DX2                !
 ! D32   D(4,3,5,17)            68.6635         estimate D2E/DX2                !
 ! D33   D(4,3,5,27)          -173.0573         estimate D2E/DX2                !
 ! D34   D(23,3,5,6)          -162.7263         estimate D2E/DX2                !
 ! D35   D(23,3,5,17)          -47.1001         estimate D2E/DX2                !
 ! D36   D(23,3,5,27)           71.1791         estimate D2E/DX2                !
 ! D37   D(3,5,6,7)            104.1507         estimate D2E/DX2                !
 ! D38   D(3,5,6,28)          -138.5898         estimate D2E/DX2                !
 ! D39   D(3,5,6,29)           -16.2728         estimate D2E/DX2                !
 ! D40   D(17,5,6,7)           -16.2263         estimate D2E/DX2                !
 ! D41   D(17,5,6,28)          101.0331         estimate D2E/DX2                !
 ! D42   D(17,5,6,29)         -136.6499         estimate D2E/DX2                !
 ! D43   D(27,5,6,7)          -130.3269         estimate D2E/DX2                !
 ! D44   D(27,5,6,28)          -13.0674         estimate D2E/DX2                !
 ! D45   D(27,5,6,29)          109.2496         estimate D2E/DX2                !
 ! D46   D(3,5,17,8)          -109.0831         estimate D2E/DX2                !
 ! D47   D(3,5,17,36)           41.2297         estimate D2E/DX2                !
 ! D48   D(6,5,17,8)            15.2105         estimate D2E/DX2                !
 ! D49   D(6,5,17,36)          165.5233         estimate D2E/DX2                !
 ! D50   D(27,5,17,8)          131.509          estimate D2E/DX2                !
 ! D51   D(27,5,17,36)         -78.1781         estimate D2E/DX2                !
 ! D52   D(5,6,7,8)             12.3347         estimate D2E/DX2                !
 ! D53   D(28,6,7,8)          -106.175          estimate D2E/DX2                !
 ! D54   D(29,6,7,8)           135.0283         estimate D2E/DX2                !
 ! D55   D(6,7,8,9)            178.3048         estimate D2E/DX2                !
 ! D56   D(6,7,8,17)            -3.3471         estimate D2E/DX2                !
 ! D57   D(7,8,9,10)            -8.1854         estimate D2E/DX2                !
 ! D58   D(7,8,9,16)           169.5056         estimate D2E/DX2                !
 ! D59   D(17,8,9,10)          173.5556         estimate D2E/DX2                !
 ! D60   D(17,8,9,16)           -8.7535         estimate D2E/DX2                !
 ! D61   D(7,8,17,5)            -8.3929         estimate D2E/DX2                !
 ! D62   D(7,8,17,36)         -167.8718         estimate D2E/DX2                !
 ! D63   D(9,8,17,5)           170.0307         estimate D2E/DX2                !
 ! D64   D(9,8,17,36)           10.5518         estimate D2E/DX2                !
 ! D65   D(8,9,10,11)          177.4941         estimate D2E/DX2                !
 ! D66   D(8,9,10,30)           -1.8929         estimate D2E/DX2                !
 ! D67   D(16,9,10,11)           0.0059         estimate D2E/DX2                !
 ! D68   D(16,9,10,30)        -179.3811         estimate D2E/DX2                !
 ! D69   D(8,9,16,15)         -177.1388         estimate D2E/DX2                !
 ! D70   D(8,9,16,36)            1.7262         estimate D2E/DX2                !
 ! D71   D(10,9,16,15)           0.6871         estimate D2E/DX2                !
 ! D72   D(10,9,16,36)         179.5521         estimate D2E/DX2                !
 ! D73   D(9,10,11,12)         179.897          estimate D2E/DX2                !
 ! D74   D(9,10,11,14)          -0.4542         estimate D2E/DX2                !
 ! D75   D(30,10,11,12)         -0.7091         estimate D2E/DX2                !
 ! D76   D(30,10,11,14)        178.9397         estimate D2E/DX2                !
 ! D77   D(10,11,12,13)        179.4294         estimate D2E/DX2                !
 ! D78   D(14,11,12,13)         -0.1986         estimate D2E/DX2                !
 ! D79   D(10,11,14,15)          0.2415         estimate D2E/DX2                !
 ! D80   D(10,11,14,34)       -179.1373         estimate D2E/DX2                !
 ! D81   D(12,11,14,15)        179.8594         estimate D2E/DX2                !
 ! D82   D(12,11,14,34)          0.4806         estimate D2E/DX2                !
 ! D83   D(11,12,13,31)        -61.2013         estimate D2E/DX2                !
 ! D84   D(11,12,13,32)       -179.9578         estimate D2E/DX2                !
 ! D85   D(11,12,13,33)         61.264          estimate D2E/DX2                !
 ! D86   D(11,14,15,16)          0.4376         estimate D2E/DX2                !
 ! D87   D(11,14,15,35)       -178.4934         estimate D2E/DX2                !
 ! D88   D(34,14,15,16)        179.8305         estimate D2E/DX2                !
 ! D89   D(34,14,15,35)          0.8995         estimate D2E/DX2                !
 ! D90   D(14,15,16,9)          -0.9033         estimate D2E/DX2                !
 ! D91   D(14,15,16,36)       -179.4739         estimate D2E/DX2                !
 ! D92   D(35,15,16,9)         178.0735         estimate D2E/DX2                !
 ! D93   D(35,15,16,36)         -0.4971         estimate D2E/DX2                !
 ! D94   D(9,16,36,17)           2.9311         estimate D2E/DX2                !
 ! D95   D(9,16,36,37)         119.804          estimate D2E/DX2                !
 ! D96   D(9,16,36,38)        -113.895          estimate D2E/DX2                !
 ! D97   D(15,16,36,17)       -178.3587         estimate D2E/DX2                !
 ! D98   D(15,16,36,37)        -61.4857         estimate D2E/DX2                !
 ! D99   D(15,16,36,38)         64.8153         estimate D2E/DX2                !
 ! D100  D(5,17,36,16)        -158.2673         estimate D2E/DX2                !
 ! D101  D(5,17,36,37)          84.9621         estimate D2E/DX2                !
 ! D102  D(5,17,36,38)         -41.4549         estimate D2E/DX2                !
 ! D103  D(8,17,36,16)          -7.4523         estimate D2E/DX2                !
 ! D104  D(8,17,36,37)        -124.2229         estimate D2E/DX2                !
 ! D105  D(8,17,36,38)         109.3602         estimate D2E/DX2                !
 --------------------------------------------------------------------------------
 Trust Radius=3.00D-01 FncErr=1.00D-07 GrdErr=1.00D-06 EigMax=2.50D+02 EigMin=1.00D-04
 Number of steps in this run=    228 maximum allowed number of steps=    228.
 GradGradGradGradGradGradGradGradGradGradGradGradGradGradGradGradGradGrad

                          Input orientation:                          
 ---------------------------------------------------------------------
 Center     Atomic      Atomic             Coordinates (Angstroms)
 Number     Number       Type             X           Y           Z
 ---------------------------------------------------------------------
      1          6           0       -6.035400    1.635500   -2.596000
      2          6           0       -4.830200    2.260900   -3.320000
      3          6           0       -3.510500    1.448300   -3.291500
      4          6           0       -3.617000    0.135200   -4.103800
      5          6           0       -2.908000    1.298800   -1.854400
      6          6           0       -3.474100    0.145400   -0.989300
      7          8           0       -2.442100   -0.835900   -1.034600
      8          6           0       -1.341100   -0.233900   -1.560200
      9          6           0       -0.030900   -0.892600   -1.748500
     10          6           0        0.338700   -2.154700   -1.285300
     11          6           0        1.612900   -2.638900   -1.606600
     12          8           0        1.930100   -3.890400   -1.122900
     13          6           0        3.204800   -4.449000   -1.422200
     14          6           0        2.474600   -1.842900   -2.392900
     15          6           0        2.046200   -0.586100   -2.832800
     16          7           0        0.818300   -0.132300   -2.500000
     17          7           0       -1.515100    0.962100   -1.923700
     18          1           0       -6.255400    0.633900   -2.966000
     19          1           0       -5.875200    1.577400   -1.519900
     20          1           0       -6.929700    2.240100   -2.751200
     21          1           0       -4.646300    3.253300   -2.903800
     22          1           0       -5.106800    2.441500   -4.360500
     23          1           0       -2.807200    2.071500   -3.849700
     24          1           0       -2.644600   -0.346600   -4.210600
     25          1           0       -4.295800   -0.585100   -3.649000
     26          1           0       -3.979500    0.330500   -5.113700
     27          1           0       -2.990700    2.251000   -1.325300
     28          1           0       -3.626000    0.464600    0.043500
     29          1           0       -4.414800   -0.265300   -1.353800
     30          1           0       -0.339100   -2.757400   -0.699500
     31          1           0        3.345100   -4.574600   -2.497000
     32          1           0        3.282100   -5.434900   -0.963600
     33          1           0        4.015000   -3.836500   -1.023400
     34          1           0        3.457800   -2.188200   -2.671900
     35          1           0        2.664900    0.046400   -3.457100
     36         28           0       -0.048200    1.452900   -2.921000
     37          9           0        0.823300    2.980200   -2.284900
     38          9           0       -0.407900    1.655600   -4.744800
 ---------------------------------------------------------------------
                    Distance matrix (angstroms):
                    1          2          3          4          5
     1  C    0.000000
     2  C    1.538768   0.000000
     3  C    2.625621   1.550077   0.000000
     4  C    3.220717   2.569980   1.547710   0.000000
     5  C    3.231713   2.601629   1.565443   2.629914   0.000000
     6  C    3.370777   3.427318   2.645562   3.117793   1.548935
     7  O    4.632234   4.529486   3.384176   3.426866   2.333684
     8  C    5.157906   4.636242   3.245534   3.433054   2.211538
     9  C    6.569898   5.953777   4.468588   4.411794   3.618170
    10  C    7.530784   7.096130   5.641169   5.369837   4.774055
    11  C    8.817364   8.273894   6.767076   6.425223   6.000452
    12  O    9.805855   9.400393   7.924940   7.474058   7.132328
    13  C   11.125657  10.638873   9.130591   8.645393   8.401805
    14  C    9.195685   8.429756   6.889187   6.629302   6.255609
    15  C    8.384738   7.458395   5.935158   5.848722   5.390196
    16  N    7.078668   6.189132   4.675818   4.723941   4.043533
    17  N    4.619369   3.824451   2.467567   3.139201   1.434692
    18  H    1.090185   2.191721   2.881610   2.916238   3.589266
    19  H    1.089509   2.190789   2.957539   3.722358   2.998964
    20  H    1.090596   2.175285   3.551028   4.151399   4.226626
    21  H    2.154441   1.091741   2.167574   3.495999   2.818332
    22  H    2.150673   1.091680   2.162725   2.757611   3.524347
    23  H    3.490435   2.099758   1.092976   2.114143   2.142066
    24  H    4.246549   3.516969   2.194583   1.090458   2.885897
    25  H    3.010993   2.914368   2.208895   1.089240   2.948840
    26  H    3.502651   2.769024   2.188573   1.090617   3.564934
    27  H    3.356146   2.713427   2.186427   3.548087   1.092461
    28  H    3.760741   3.998740   3.478970   4.160370   2.193955
    29  H    2.789704   3.228031   2.740231   2.891260   2.228779
    30  H    7.439228   7.226364   5.870618   5.540850   4.938198
    31  H   11.250285  10.688167   9.160011   8.557737   8.602966
    32  H   11.809788  11.427483   9.946707   9.406617   9.189863
    33  H   11.551034  10.985910   9.471354   9.138418   8.659665
    34  H   10.234612   9.428970   7.884494   7.582962   7.304169
    35  H    8.886054   7.816606   6.334691   6.315724   5.932484
    36  Ni   5.998794   4.866168   3.482070   3.983928   3.056115
    37  F    6.996197   5.792313   4.705506   5.578413   4.115220
    38  F    6.023828   4.685422   3.432372   3.608437   3.838257
                    6          7          8          9         10
     6  C    0.000000
     7  O    1.424790   0.000000
     8  C    2.240421   1.360463   0.000000
     9  C    3.675521   2.515304   1.478501   0.000000
    10  C    4.462681   3.087869   2.566470   1.394294   0.000000
    11  C    5.831891   4.474485   3.809500   2.402452   1.400453
    12  O    6.746177   5.334220   4.925644   3.636441   2.360420
    13  C    8.118104   6.715073   6.200913   4.819150   3.673838
    14  C    6.427321   5.199324   4.223960   2.756057   2.426122
    15  C    5.865773   4.841566   3.635568   2.363047   2.787619
    16  N    4.558950   3.643166   2.357235   1.365265   2.407408
    17  N    2.319005   2.209668   1.262071   2.381902   3.682197
    18  H    3.446970   4.520163   5.184563   6.523566   7.354128
    19  H    2.845600   4.224418   4.882673   6.348937   7.252321
    20  H    4.408314   5.705002   6.226685   7.642817   8.619325
    21  H    3.833850   5.007391   4.989005   6.310715   7.531018
    22  H    4.393492   5.376206   5.401846   6.610864   7.761146
    23  H    3.512336   4.063380   3.564566   4.572611   5.859488
    24  H    3.362575   3.219844   2.955746   3.632008   4.552657
    25  H    2.877990   3.214684   3.635475   4.679298   5.434088
    26  H    4.159371   4.512554   4.461733   5.330290   6.283289
    27  H    2.186349   3.148717   2.991837   4.338402   5.522381
    28  H    1.091622   2.062818   2.877590   4.240047   4.934094
    29  H    1.089243   2.078225   3.080782   4.446108   5.115690
    30  H    4.282342   2.868286   2.848308   2.161682   1.079732
    31  H    8.429297   7.043307   6.455985   5.051213   4.045068
    32  H    8.762799   7.343181   6.984290   5.676665   4.418915
    33  H    8.481940   7.120243   6.477244   5.055850   4.051200
    34  H    7.505203   6.270430   5.299491   3.834355   3.413586
    35  H    6.617187   5.720875   4.441265   3.326916   3.869465
    36  Ni   4.144612   3.811544   2.523621   2.622294   3.979948
    37  F    5.308702   5.175781   3.942113   4.001995   5.253688
    38  F    5.077998   4.910308   3.818737   3.951363   5.200379
                   11         12         13         14         15
    11  C    0.000000
    12  O    1.378707   0.000000
    13  C    2.417563   1.423543   0.000000
    14  C    1.412236   2.470149   2.875275   0.000000
    15  C    2.430083   3.722316   4.272487   1.398780   0.000000
    16  N    2.777156   4.154012   5.048855   2.383475   1.350714
    17  N    4.780391   6.004785   7.197844   4.899580   3.988263
    18  H    8.629562   9.532509  10.849635   9.092628   8.391824
    19  H    8.593971   9.538194  10.898323   9.065304   8.315829
    20  H    9.904078  10.896350  12.215498  10.258661   9.410677
    21  H    8.693580   9.871833  11.097763   8.771516   7.715931
    22  H    8.862776  10.004648  11.189070   8.927775   7.916163
    23  H    6.837883   8.088368   9.195315   6.733662   5.626048
    24  H    5.491972   6.558985   7.669442   5.634639   4.894824
    25  H    6.580443   7.487858   8.726246   6.999869   6.394306
    26  H    7.238234   8.286486   9.385359   7.333609   6.507820
    27  H    6.721859   7.872232   9.125985   6.911533   5.974283
    28  H    6.308773   7.155191   8.541169   6.962609   6.446001
    29  H    6.483136   7.311116   8.692890   7.143695   6.635878
    30  H    2.155731   2.571425   3.992873   3.408933   3.867191
    31  H    2.745954   2.087703   1.091171   2.868936   4.208092
    32  H    3.319231   2.058825   1.090086   3.949357   5.341556
    33  H    2.746717   2.087969   1.091156   2.867543   4.208943
    34  H    2.177533   2.762382   2.595568   1.078775   2.141314
    35  H    3.426644   4.635387   4.963963   2.176738   1.082865
    36  Ni   4.607573   5.974754   6.903683   4.183982   2.924348
    37  F    5.714704   7.055522   7.849128   5.099093   3.809747
    38  F    5.689874   7.024423   7.833097   5.106833   3.834523
                   16         17         18         19         20
    16  N    0.000000
    17  N    2.640945   0.000000
    18  H    7.130319   4.864622   0.000000
    19  H    6.977579   4.421778   1.768035   0.000000
    20  H    8.106965   5.624583   1.755192   1.751354   0.000000
    21  H    6.441055   4.001825   3.074789   2.496801   2.502754
    22  H    6.722553   4.585513   2.555647   3.066939   2.439953
    23  H    4.452266   2.570947   3.838972   3.883906   4.269676
    24  H    3.868301   2.866771   3.943132   4.623680   5.213727
    25  H    5.261107   3.619776   2.406758   3.421108   3.965505
    26  H    5.483110   4.080231   3.143945   4.250157   4.234579
    27  H    4.644192   2.048595   3.995645   2.968492   4.189156
    28  H    5.155336   2.928017   3.999937   2.956593   4.677305
    29  H    5.358806   3.199931   2.606829   2.357096   3.815033
    30  H    3.387112   4.088560   7.186136   7.078979   8.521766
    31  H    5.110651   7.389537  10.932430  11.127253  12.331921
    32  H    6.045527   8.053355  11.480586  11.547206  12.898915
    33  H    5.110806   7.376931  11.368346  11.285959  12.637121
    34  H    3.350110   5.934132  10.119140  10.129745  11.292311
    35  H    2.087560   4.545572   8.953105   8.889883   9.867470
    36  Ni   1.854972   1.840459   6.261159   5.994373   6.928460
    37  F    3.119928   3.109873   7.488459   6.886434   7.802192
    38  F    3.120782   3.108929   6.196875   6.348028   6.844703
                   21         22         23         24         25
    21  H    0.000000
    22  H    1.730045   0.000000
    23  H    2.381946   2.384529   0.000000
    24  H    4.321320   3.722687   2.450285   0.000000
    25  H    3.925747   3.213139   3.051841   1.760323   0.000000
    26  H    3.724385   2.508872   2.450115   1.748145   1.756051
    27  H    2.497454   3.704944   2.537418   3.897726   3.891829
    28  H    4.183830   5.049368   4.290637   4.440558   3.896801
    29  H    3.851836   4.104373   3.778165   3.361774   2.320426
    30  H    7.716179   7.947480   6.271647   4.843048   5.392023
    31  H   11.193926  11.141495   9.157032   7.529204   8.696354
    32  H   11.920936  11.997927  10.087378   8.459289   9.389169
    33  H   11.349858  11.565326   9.457000   8.166267   9.302407
    34  H    9.764227   9.881187   7.666973   6.557315   7.977654
    35  H    8.002749   8.182418   5.847995   5.377081   6.991921
    36  Ni   4.938042   5.351535   2.976110   3.412120   4.767131
    37  F    5.511274   6.305902   4.056460   5.177089   6.385712
    38  F    4.889372   4.779643   2.594382   3.049098   4.619229
                   26         27         28         29         30
    26  H    0.000000
    27  H    4.360966   0.000000
    28  H    5.171040   2.338471   0.000000
    29  H    3.831620   2.891477   1.762784   0.000000
    30  H    6.501754   5.701463   4.662300   4.821826   0.000000
    31  H    9.195482   9.386376   8.969053   8.949470   4.484033
    32  H   10.158445   9.927331   9.140033   9.280048   4.511302
    33  H    9.899822   9.285937   8.833041   9.161013   4.497505
    34  H    8.223118   7.943738   8.036851   8.210528   4.316341
    35  H    6.853692   6.433556   7.211416   7.392103   4.948704
    36  Ni   4.639271   3.441152   4.750332   4.947274   4.769309
    37  F    6.171702   3.999895   5.616579   6.232007   6.065041
    38  F    3.827310   4.326469   5.890880   5.589632   5.986965
                   31         32         33         34         35
    31  H    0.000000
    32  H    1.759375   0.000000
    33  H    1.779060   1.759432   0.000000
    34  H    2.395453   3.672904   2.396856   0.000000
    35  H    4.768449   6.053357   4.777298   2.497732   0.000000
    36  Ni   6.930008   7.897095   6.934568   5.060800   3.102669
    37  F    7.967400   8.865971   7.631889   5.814010   3.656874
    38  F    7.612687   8.842441   7.973332   5.832268   3.699972
                   36         37         38
    36  Ni   0.000000
    37  F    1.869968   0.000000
    38  F    1.869951   3.053118   0.000000
 Stoichiometry    C13H18F2N2NiO2(3)
 Framework group  C1[X(C13H18F2N2NiO2)]
 Deg. of freedom   108
 Full point group                 C1      NOp   1
 Largest Abelian subgroup         C1      NOp   1
 Largest concise Abelian subgroup C1      NOp   1
                         Standard orientation:                         
 ---------------------------------------------------------------------
 Center     Atomic      Atomic             Coordinates (Angstroms)
 Number     Number       Type             X           Y           Z
 ---------------------------------------------------------------------
      1          6           0        5.160940   -1.765578    0.141420
      2          6           0        4.639486   -0.343251    0.411385
      3          6           0        3.104513   -0.188049    0.561415
      4          6           0        2.570870   -0.880264    1.838705
      5          6           0        2.319318   -0.513112   -0.753277
      6          6           0        2.002985   -2.007109   -1.012323
      7          8           0        0.617783   -2.109182   -0.694796
      8          6           0        0.138743   -0.840685   -0.583907
      9          6           0       -1.269986   -0.495105   -0.297507
     10          6           0       -2.349385   -1.376622   -0.254109
     11          6           0       -3.611026   -0.873624    0.087245
     12          8           0       -4.644856   -1.785396    0.113719
     13          6           0       -5.952038   -1.344444    0.464876
     14          6           0       -3.747926    0.500179    0.384456
     15          6           0       -2.627121    1.335207    0.328697
     16          7           0       -1.421940    0.832190   -0.016178
     17          7           0        1.007216    0.065817   -0.713647
     18          1           0        4.830068   -2.470226    0.904634
     19          1           0        4.839902   -2.136170   -0.831528
     20          1           0        6.251457   -1.778744    0.141611
     21          1           0        4.987746    0.316111   -0.386021
     22          1           0        5.118941    0.035489    1.316064
     23          1           0        2.965594    0.881474    0.738670
     24          1           0        1.524488   -0.631537    2.018477
     25          1           0        2.650366   -1.965577    1.791602
     26          1           0        3.123959   -0.551883    2.719446
     27          1           0        2.845143   -0.079040   -1.606834
     28          1           0        2.154591   -2.266409   -2.061807
     29          1           0        2.590148   -2.698457   -0.409224
     30          1           0       -2.223708   -2.427554   -0.467576
     31          1           0       -5.979005   -0.935524    1.476168
     32          1           0       -6.637516   -2.191502    0.434878
     33          1           0       -6.324466   -0.595207   -0.235526
     34          1           0       -4.700922    0.920891    0.664735
     35          1           0       -2.682302    2.388960    0.571922
     36         28           0        0.237291    1.646984   -0.171049
     37          9           0        0.295387    2.999383   -1.461175
     38          9           0        0.911810    2.300024    1.446134
 ---------------------------------------------------------------------
 Rotational constants (GHZ):           0.5045887           0.1828774           0.1505053
 General basis read from cards:  (6D, 7F)
 ======================================================================================================
                                       Pseudopotential Parameters
 ======================================================================================================
  Center     Atomic      Valence      Angular      Power
  Number     Number     Electrons     Momentum     of R      Exponent        Coefficient   SO-Coeffient
 ======================================================================================================
    1          6
                                   No pseudopotential on this center.
    2          6
                                   No pseudopotential on this center.
    3          6
                                   No pseudopotential on this center.
    4          6
                                   No pseudopotential on this center.
    5          6
                                   No pseudopotential on this center.
    6          6
                                   No pseudopotential on this center.
    7          8
                                   No pseudopotential on this center.
    8          6
                                   No pseudopotential on this center.
    9          6
                                   No pseudopotential on this center.
   10          6
                                   No pseudopotential on this center.
   11          6
                                   No pseudopotential on this center.
   12          8
                                   No pseudopotential on this center.
   13          6
                                   No pseudopotential on this center.
   14          6
                                   No pseudopotential on this center.
   15          6
                                   No pseudopotential on this center.
   16          7
                                   No pseudopotential on this center.
   17          7
                                   No pseudopotential on this center.
   18          1
                                   No pseudopotential on this center.
   19          1
                                   No pseudopotential on this center.
   20          1
                                   No pseudopotential on this center.
   21          1
                                   No pseudopotential on this center.
   22          1
                                   No pseudopotential on this center.
   23          1
                                   No pseudopotential on this center.
   24          1
                                   No pseudopotential on this center.
   25          1
                                   No pseudopotential on this center.
   26          1
                                   No pseudopotential on this center.
   27          1
                                   No pseudopotential on this center.
   28          1
                                   No pseudopotential on this center.
   29          1
                                   No pseudopotential on this center.
   30          1
                                   No pseudopotential on this center.
   31          1
                                   No pseudopotential on this center.
   32          1
                                   No pseudopotential on this center.
   33          1
                                   No pseudopotential on this center.
   34          1
                                   No pseudopotential on this center.
   35          1
                                   No pseudopotential on this center.
   36         28           18
                                      D and up 
                                                     1      469.9324331      -10.00000000    0.00000000
                                                     2       85.4236411      -69.40848050    0.00000000
                                                     2       21.2674984      -12.09510200    0.00000000
                                      S - D
                                                     0      162.1686097        3.00000000    0.00000000
                                                     1      176.5333232       22.02536180    0.00000000
                                                     2       68.9562010      443.01810880    0.00000000
                                                     2       13.5792838      145.56964110    0.00000000
                                      P - D
                                                     0       69.0181506        5.00000000    0.00000000
                                                     1      275.5955596        4.98828240    0.00000000
                                                     2       47.1315453      256.69458530    0.00000000
                                                     2       12.9874075       78.47544500    0.00000000
   37          9
                                   No pseudopotential on this center.
   38          9
                                   No pseudopotential on this center.
 ======================================================================================================
 There are   398 symmetry adapted cartesian basis functions of A   symmetry.
 There are   395 symmetry adapted basis functions of A   symmetry.
   395 basis functions,   758 primitive gaussians,   398 cartesian basis functions
    82 alpha electrons       80 beta electrons
       nuclear repulsion energy      1890.9780001877 Hartrees.
 NAtoms=   38 NActive=   38 NUniq=   38 SFac= 1.00D+00 NAtFMM=   60 NAOKFM=F Big=F
 Integral buffers will be    131072 words long.
 Raffenetti 2 integral format.
 Two-electron integral symmetry is turned on.
 Nuclear repulsion after empirical dispersion term =     1890.8997968342 Hartrees.
 One-electron integrals computed using PRISM.
 PrsmSu:  requested number of processors reduced to:  12 ShMem   1 Linda.
   1 Symmetry operations used in ECPInt.
 ECPInt:  NShTT=    8911 NPrTT=   52776 LenC2=    7782 LenP2D=   27242.
 LDataN:  DoStor=T MaxTD1= 6 Len=  172
 NBasis=   395 RedAO= T EigKep=  1.10D-06  NBF=   395
 NBsUse=   395 1.00D-06 EigRej= -1.00D+00 NBFU=   395
 ExpMin= 2.40D-02 ExpMax= 7.14D+04 ExpMxC= 1.07D+04 IAcc=3 IRadAn=         5 AccDes= 0.00D+00
 Harris functional with IExCor=  402 and IRadAn=       5 diagonalized for initial guess.
 HarFok:  IExCor=  402 AccDes= 0.00D+00 IRadAn=         5 IDoV= 1 UseB2=F ITyADJ=14
 ICtDFT=  3500011 ScaDFX=  1.000000  1.000000  1.000000  1.000000
 FoFCou: FMM=F IPFlag=           0 FMFlag=      100000 FMFlg1=           0
         NFxFlg=           0 DoJE=T BraDBF=F KetDBF=T FulRan=T
         wScrn=  0.000000 ICntrl=       500 IOpCl=  0 I1Cent=   200000004 NGrid=           0
         NMat0=    1 NMatS0=      1 NMatT0=    0 NMatD0=    1 NMtDS0=    0 NMtDT0=    0
 Petite list used in FoFCou.
 Initial guess <Sx>= 0.0000 <Sy>= 0.0000 <Sz>= 1.0000 <S**2>= 2.0000 S= 1.0000
 Requested convergence on RMS density matrix=1.00D-08 within  32 cycles.
 Requested convergence on MAX density matrix=1.00D-06.
 Requested convergence on             energy=1.00D-06.
 No special actions if energy rises.
 EnCoef did   100 forward-backward iterations
 EnCoef did     4 forward-backward iterations
 Restarting incremental Fock formation.
 >>>>>>>>>> Convergence criterion not met.
 SCF Done:  E(UB3LYP) =  -1135.34267379     A.U. after   33 cycles
            NFock= 32  Conv=0.13D-06     -V/T= 2.0666
 <Sx>= 0.0000 <Sy>= 0.0000 <Sz>= 1.0000 <S**2>= 2.0209 S= 1.0070
 <L.S>=  0.00000000000    
 Annihilation of the first spin contaminant:
 S**2 before annihilation     2.0209,   after     2.0001
 SCF Done:  E(UB3LYP) =  -1135.34267379     a.u. after    1 cycles
            Convg  =    0.2206D-05                     1 Fock formations.
              S**2 =  2.0209                  -V/T =  2.0666
 <Sx>= 0.0000 <Sy>= 0.0000 <Sz>= 1.0000 <S**2>= 2.0209 S= 1.0070
 <L.S>=  0.00000000000    
 Annihilation of the first spin contaminant:
 S**2 before annihilation     2.0209,   after     2.0001

 **********************************************************************

            Population analysis using the SCF Density.

 **********************************************************************

 Orbital symmetries:
 Alpha Orbitals:
       Occupied  (A) (A) (A) (A) (A) (A) (A) (A) (A) (A) (A) (A)
                 (A) (A) (A) (A) (A) (A) (A) (A) (A) (A) (A) (A)
                 (A) (A) (A) (A) (A) (A) (A) (A) (A) (A) (A) (A)
                 (A) (A) (A) (A) (A) (A) (A) (A) (A) (A) (A) (A)
                 (A) (A) (A) (A) (A) (A) (A) (A) (A) (A) (A) (A)
                 (A) (A) (A) (A) (A) (A) (A) (A) (A) (A) (A) (A)
                 (A) (A) (A) (A) (A) (A) (A) (A) (A) (A)
       Virtual   (A) (A) (A) (A) (A) (A) (A) (A) (A) (A) (A) (A)
                 (A) (A) (A) (A) (A) (A) (A) (A) (A) (A) (A) (A)
                 (A) (A) (A) (A) (A) (A) (A) (A) (A) (A) (A) (A)
                 (A) (A) (A) (A) (A) (A) (A) (A) (A) (A) (A) (A)
                 (A) (A) (A) (A) (A) (A) (A) (A) (A) (A) (A) (A)
                 (A) (A) (A) (A) (A) (A) (A) (A) (A) (A) (A) (A)
                 (A) (A) (A) (A) (A) (A) (A) (A) (A) (A) (A) (A)
                 (A) (A) (A) (A) (A) (A) (A) (A) (A) (A) (A) (A)
                 (A) (A) (A) (A) (A) (A) (A) (A) (A) (A) (A) (A)
                 (A) (A) (A) (A) (A) (A) (A) (A) (A) (A) (A) (A)
                 (A) (A) (A) (A) (A) (A) (A) (A) (A) (A) (A) (A)
                 (A) (A) (A) (A) (A) (A) (A) (A) (A) (A) (A) (A)
                 (A) (A) (A) (A) (A) (A) (A) (A) (A) (A) (A) (A)
                 (A) (A) (A) (A) (A) (A) (A) (A) (A) (A) (A) (A)
                 (A) (A) (A) (A) (A) (A) (A) (A) (A) (A) (A) (A)
                 (A) (A) (A) (A) (A) (A) (A) (A) (A) (A) (A) (A)
                 (A) (A) (A) (A) (A) (A) (A) (A) (A) (A) (A) (A)
                 (A) (A) (A) (A) (A) (A) (A) (A) (A) (A) (A) (A)
                 (A) (A) (A) (A) (A) (A) (A) (A) (A) (A) (A) (A)
                 (A) (A) (A) (A) (A) (A) (A) (A) (A) (A) (A) (A)
                 (A) (A) (A) (A) (A) (A) (A) (A) (A) (A) (A) (A)
                 (A) (A) (A) (A) (A) (A) (A) (A) (A) (A) (A) (A)
                 (A) (A) (A) (A) (A) (A) (A) (A) (A) (A) (A) (A)
                 (A) (A) (A) (A) (A) (A) (A) (A) (A) (A) (A) (A)
                 (A) (A) (A) (A) (A) (A) (A) (A) (A) (A) (A) (A)
                 (A) (A) (A) (A) (A) (A) (A) (A) (A) (A) (A) (A)
                 (A)
 Beta  Orbitals:
       Occupied  (A) (A) (A) (A) (A) (A) (A) (A) (A) (A) (A) (A)
                 (A) (A) (A) (A) (A) (A) (A) (A) (A) (A) (A) (A)
                 (A) (A) (A) (A) (A) (A) (A) (A) (A) (A) (A) (A)
                 (A) (A) (A) (A) (A) (A) (A) (A) (A) (A) (A) (A)
                 (A) (A) (A) (A) (A) (A) (A) (A) (A) (A) (A) (A)
                 (A) (A) (A) (A) (A) (A) (A) (A) (A) (A) (A) (A)
                 (A) (A) (A) (A) (A) (A) (A) (A)
       Virtual   (A) (A) (A) (A) (A) (A) (A) (A) (A) (A) (A) (A)
                 (A) (A) (A) (A) (A) (A) (A) (A) (A) (A) (A) (A)
                 (A) (A) (A) (A) (A) (A) (A) (A) (A) (A) (A) (A)
                 (A) (A) (A) (A) (A) (A) (A) (A) (A) (A) (A) (A)
                 (A) (A) (A) (A) (A) (A) (A) (A) (A) (A) (A) (A)
                 (A) (A) (A) (A) (A) (A) (A) (A) (A) (A) (A) (A)
                 (A) (A) (A) (A) (A) (A) (A) (A) (A) (A) (A) (A)
                 (A) (A) (A) (A) (A) (A) (A) (A) (A) (A) (A) (A)
                 (A) (A) (A) (A) (A) (A) (A) (A) (A) (A) (A) (A)
                 (A) (A) (A) (A) (A) (A) (A) (A) (A) (A) (A) (A)
                 (A) (A) (A) (A) (A) (A) (A) (A) (A) (A) (A) (A)
                 (A) (A) (A) (A) (A) (A) (A) (A) (A) (A) (A) (A)
                 (A) (A) (A) (A) (A) (A) (A) (A) (A) (A) (A) (A)
                 (A) (A) (A) (A) (A) (A) (A) (A) (A) (A) (A) (A)
                 (A) (A) (A) (A) (A) (A) (A) (A) (A) (A) (A) (A)
                 (A) (A) (A) (A) (A) (A) (A) (A) (A) (A) (A) (A)
                 (A) (A) (A) (A) (A) (A) (A) (A) (A) (A) (A) (A)
                 (A) (A) (A) (A) (A) (A) (A) (A) (A) (A) (A) (A)
                 (A) (A) (A) (A) (A) (A) (A) (A) (A) (A) (A) (A)
                 (A) (A) (A) (A) (A) (A) (A) (A) (A) (A) (A) (A)
                 (A) (A) (A) (A) (A) (A) (A) (A) (A) (A) (A) (A)
                 (A) (A) (A) (A) (A) (A) (A) (A) (A) (A) (A) (A)
                 (A) (A) (A) (A) (A) (A) (A) (A) (A) (A) (A) (A)
                 (A) (A) (A) (A) (A) (A) (A) (A) (A) (A) (A) (A)
                 (A) (A) (A) (A) (A) (A) (A) (A) (A) (A) (A) (A)
                 (A) (A) (A) (A) (A) (A) (A) (A) (A) (A) (A) (A)
                 (A) (A) (A)
 The electronic state is 3-A.
 Alpha  occ. eigenvalues --  -24.53788 -24.53153 -19.22495 -19.22195 -14.39962
 Alpha  occ. eigenvalues --  -14.37472 -10.32394 -10.31035 -10.28865 -10.27445
 Alpha  occ. eigenvalues --  -10.27361 -10.26814 -10.24704 -10.24448 -10.24303
 Alpha  occ. eigenvalues --  -10.19712 -10.18713 -10.18220 -10.17572  -4.09643
 Alpha  occ. eigenvalues --   -2.70108  -2.69917  -2.69588  -1.13487  -1.10299
 Alpha  occ. eigenvalues --   -1.00312  -0.99211  -0.98520  -0.96528  -0.84696
 Alpha  occ. eigenvalues --   -0.84407  -0.81086  -0.77502  -0.75033  -0.72865
 Alpha  occ. eigenvalues --   -0.70178  -0.67808  -0.66560  -0.64041  -0.61163
 Alpha  occ. eigenvalues --   -0.58710  -0.56710  -0.55243  -0.54200  -0.52715
 Alpha  occ. eigenvalues --   -0.52239  -0.50514  -0.50165  -0.48746  -0.47699
 Alpha  occ. eigenvalues --   -0.46728  -0.46218  -0.45550  -0.43883  -0.43374
 Alpha  occ. eigenvalues --   -0.42448  -0.41915  -0.41160  -0.40936  -0.39904
 Alpha  occ. eigenvalues --   -0.38958  -0.38649  -0.37412  -0.37340  -0.37223
 Alpha  occ. eigenvalues --   -0.36399  -0.35868  -0.34775  -0.33538  -0.33475
 Alpha  occ. eigenvalues --   -0.32652  -0.32176  -0.31148  -0.29828  -0.29370
 Alpha  occ. eigenvalues --   -0.27700  -0.26964  -0.25745  -0.23946  -0.23465
 Alpha  occ. eigenvalues --   -0.23334  -0.21650
 Alpha virt. eigenvalues --   -0.09329  -0.05949   0.00838   0.01677   0.02037
 Alpha virt. eigenvalues --    0.03742   0.04107   0.06537   0.07300   0.07788
 Alpha virt. eigenvalues --    0.09478   0.10227   0.11026   0.11525   0.11683
 Alpha virt. eigenvalues --    0.12558   0.13067   0.13381   0.13769   0.13973
 Alpha virt. eigenvalues --    0.14102   0.14303   0.14951   0.15246   0.15913
 Alpha virt. eigenvalues --    0.16825   0.17709   0.18253   0.18449   0.19089
 Alpha virt. eigenvalues --    0.19954   0.20810   0.21682   0.22445   0.23056
 Alpha virt. eigenvalues --    0.23279   0.24051   0.24818   0.25548   0.26277
 Alpha virt. eigenvalues --    0.27493   0.29117   0.29825   0.29985   0.31576
 Alpha virt. eigenvalues --    0.33020   0.33731   0.36270   0.38449   0.41860
 Alpha virt. eigenvalues --    0.43166   0.43638   0.46068   0.47364   0.48488
 Alpha virt. eigenvalues --    0.49550   0.49791   0.50724   0.52027   0.52258
 Alpha virt. eigenvalues --    0.52687   0.53491   0.53850   0.55106   0.56136
 Alpha virt. eigenvalues --    0.56901   0.58122   0.58899   0.58994   0.59942
 Alpha virt. eigenvalues --    0.60220   0.61002   0.61216   0.63275   0.64271
 Alpha virt. eigenvalues --    0.64532   0.65253   0.67271   0.67918   0.69326
 Alpha virt. eigenvalues --    0.69593   0.71280   0.72249   0.72595   0.73994
 Alpha virt. eigenvalues --    0.75292   0.76398   0.78040   0.79463   0.79741
 Alpha virt. eigenvalues --    0.80455   0.81145   0.82928   0.83353   0.83854
 Alpha virt. eigenvalues --    0.84732   0.84946   0.85843   0.87042   0.87882
 Alpha virt. eigenvalues --    0.88215   0.88942   0.89696   0.90610   0.90696
 Alpha virt. eigenvalues --    0.91062   0.92621   0.93097   0.94663   0.95103
 Alpha virt. eigenvalues --    0.95661   0.96928   0.97554   0.99251   1.00544
 Alpha virt. eigenvalues --    1.00888   1.01317   1.02246   1.02553   1.02811
 Alpha virt. eigenvalues --    1.04428   1.05537   1.05919   1.07163   1.08329
 Alpha virt. eigenvalues --    1.08674   1.11601   1.12446   1.17921   1.18330
 Alpha virt. eigenvalues --    1.19285   1.19693   1.23345   1.25178   1.26921
 Alpha virt. eigenvalues --    1.30405   1.31889   1.32263   1.32975   1.33297
 Alpha virt. eigenvalues --    1.34476   1.35670   1.36737   1.39479   1.41367
 Alpha virt. eigenvalues --    1.41943   1.42968   1.44221   1.45053   1.46685
 Alpha virt. eigenvalues --    1.48221   1.48811   1.50611   1.51690   1.53986
 Alpha virt. eigenvalues --    1.54540   1.56525   1.57585   1.60478   1.62922
 Alpha virt. eigenvalues --    1.66846   1.66904   1.68611   1.71873   1.72696
 Alpha virt. eigenvalues --    1.74352   1.75727   1.76175   1.77827   1.78486
 Alpha virt. eigenvalues --    1.79599   1.80838   1.81801   1.83251   1.84046
 Alpha virt. eigenvalues --    1.85412   1.87416   1.87774   1.89683   1.90409
 Alpha virt. eigenvalues --    1.90596   1.91912   1.92700   1.93962   1.95141
 Alpha virt. eigenvalues --    1.96147   1.96972   1.98364   1.98942   1.99741
 Alpha virt. eigenvalues --    2.00927   2.02044   2.03202   2.03906   2.04897
 Alpha virt. eigenvalues --    2.06023   2.06184   2.06799   2.06995   2.08839
 Alpha virt. eigenvalues --    2.09040   2.09666   2.11860   2.12861   2.14696
 Alpha virt. eigenvalues --    2.16419   2.17360   2.17748   2.18423   2.21137
 Alpha virt. eigenvalues --    2.22160   2.23392   2.24740   2.26102   2.28314
 Alpha virt. eigenvalues --    2.29847   2.30406   2.31256   2.31834   2.32497
 Alpha virt. eigenvalues --    2.33275   2.34088   2.34696   2.37195   2.40507
 Alpha virt. eigenvalues --    2.43170   2.44696   2.45922   2.47061   2.47375
 Alpha virt. eigenvalues --    2.50252   2.51726   2.52840   2.54910   2.57490
 Alpha virt. eigenvalues --    2.58517   2.60588   2.62181   2.63112   2.64011
 Alpha virt. eigenvalues --    2.65047   2.66461   2.68291   2.69188   2.70181
 Alpha virt. eigenvalues --    2.72138   2.73363   2.75200   2.76428   2.77930
 Alpha virt. eigenvalues --    2.79143   2.81257   2.86728   2.88157   2.91135
 Alpha virt. eigenvalues --    2.92359   2.99786   3.05888   3.08950   3.17349
 Alpha virt. eigenvalues --    3.30573   3.32261   3.42514   3.50806   3.58817
 Alpha virt. eigenvalues --    3.77486   3.96488   4.02514   4.07799   4.09587
 Alpha virt. eigenvalues --    4.12397   4.16257   4.20267   4.22812   4.26617
 Alpha virt. eigenvalues --    4.27723   4.29463   4.33538   4.36431   4.42515
 Alpha virt. eigenvalues --    4.43958   4.49147   4.51972   4.65994   4.67029
 Alpha virt. eigenvalues --    4.79328   5.11682   5.92838   6.05199   6.13106
 Alpha virt. eigenvalues --    6.18265   6.23163  11.32761  17.52138  17.92330
 Alpha virt. eigenvalues --   18.16499  18.38453  18.50364  22.76490  22.93844
 Alpha virt. eigenvalues --   23.15103  26.29063  57.00445 118.85641 118.97087
 Alpha virt. eigenvalues --  119.09218 134.96819 381.84853 927.18526 927.89255
 Alpha virt. eigenvalues --  928.825851467.63680**********
  Beta  occ. eigenvalues --  -24.53439 -24.52765 -19.22510 -19.22211 -14.39768
  Beta  occ. eigenvalues --  -14.37279 -10.32442 -10.31065 -10.28897 -10.27466
  Beta  occ. eigenvalues --  -10.27360 -10.26801 -10.24692 -10.24441 -10.24281
  Beta  occ. eigenvalues --  -10.19710 -10.18713 -10.18220 -10.17573  -3.98692
  Beta  occ. eigenvalues --   -2.58497  -2.58462  -2.57995  -1.13484  -1.10331
  Beta  occ. eigenvalues --   -1.00103  -0.98360  -0.97563  -0.96292  -0.84663
  Beta  occ. eigenvalues --   -0.84396  -0.81069  -0.77487  -0.75011  -0.72861
  Beta  occ. eigenvalues --   -0.70129  -0.67783  -0.66539  -0.64012  -0.61059
  Beta  occ. eigenvalues --   -0.58537  -0.56654  -0.55079  -0.54056  -0.52428
  Beta  occ. eigenvalues --   -0.52154  -0.50555  -0.49944  -0.48592  -0.47593
  Beta  occ. eigenvalues --   -0.46693  -0.46178  -0.45474  -0.43858  -0.43112
  Beta  occ. eigenvalues --   -0.42143  -0.41183  -0.39900  -0.39070  -0.38902
  Beta  occ. eigenvalues --   -0.38493  -0.37811  -0.37302  -0.37063  -0.36687
  Beta  occ. eigenvalues --   -0.34808  -0.32888  -0.32732  -0.32226  -0.31353
  Beta  occ. eigenvalues --   -0.31049  -0.30899  -0.29317  -0.28279  -0.27055
  Beta  occ. eigenvalues --   -0.26168  -0.24775  -0.24201  -0.21934  -0.19234
  Beta virt. eigenvalues --   -0.09172  -0.05914  -0.02603  -0.02146   0.00874
  Beta virt. eigenvalues --    0.01636   0.02006   0.03749   0.04158   0.06546
  Beta virt. eigenvalues --    0.07335   0.07827   0.09542   0.10317   0.11125
  Beta virt. eigenvalues --    0.11572   0.11661   0.12601   0.13212   0.13499
  Beta virt. eigenvalues --    0.13838   0.14019   0.14295   0.14359   0.15040
  Beta virt. eigenvalues --    0.15315   0.15983   0.16865   0.17768   0.18288
  Beta virt. eigenvalues --    0.18468   0.19128   0.19991   0.20834   0.21754
  Beta virt. eigenvalues --    0.22500   0.23095   0.23380   0.24086   0.24826
  Beta virt. eigenvalues --    0.25876   0.26504   0.27640   0.29298   0.30340
  Beta virt. eigenvalues --    0.30642   0.31872   0.33186   0.34050   0.37082
  Beta virt. eigenvalues --    0.38812   0.41973   0.43236   0.43820   0.46116
  Beta virt. eigenvalues --    0.47518   0.48470   0.49634   0.49843   0.50792
  Beta virt. eigenvalues --    0.52050   0.52348   0.52730   0.53521   0.53960
  Beta virt. eigenvalues --    0.55186   0.56405   0.57013   0.58193   0.58969
  Beta virt. eigenvalues --    0.59113   0.60040   0.60395   0.61062   0.61508
  Beta virt. eigenvalues --    0.63409   0.64604   0.64672   0.65517   0.67480
  Beta virt. eigenvalues --    0.67966   0.69484   0.70390   0.71356   0.72395
  Beta virt. eigenvalues --    0.72668   0.74039   0.75450   0.76680   0.78136
  Beta virt. eigenvalues --    0.79566   0.79876   0.80527   0.81174   0.82936
  Beta virt. eigenvalues --    0.83424   0.83936   0.84815   0.85052   0.85939
  Beta virt. eigenvalues --    0.87103   0.88048   0.88279   0.89211   0.89755
  Beta virt. eigenvalues --    0.90630   0.90748   0.91106   0.92701   0.93194
  Beta virt. eigenvalues --    0.94794   0.95197   0.95779   0.97078   0.97639
  Beta virt. eigenvalues --    0.99413   1.00757   1.01133   1.01458   1.02538
  Beta virt. eigenvalues --    1.02753   1.03754   1.04732   1.05724   1.07067
  Beta virt. eigenvalues --    1.07259   1.08737   1.09418   1.11792   1.12536
  Beta virt. eigenvalues --    1.18048   1.18461   1.19344   1.19716   1.23530
  Beta virt. eigenvalues --    1.25419   1.27113   1.30641   1.32189   1.32359
  Beta virt. eigenvalues --    1.33154   1.33643   1.34699   1.35929   1.37031
  Beta virt. eigenvalues --    1.39561   1.41474   1.42075   1.43088   1.44410
  Beta virt. eigenvalues --    1.45223   1.46815   1.48352   1.49077   1.50928
  Beta virt. eigenvalues --    1.52109   1.54111   1.54807   1.56761   1.57678
  Beta virt. eigenvalues --    1.60612   1.63051   1.66966   1.67012   1.68745
  Beta virt. eigenvalues --    1.72144   1.72722   1.74525   1.75851   1.76398
  Beta virt. eigenvalues --    1.77991   1.78617   1.80196   1.80938   1.81927
  Beta virt. eigenvalues --    1.83410   1.84299   1.85606   1.87562   1.88035
  Beta virt. eigenvalues --    1.89811   1.90557   1.90881   1.92082   1.92889
  Beta virt. eigenvalues --    1.94100   1.95183   1.96858   1.97299   1.98654
  Beta virt. eigenvalues --    1.99176   1.99924   2.01075   2.02207   2.03404
  Beta virt. eigenvalues --    2.04295   2.04980   2.06336   2.06423   2.07047
  Beta virt. eigenvalues --    2.07257   2.09003   2.09338   2.09759   2.11961
  Beta virt. eigenvalues --    2.13207   2.15043   2.16546   2.17792   2.17832
  Beta virt. eigenvalues --    2.18723   2.21253   2.22222   2.23539   2.24952
  Beta virt. eigenvalues --    2.26164   2.28528   2.30252   2.31161   2.31675
  Beta virt. eigenvalues --    2.32133   2.32917   2.33564   2.34253   2.35049
  Beta virt. eigenvalues --    2.37724   2.40935   2.43715   2.44834   2.46185
  Beta virt. eigenvalues --    2.47381   2.48090   2.50346   2.51853   2.53679
  Beta virt. eigenvalues --    2.55743   2.58402   2.58745   2.61213   2.63069
  Beta virt. eigenvalues --    2.63806   2.64983   2.65857   2.67384   2.68984
  Beta virt. eigenvalues --    2.70498   2.71568   2.73715   2.74384   2.76693
  Beta virt. eigenvalues --    2.77754   2.78699   2.80112   2.81998   2.87092
  Beta virt. eigenvalues --    2.88834   2.91703   2.92836   3.00804   3.07737
  Beta virt. eigenvalues --    3.09504   3.18194   3.32576   3.33533   3.43034
  Beta virt. eigenvalues --    3.53316   3.63240   3.81835   3.98797   4.03179
  Beta virt. eigenvalues --    4.08186   4.09681   4.12449   4.16533   4.20450
  Beta virt. eigenvalues --    4.23022   4.26723   4.28123   4.29771   4.33856
  Beta virt. eigenvalues --    4.36561   4.42824   4.44378   4.49426   4.52057
  Beta virt. eigenvalues --    4.66018   4.67079   4.79726   5.14836   5.95389
  Beta virt. eigenvalues --    6.09095   6.16228   6.29562   6.33058  11.38443
  Beta virt. eigenvalues --   17.53457  17.94293  18.18138  18.44422  18.55520
  Beta virt. eigenvalues --   22.88781  23.05944  23.26936  26.38031  57.10597
  Beta virt. eigenvalues --  118.92857 119.04039 119.16263 135.04622 381.30127
  Beta virt. eigenvalues --  923.87283 924.48246 925.540121458.28468**********
          Condensed to atoms (all electrons):
               1          2          3          4          5          6
     1  C    5.097948   0.359704  -0.040810  -0.006024  -0.005072   0.000813
     2  C    0.359704   5.022238   0.352841  -0.051204  -0.034025  -0.001984
     3  C   -0.040810   0.352841   5.016720   0.365841   0.349112  -0.027525
     4  C   -0.006024  -0.051204   0.365841   5.142469  -0.039187  -0.010284
     5  C   -0.005072  -0.034025   0.349112  -0.039187   4.980735   0.313554
     6  C    0.000813  -0.001984  -0.027525  -0.010284   0.313554   4.971787
     7  O    0.000017   0.000022   0.000421   0.001585  -0.038064   0.234896
     8  C   -0.000002   0.000051  -0.003586   0.005568  -0.068065  -0.061741
     9  C    0.000000   0.000005  -0.000183  -0.000341   0.006150   0.003651
    10  C    0.000000  -0.000000   0.000002  -0.000011   0.000036  -0.000382
    11  C    0.000000   0.000000  -0.000000   0.000000   0.000003  -0.000000
    12  O   -0.000000  -0.000000  -0.000000   0.000000  -0.000000  -0.000000
    13  C    0.000000   0.000000   0.000000   0.000000   0.000000   0.000000
    14  C   -0.000000  -0.000000  -0.000000   0.000000  -0.000000   0.000000
    15  C   -0.000000  -0.000000  -0.000001  -0.000000   0.000011   0.000003
    16  N   -0.000000  -0.000000   0.000047  -0.000024   0.000515  -0.000162
    17  N    0.000040   0.003027  -0.055353  -0.003866   0.318671  -0.049720
    18  H    0.378361  -0.034888  -0.005221   0.003913  -0.000419  -0.000840
    19  H    0.373479  -0.033651  -0.004327  -0.000018   0.003063  -0.001326
    20  H    0.375817  -0.027033   0.004140  -0.000006   0.000008   0.000060
    21  H   -0.040929   0.373079  -0.035034   0.005535  -0.005325  -0.000200
    22  H   -0.040984   0.377255  -0.030804  -0.004601   0.004563  -0.000128
    23  H    0.004297  -0.026299   0.339780  -0.041997  -0.038995   0.004648
    24  H    0.000036   0.004952  -0.028282   0.363127  -0.004465   0.000043
    25  H    0.002041  -0.004418  -0.033662   0.360100  -0.007961   0.003958
    26  H   -0.000282  -0.003724  -0.025376   0.377420   0.004373   0.000010
    27  H   -0.000427  -0.003763  -0.039919   0.005010   0.374624  -0.043772
    28  H   -0.000313   0.000063   0.003906   0.000274  -0.027788   0.363622
    29  H    0.002815  -0.001143  -0.006149   0.001174  -0.032026   0.375554
    30  H    0.000000  -0.000000  -0.000000  -0.000001   0.000007  -0.000070
    31  H   -0.000000   0.000000  -0.000000  -0.000000   0.000000   0.000000
    32  H    0.000000  -0.000000   0.000000  -0.000000  -0.000000  -0.000000
    33  H    0.000000  -0.000000  -0.000000   0.000000  -0.000000   0.000000
    34  H    0.000000  -0.000000   0.000000  -0.000000  -0.000000   0.000000
    35  H   -0.000000  -0.000000  -0.000000  -0.000000  -0.000001  -0.000000
    36  Ni   0.000088   0.000177   0.006571   0.004240  -0.023288   0.000099
    37  F    0.000000  -0.000000   0.000005  -0.000000  -0.000187  -0.000002
    38  F   -0.000000   0.000064  -0.004168  -0.000278  -0.000406  -0.000001
               7          8          9         10         11         12
     1  C    0.000017  -0.000002   0.000000   0.000000   0.000000  -0.000000
     2  C    0.000022   0.000051   0.000005  -0.000000   0.000000  -0.000000
     3  C    0.000421  -0.003586  -0.000183   0.000002  -0.000000  -0.000000
     4  C    0.001585   0.005568  -0.000341  -0.000011   0.000000   0.000000
     5  C   -0.038064  -0.068065   0.006150   0.000036   0.000003  -0.000000
     6  C    0.234896  -0.061741   0.003651  -0.000382  -0.000000  -0.000000
     7  O    8.232379   0.289834  -0.058664   0.001997   0.000225  -0.000000
     8  C    0.289834   4.737103   0.339001  -0.073579   0.004243  -0.000064
     9  C   -0.058664   0.339001   4.744906   0.468903  -0.006063   0.001400
    10  C    0.001997  -0.073579   0.468903   5.197087   0.483084  -0.044356
    11  C    0.000225   0.004243  -0.006063   0.483084   4.519338   0.278950
    12  O   -0.000000  -0.000064   0.001400  -0.044356   0.278950   8.181895
    13  C   -0.000000   0.000002  -0.000083   0.003778  -0.037940   0.238828
    14  C   -0.000000   0.000229  -0.024957  -0.068083   0.451786  -0.055826
    15  C   -0.000032   0.007360  -0.040199  -0.034838  -0.002976   0.002959
    16  N    0.001991  -0.041167   0.342607  -0.067522  -0.033500   0.000130
    17  N   -0.095558   0.364437  -0.038233   0.007465  -0.000127   0.000000
    18  H   -0.000001  -0.000005  -0.000000  -0.000000  -0.000000  -0.000000
    19  H    0.000055   0.000014   0.000000  -0.000000  -0.000000   0.000000
    20  H   -0.000000  -0.000000  -0.000000  -0.000000   0.000000   0.000000
    21  H    0.000000  -0.000006  -0.000000  -0.000000  -0.000000  -0.000000
    22  H    0.000002   0.000001  -0.000000   0.000000  -0.000000   0.000000
    23  H   -0.000120  -0.000647   0.000078   0.000001   0.000000  -0.000000
    24  H   -0.000895   0.002512   0.000580   0.000018   0.000002  -0.000000
    25  H   -0.000276  -0.000138  -0.000013   0.000001  -0.000000  -0.000000
    26  H    0.000047  -0.000086   0.000000   0.000000  -0.000000   0.000000
    27  H    0.003059   0.006738  -0.000379  -0.000001  -0.000000   0.000000
    28  H   -0.037760   0.002486   0.000030  -0.000011  -0.000000   0.000000
    29  H   -0.029608   0.003600  -0.000069   0.000000   0.000000  -0.000000
    30  H    0.002683  -0.004555  -0.031233   0.346744  -0.031367  -0.000315
    31  H    0.000000   0.000000   0.000018  -0.000023  -0.005318  -0.033253
    32  H   -0.000000  -0.000000  -0.000002  -0.000069   0.003058  -0.028432
    33  H   -0.000000   0.000000   0.000024  -0.000055  -0.005345  -0.033183
    34  H    0.000000   0.000017   0.000679   0.004088  -0.038096  -0.006776
    35  H    0.000000  -0.000196   0.005492   0.000308   0.002005  -0.000034
    36  Ni   0.012892  -0.091139  -0.075779   0.002855  -0.005733   0.000862
    37  F    0.000000  -0.000345  -0.000813  -0.000001  -0.000000  -0.000000
    38  F    0.000000  -0.001229  -0.000598  -0.000000  -0.000000  -0.000000
              13         14         15         16         17         18
     1  C    0.000000  -0.000000  -0.000000  -0.000000   0.000040   0.378361
     2  C    0.000000  -0.000000  -0.000000  -0.000000   0.003027  -0.034888
     3  C    0.000000  -0.000000  -0.000001   0.000047  -0.055353  -0.005221
     4  C    0.000000   0.000000  -0.000000  -0.000024  -0.003866   0.003913
     5  C    0.000000  -0.000000   0.000011   0.000515   0.318671  -0.000419
     6  C    0.000000   0.000000   0.000003  -0.000162  -0.049720  -0.000840
     7  O   -0.000000  -0.000000  -0.000032   0.001991  -0.095558  -0.000001
     8  C    0.000002   0.000229   0.007360  -0.041167   0.364437  -0.000005
     9  C   -0.000083  -0.024957  -0.040199   0.342607  -0.038233  -0.000000
    10  C    0.003778  -0.068083  -0.034838  -0.067522   0.007465  -0.000000
    11  C   -0.037940   0.451786  -0.002976  -0.033500  -0.000127  -0.000000
    12  O    0.238828  -0.055826   0.002959   0.000130   0.000000  -0.000000
    13  C    4.903747  -0.004676   0.000297   0.000005  -0.000000  -0.000000
    14  C   -0.004676   5.146040   0.475306  -0.025599  -0.000048  -0.000000
    15  C    0.000297   0.475306   4.731855   0.450626  -0.000009   0.000000
    16  N    0.000005  -0.025599   0.450626   6.905373  -0.041947   0.000000
    17  N   -0.000000  -0.000048  -0.000009  -0.041947   6.988641  -0.000010
    18  H   -0.000000  -0.000000   0.000000   0.000000  -0.000010   0.570023
    19  H   -0.000000   0.000000  -0.000000  -0.000000  -0.000025  -0.035575
    20  H    0.000000  -0.000000  -0.000000  -0.000000   0.000001  -0.030505
    21  H   -0.000000   0.000000  -0.000000  -0.000000   0.000010   0.005148
    22  H   -0.000000  -0.000000  -0.000000   0.000000  -0.000100  -0.003584
    23  H   -0.000000  -0.000000  -0.000001  -0.000053  -0.003474   0.000024
    24  H   -0.000000  -0.000001  -0.000025  -0.000090   0.002368  -0.000109
    25  H   -0.000000  -0.000000   0.000000  -0.000001   0.000181   0.001915
    26  H    0.000000  -0.000000   0.000000   0.000000  -0.000019   0.000180
    27  H   -0.000000  -0.000000  -0.000000   0.000005  -0.045433   0.000077
    28  H   -0.000000  -0.000000  -0.000000   0.000004   0.000649   0.000002
    29  H   -0.000000  -0.000000  -0.000000   0.000003   0.003117   0.001696
    30  H   -0.000132   0.006428  -0.000164   0.003744   0.000084  -0.000000
    31  H    0.367337   0.003866  -0.000085  -0.000004  -0.000000  -0.000000
    32  H    0.386595   0.000100   0.000002   0.000000   0.000000   0.000000
    33  H    0.367481   0.003963  -0.000086  -0.000005  -0.000000   0.000000
    34  H    0.005939   0.354982  -0.031558   0.003299   0.000000   0.000000
    35  H   -0.000002  -0.045507   0.374271  -0.039292   0.000015   0.000000
    36  Ni  -0.000005   0.006940  -0.035036   0.133024   0.138944   0.000189
    37  F   -0.000000  -0.000001  -0.000618  -0.003009  -0.004186   0.000000
    38  F   -0.000000  -0.000001  -0.000425  -0.002952  -0.002574  -0.000000
              19         20         21         22         23         24
     1  C    0.373479   0.375817  -0.040929  -0.040984   0.004297   0.000036
     2  C   -0.033651  -0.027033   0.373079   0.377255  -0.026299   0.004952
     3  C   -0.004327   0.004140  -0.035034  -0.030804   0.339780  -0.028282
     4  C   -0.000018  -0.000006   0.005535  -0.004601  -0.041997   0.363127
     5  C    0.003063   0.000008  -0.005325   0.004563  -0.038995  -0.004465
     6  C   -0.001326   0.000060  -0.000200  -0.000128   0.004648   0.000043
     7  O    0.000055  -0.000000   0.000000   0.000002  -0.000120  -0.000895
     8  C    0.000014  -0.000000  -0.000006   0.000001  -0.000647   0.002512
     9  C    0.000000  -0.000000  -0.000000  -0.000000   0.000078   0.000580
    10  C   -0.000000  -0.000000  -0.000000   0.000000   0.000001   0.000018
    11  C   -0.000000   0.000000  -0.000000  -0.000000   0.000000   0.000002
    12  O    0.000000   0.000000  -0.000000   0.000000  -0.000000  -0.000000
    13  C   -0.000000   0.000000  -0.000000  -0.000000  -0.000000  -0.000000
    14  C    0.000000  -0.000000   0.000000  -0.000000  -0.000000  -0.000001
    15  C   -0.000000  -0.000000  -0.000000  -0.000000  -0.000001  -0.000025
    16  N   -0.000000  -0.000000  -0.000000   0.000000  -0.000053  -0.000090
    17  N   -0.000025   0.000001   0.000010  -0.000100  -0.003474   0.002368
    18  H   -0.035575  -0.030505   0.005148  -0.003584   0.000024  -0.000109
    19  H    0.589933  -0.031015  -0.005459   0.005245  -0.000059  -0.000009
    20  H   -0.031015   0.561780  -0.002230  -0.004214  -0.000123   0.000002
    21  H   -0.005459  -0.002230   0.593322  -0.037071  -0.003980  -0.000157
    22  H    0.005245  -0.004214  -0.037071   0.583127  -0.004485  -0.000028
    23  H   -0.000059  -0.000123  -0.003980  -0.004485   0.558132  -0.002038
    24  H   -0.000009   0.000002  -0.000157  -0.000028  -0.002038   0.535056
    25  H   -0.000089  -0.000070  -0.000070  -0.000318   0.005490  -0.032040
    26  H    0.000034  -0.000030   0.000032   0.004149  -0.003808  -0.026187
    27  H    0.000371  -0.000026   0.005317   0.000006  -0.002646  -0.000040
    28  H    0.000871  -0.000011  -0.000013   0.000008  -0.000132  -0.000025
    29  H    0.000499  -0.000015   0.000113  -0.000048   0.000138   0.000059
    30  H   -0.000000   0.000000   0.000000  -0.000000   0.000000  -0.000001
    31  H    0.000000  -0.000000   0.000000  -0.000000   0.000000   0.000000
    32  H    0.000000  -0.000000  -0.000000   0.000000   0.000000  -0.000000
    33  H    0.000000  -0.000000   0.000000   0.000000  -0.000000  -0.000000
    34  H    0.000000  -0.000000   0.000000   0.000000   0.000000  -0.000000
    35  H    0.000000   0.000000   0.000000   0.000000   0.000000  -0.000000
    36  Ni   0.000810  -0.000243   0.001017   0.000995  -0.006144   0.001182
    37  F   -0.000000   0.000000  -0.000000   0.000000  -0.000267  -0.000002
    38  F    0.000000   0.000000  -0.000000   0.000000   0.015208   0.001371
              25         26         27         28         29         30
     1  C    0.002041  -0.000282  -0.000427  -0.000313   0.002815   0.000000
     2  C   -0.004418  -0.003724  -0.003763   0.000063  -0.001143  -0.000000
     3  C   -0.033662  -0.025376  -0.039919   0.003906  -0.006149  -0.000000
     4  C    0.360100   0.377420   0.005010   0.000274   0.001174  -0.000001
     5  C   -0.007961   0.004373   0.374624  -0.027788  -0.032026   0.000007
     6  C    0.003958   0.000010  -0.043772   0.363622   0.375554  -0.000070
     7  O   -0.000276   0.000047   0.003059  -0.037760  -0.029608   0.002683
     8  C   -0.000138  -0.000086   0.006738   0.002486   0.003600  -0.004555
     9  C   -0.000013   0.000000  -0.000379   0.000030  -0.000069  -0.031233
    10  C    0.000001   0.000000  -0.000001  -0.000011   0.000000   0.346744
    11  C   -0.000000  -0.000000  -0.000000  -0.000000   0.000000  -0.031367
    12  O   -0.000000   0.000000   0.000000   0.000000  -0.000000  -0.000315
    13  C   -0.000000   0.000000  -0.000000  -0.000000  -0.000000  -0.000132
    14  C   -0.000000  -0.000000  -0.000000  -0.000000  -0.000000   0.006428
    15  C    0.000000   0.000000  -0.000000  -0.000000  -0.000000  -0.000164
    16  N   -0.000001   0.000000   0.000005   0.000004   0.000003   0.003744
    17  N    0.000181  -0.000019  -0.045433   0.000649   0.003117   0.000084
    18  H    0.001915   0.000180   0.000077   0.000002   0.001696  -0.000000
    19  H   -0.000089   0.000034   0.000371   0.000871   0.000499  -0.000000
    20  H   -0.000070  -0.000030  -0.000026  -0.000011  -0.000015   0.000000
    21  H   -0.000070   0.000032   0.005317  -0.000013   0.000113   0.000000
    22  H   -0.000318   0.004149   0.000006   0.000008  -0.000048  -0.000000
    23  H    0.005490  -0.003808  -0.002646  -0.000132   0.000138   0.000000
    24  H   -0.032040  -0.026187  -0.000040  -0.000025   0.000059  -0.000001
    25  H    0.600146  -0.033261  -0.000068  -0.000022   0.002869  -0.000000
    26  H   -0.033261   0.540113  -0.000095   0.000002  -0.000196  -0.000000
    27  H   -0.000068  -0.000095   0.570670  -0.007487   0.004070  -0.000000
    28  H   -0.000022   0.000002  -0.007487   0.573510  -0.045369  -0.000005
    29  H    0.002869  -0.000196   0.004070  -0.045369   0.538370   0.000000
    30  H   -0.000000  -0.000000  -0.000000  -0.000005   0.000000   0.514985
    31  H   -0.000000  -0.000000   0.000000  -0.000000   0.000000   0.000019
    32  H    0.000000  -0.000000   0.000000  -0.000000  -0.000000  -0.000017
    33  H   -0.000000   0.000000  -0.000000  -0.000000   0.000000   0.000019
    34  H    0.000000   0.000000  -0.000000  -0.000000  -0.000000  -0.000110
    35  H   -0.000000   0.000000   0.000000   0.000000   0.000000   0.000015
    36  Ni   0.000747  -0.000263  -0.007611   0.001934  -0.001193   0.001910
    37  F   -0.000000  -0.000000  -0.000076  -0.000000   0.000000   0.000000
    38  F    0.000016  -0.000038  -0.000015   0.000000  -0.000000   0.000000
              31         32         33         34         35         36
     1  C   -0.000000   0.000000   0.000000   0.000000  -0.000000   0.000088
     2  C    0.000000  -0.000000  -0.000000  -0.000000  -0.000000   0.000177
     3  C   -0.000000   0.000000  -0.000000   0.000000  -0.000000   0.006571
     4  C   -0.000000  -0.000000   0.000000  -0.000000  -0.000000   0.004240
     5  C    0.000000  -0.000000  -0.000000  -0.000000  -0.000001  -0.023288
     6  C    0.000000  -0.000000   0.000000   0.000000  -0.000000   0.000099
     7  O    0.000000  -0.000000  -0.000000   0.000000   0.000000   0.012892
     8  C    0.000000  -0.000000   0.000000   0.000017  -0.000196  -0.091139
     9  C    0.000018  -0.000002   0.000024   0.000679   0.005492  -0.075779
    10  C   -0.000023  -0.000069  -0.000055   0.004088   0.000308   0.002855
    11  C   -0.005318   0.003058  -0.005345  -0.038096   0.002005  -0.005733
    12  O   -0.033253  -0.028432  -0.033183  -0.006776  -0.000034   0.000862
    13  C    0.367337   0.386595   0.367481   0.005939  -0.000002  -0.000005
    14  C    0.003866   0.000100   0.003963   0.354982  -0.045507   0.006940
    15  C   -0.000085   0.000002  -0.000086  -0.031558   0.374271  -0.035036
    16  N   -0.000004   0.000000  -0.000005   0.003299  -0.039292   0.133024
    17  N   -0.000000   0.000000  -0.000000   0.000000   0.000015   0.138944
    18  H   -0.000000   0.000000   0.000000   0.000000   0.000000   0.000189
    19  H    0.000000   0.000000   0.000000   0.000000   0.000000   0.000810
    20  H   -0.000000  -0.000000  -0.000000  -0.000000   0.000000  -0.000243
    21  H    0.000000  -0.000000   0.000000   0.000000   0.000000   0.001017
    22  H   -0.000000   0.000000   0.000000   0.000000   0.000000   0.000995
    23  H    0.000000   0.000000  -0.000000   0.000000   0.000000  -0.006144
    24  H    0.000000  -0.000000  -0.000000  -0.000000  -0.000000   0.001182
    25  H   -0.000000   0.000000  -0.000000   0.000000  -0.000000   0.000747
    26  H   -0.000000  -0.000000   0.000000   0.000000   0.000000  -0.000263
    27  H    0.000000   0.000000  -0.000000  -0.000000   0.000000  -0.007611
    28  H   -0.000000  -0.000000  -0.000000  -0.000000   0.000000   0.001934
    29  H    0.000000  -0.000000   0.000000  -0.000000   0.000000  -0.001193
    30  H    0.000019  -0.000017   0.000019  -0.000110   0.000015   0.001910
    31  H    0.575009  -0.032038  -0.044831   0.001699   0.000000   0.000260
    32  H   -0.032038   0.514151  -0.031992  -0.000127  -0.000000  -0.000099
    33  H   -0.044831  -0.031992   0.574387   0.001568   0.000000   0.000284
    34  H    0.001699  -0.000127   0.001568   0.536267  -0.002029   0.000858
    35  H    0.000000  -0.000000   0.000000  -0.002029   0.496588  -0.011373
    36  Ni   0.000260  -0.000099   0.000284   0.000858  -0.011373  16.877107
    37  F   -0.000000   0.000000   0.000000   0.000000  -0.000282   0.242145
    38  F    0.000000  -0.000000  -0.000000   0.000000  -0.000135   0.224171
              37         38
     1  C    0.000000  -0.000000
     2  C   -0.000000   0.000064
     3  C    0.000005  -0.004168
     4  C   -0.000000  -0.000278
     5  C   -0.000187  -0.000406
     6  C   -0.000002  -0.000001
     7  O    0.000000   0.000000
     8  C   -0.000345  -0.001229
     9  C   -0.000813  -0.000598
    10  C   -0.000001  -0.000000
    11  C   -0.000000  -0.000000
    12  O   -0.000000  -0.000000
    13  C   -0.000000  -0.000000
    14  C   -0.000001  -0.000001
    15  C   -0.000618  -0.000425
    16  N   -0.003009  -0.002952
    17  N   -0.004186  -0.002574
    18  H    0.000000  -0.000000
    19  H   -0.000000   0.000000
    20  H    0.000000   0.000000
    21  H   -0.000000  -0.000000
    22  H    0.000000   0.000000
    23  H   -0.000267   0.015208
    24  H   -0.000002   0.001371
    25  H   -0.000000   0.000016
    26  H   -0.000000  -0.000038
    27  H   -0.000076  -0.000015
    28  H   -0.000000   0.000000
    29  H    0.000000  -0.000000
    30  H    0.000000   0.000000
    31  H   -0.000000   0.000000
    32  H    0.000000  -0.000000
    33  H    0.000000  -0.000000
    34  H    0.000000   0.000000
    35  H   -0.000282  -0.000135
    36  Ni   0.242145   0.224171
    37  F    9.240955  -0.002222
    38  F   -0.002222   9.251620
          Atomic-Atomic Spin Densities.
               1          2          3          4          5          6
     1  C   -0.000096   0.000098  -0.000059   0.000004  -0.000014   0.000076
     2  C    0.000098  -0.000564   0.000501   0.000020   0.000201  -0.000134
     3  C   -0.000059   0.000501  -0.000938  -0.000127   0.001193  -0.000295
     4  C    0.000004   0.000020  -0.000127  -0.000888  -0.000122   0.000107
     5  C   -0.000014   0.000201   0.001193  -0.000122   0.008350  -0.006913
     6  C    0.000076  -0.000134  -0.000295   0.000107  -0.006913   0.016924
     7  O    0.000001  -0.000002  -0.000058   0.000024  -0.001709   0.001593
     8  C   -0.000001   0.000004   0.000221  -0.000107   0.001056  -0.000628
     9  C   -0.000000   0.000000   0.000013  -0.000009   0.000587  -0.000323
    10  C   -0.000000   0.000000   0.000001  -0.000000   0.000004  -0.000014
    11  C    0.000000  -0.000000   0.000000   0.000000  -0.000000  -0.000000
    12  O   -0.000000   0.000000   0.000000  -0.000000  -0.000000   0.000000
    13  C   -0.000000   0.000000  -0.000000  -0.000000  -0.000000   0.000000
    14  C   -0.000000   0.000000   0.000000  -0.000000   0.000000  -0.000000
    15  C   -0.000000   0.000000  -0.000000  -0.000000   0.000002  -0.000000
    16  N   -0.000000   0.000000   0.000009  -0.000002   0.000159  -0.000033
    17  N    0.000000  -0.000007  -0.000825   0.000055  -0.007239  -0.001270
    18  H   -0.000001  -0.000005   0.000001   0.000002  -0.000001   0.000009
    19  H    0.000015  -0.000004   0.000004  -0.000001  -0.000003  -0.000006
    20  H   -0.000003  -0.000017  -0.000000   0.000000   0.000001   0.000003
    21  H    0.000009  -0.000029  -0.000005   0.000001   0.000001   0.000012
    22  H    0.000008   0.000004   0.000022  -0.000011  -0.000006   0.000000
    23  H    0.000013  -0.000277   0.001398   0.000089   0.000143  -0.000020
    24  H    0.000002  -0.000034   0.000023   0.000421   0.000052  -0.000002
    25  H    0.000001  -0.000008  -0.000017   0.000206   0.000026  -0.000038
    26  H    0.000002  -0.000017   0.000038  -0.000030  -0.000006   0.000003
    27  H   -0.000008   0.000079  -0.000251   0.000003   0.000631  -0.000194
    28  H    0.000000  -0.000003  -0.000012  -0.000002   0.000455  -0.000604
    29  H   -0.000031   0.000036   0.000030  -0.000028   0.000287  -0.001219
    30  H    0.000000  -0.000000  -0.000000   0.000000  -0.000002   0.000002
    31  H    0.000000  -0.000000  -0.000000   0.000000   0.000000   0.000000
    32  H    0.000000  -0.000000  -0.000000  -0.000000  -0.000000  -0.000000
    33  H   -0.000000   0.000000   0.000000  -0.000000  -0.000000  -0.000000
    34  H    0.000000  -0.000000  -0.000000   0.000000  -0.000000   0.000000
    35  H    0.000000  -0.000000  -0.000000   0.000000   0.000000   0.000000
    36  Ni  -0.000014   0.000165  -0.000091   0.000167   0.003627  -0.000587
    37  F   -0.000000   0.000000  -0.000002   0.000000   0.000054  -0.000001
    38  F   -0.000000  -0.000001   0.000037   0.000060   0.000097  -0.000002
               7          8          9         10         11         12
     1  C    0.000001  -0.000001  -0.000000  -0.000000   0.000000  -0.000000
     2  C   -0.000002   0.000004   0.000000   0.000000  -0.000000   0.000000
     3  C   -0.000058   0.000221   0.000013   0.000001   0.000000   0.000000
     4  C    0.000024  -0.000107  -0.000009  -0.000000   0.000000  -0.000000
     5  C   -0.001709   0.001056   0.000587   0.000004  -0.000000  -0.000000
     6  C    0.001593  -0.000628  -0.000323  -0.000014  -0.000000   0.000000
     7  O   -0.006976   0.005914  -0.000639  -0.000137   0.000000   0.000000
     8  C    0.005914  -0.029701  -0.012082  -0.001753  -0.000023  -0.000000
     9  C   -0.000639  -0.012082  -0.022683   0.004729   0.000536  -0.000018
    10  C   -0.000137  -0.001753   0.004729   0.008279  -0.002538   0.000176
    11  C    0.000000  -0.000023   0.000536  -0.002538  -0.021511   0.003375
    12  O    0.000000  -0.000000  -0.000018   0.000176   0.003375  -0.007270
    13  C    0.000000   0.000000   0.000000   0.000018   0.000136  -0.000215
    14  C   -0.000000  -0.000135  -0.001116   0.000862   0.001329  -0.000149
    15  C   -0.000000   0.000136   0.000474  -0.000877   0.000398  -0.000018
    16  N   -0.000047  -0.006164   0.010690  -0.001379  -0.000857   0.000005
    17  N   -0.002184   0.010482  -0.002612  -0.000026   0.000003   0.000000
    18  H    0.000000  -0.000000  -0.000000  -0.000000   0.000000   0.000000
    19  H   -0.000000  -0.000000   0.000000  -0.000000   0.000000  -0.000000
    20  H    0.000000  -0.000000  -0.000000  -0.000000   0.000000   0.000000
    21  H    0.000000  -0.000000  -0.000000  -0.000000  -0.000000   0.000000
    22  H    0.000000   0.000000  -0.000000   0.000000   0.000000  -0.000000
    23  H   -0.000000  -0.000024  -0.000004  -0.000000  -0.000000  -0.000000
    24  H   -0.000029   0.000203   0.000035  -0.000001  -0.000000   0.000000
    25  H   -0.000006   0.000010   0.000002   0.000000  -0.000000   0.000000
    26  H    0.000000   0.000002   0.000000  -0.000000  -0.000000   0.000000
    27  H    0.000014  -0.000091  -0.000006  -0.000000  -0.000000   0.000000
    28  H   -0.000003  -0.000079   0.000013   0.000001  -0.000000  -0.000000
    29  H   -0.000062   0.000070   0.000014   0.000001  -0.000000  -0.000000
    30  H    0.000008   0.000253   0.000066  -0.000994  -0.000278   0.000003
    31  H   -0.000000   0.000000   0.000000  -0.000002  -0.000129   0.000140
    32  H   -0.000000   0.000000   0.000000   0.000001  -0.000013  -0.000011
    33  H   -0.000000   0.000000   0.000001  -0.000004  -0.000124   0.000135
    34  H    0.000000   0.000003   0.000067  -0.000015  -0.000458  -0.000012
    35  H    0.000000   0.000022  -0.000075  -0.000008  -0.000083  -0.000000
    36  Ni  -0.000485   0.006569   0.005328  -0.000514   0.000078  -0.000017
    37  F   -0.000000   0.000032  -0.000003  -0.000001  -0.000000   0.000000
    38  F   -0.000000   0.000039   0.000005  -0.000001  -0.000000   0.000000
              13         14         15         16         17         18
     1  C   -0.000000  -0.000000  -0.000000  -0.000000   0.000000  -0.000001
     2  C    0.000000   0.000000   0.000000   0.000000  -0.000007  -0.000005
     3  C   -0.000000   0.000000  -0.000000   0.000009  -0.000825   0.000001
     4  C   -0.000000  -0.000000  -0.000000  -0.000002   0.000055   0.000002
     5  C   -0.000000   0.000000   0.000002   0.000159  -0.007239  -0.000001
     6  C    0.000000  -0.000000  -0.000000  -0.000033  -0.001270   0.000009
     7  O    0.000000  -0.000000  -0.000000  -0.000047  -0.002184   0.000000
     8  C    0.000000  -0.000135   0.000136  -0.006164   0.010482  -0.000000
     9  C    0.000000  -0.001116   0.000474   0.010690  -0.002612  -0.000000
    10  C    0.000018   0.000862  -0.000877  -0.001379  -0.000026  -0.000000
    11  C    0.000136   0.001329   0.000398  -0.000857   0.000003   0.000000
    12  O   -0.000215  -0.000149  -0.000018   0.000005   0.000000   0.000000
    13  C    0.000374  -0.000045   0.000000   0.000001  -0.000000   0.000000
    14  C   -0.000045   0.023557  -0.006105  -0.001018  -0.000014  -0.000000
    15  C    0.000000  -0.006105  -0.019297   0.000284  -0.000078  -0.000000
    16  N    0.000001  -0.001018   0.000284   0.130716  -0.003447  -0.000000
    17  N   -0.000000  -0.000014  -0.000078  -0.003447   0.132177  -0.000000
    18  H    0.000000  -0.000000  -0.000000  -0.000000  -0.000000   0.000004
    19  H   -0.000000  -0.000000  -0.000000  -0.000000  -0.000000   0.000000
    20  H    0.000000  -0.000000  -0.000000  -0.000000   0.000000   0.000006
    21  H    0.000000  -0.000000  -0.000000  -0.000000   0.000003   0.000001
    22  H   -0.000000  -0.000000  -0.000000  -0.000000  -0.000001  -0.000000
    23  H    0.000000  -0.000000   0.000000  -0.000011  -0.000245  -0.000000
    24  H    0.000000   0.000000   0.000002  -0.000021  -0.000086   0.000000
    25  H    0.000000   0.000000   0.000000   0.000000   0.000005  -0.000001
    26  H   -0.000000   0.000000  -0.000000  -0.000000  -0.000003   0.000000
    27  H    0.000000  -0.000000   0.000000  -0.000002  -0.000404   0.000000
    28  H   -0.000000   0.000000  -0.000000   0.000000   0.000127  -0.000000
    29  H   -0.000000   0.000000   0.000000   0.000000   0.000128  -0.000007
    30  H    0.000003   0.000017   0.000036   0.000101  -0.000007   0.000000
    31  H    0.000102   0.000035   0.000005  -0.000000   0.000000   0.000000
    32  H   -0.000041   0.000007   0.000000   0.000000  -0.000000   0.000000
    33  H    0.000100   0.000032   0.000003  -0.000000  -0.000000  -0.000000
    34  H   -0.000015  -0.002256   0.000652   0.000124   0.000000   0.000000
    35  H    0.000000  -0.001745   0.001542  -0.001865   0.000001   0.000000
    36  Ni  -0.000001  -0.000671   0.003321  -0.048775  -0.043062  -0.000006
    37  F    0.000000  -0.000001   0.000064  -0.001496  -0.001573  -0.000000
    38  F    0.000000  -0.000001   0.000048  -0.001500  -0.001316  -0.000000
              19         20         21         22         23         24
     1  C    0.000015  -0.000003   0.000009   0.000008   0.000013   0.000002
     2  C   -0.000004  -0.000017  -0.000029   0.000004  -0.000277  -0.000034
     3  C    0.000004  -0.000000  -0.000005   0.000022   0.001398   0.000023
     4  C   -0.000001   0.000000   0.000001  -0.000011   0.000089   0.000421
     5  C   -0.000003   0.000001   0.000001  -0.000006   0.000143   0.000052
     6  C   -0.000006   0.000003   0.000012   0.000000  -0.000020  -0.000002
     7  O   -0.000000   0.000000   0.000000   0.000000  -0.000000  -0.000029
     8  C   -0.000000  -0.000000  -0.000000   0.000000  -0.000024   0.000203
     9  C    0.000000  -0.000000  -0.000000  -0.000000  -0.000004   0.000035
    10  C   -0.000000  -0.000000  -0.000000   0.000000  -0.000000  -0.000001
    11  C    0.000000   0.000000  -0.000000   0.000000  -0.000000  -0.000000
    12  O   -0.000000   0.000000   0.000000  -0.000000  -0.000000   0.000000
    13  C   -0.000000   0.000000   0.000000  -0.000000   0.000000   0.000000
    14  C   -0.000000  -0.000000  -0.000000  -0.000000  -0.000000   0.000000
    15  C   -0.000000  -0.000000  -0.000000  -0.000000   0.000000   0.000002
    16  N   -0.000000  -0.000000  -0.000000  -0.000000  -0.000011  -0.000021
    17  N   -0.000000   0.000000   0.000003  -0.000001  -0.000245  -0.000086
    18  H    0.000000   0.000006   0.000001  -0.000000  -0.000000   0.000000
    19  H   -0.000011  -0.000003  -0.000001  -0.000000  -0.000000  -0.000000
    20  H   -0.000003   0.000029   0.000004  -0.000003  -0.000000  -0.000000
    21  H   -0.000001   0.000004   0.000030  -0.000008   0.000008  -0.000000
    22  H   -0.000000  -0.000003  -0.000008   0.000025  -0.000005   0.000001
    23  H   -0.000000  -0.000000   0.000008  -0.000005  -0.001692  -0.000073
    24  H   -0.000000  -0.000000  -0.000000   0.000001  -0.000073  -0.000401
    25  H   -0.000000  -0.000000  -0.000000  -0.000000  -0.000008  -0.000101
    26  H    0.000000  -0.000000  -0.000000   0.000006  -0.000007  -0.000002
    27  H   -0.000002   0.000000   0.000007  -0.000003  -0.000006  -0.000001
    28  H   -0.000001  -0.000000  -0.000001   0.000000   0.000000  -0.000001
    29  H    0.000004  -0.000002  -0.000001  -0.000000   0.000002   0.000002
    30  H   -0.000000   0.000000   0.000000  -0.000000   0.000000   0.000000
    31  H   -0.000000  -0.000000  -0.000000   0.000000  -0.000000  -0.000000
    32  H   -0.000000   0.000000   0.000000  -0.000000   0.000000   0.000000
    33  H    0.000000   0.000000   0.000000  -0.000000   0.000000   0.000000
    34  H   -0.000000   0.000000   0.000000   0.000000   0.000000   0.000000
    35  H   -0.000000   0.000000   0.000000  -0.000000   0.000000   0.000000
    36  Ni   0.000001  -0.000006  -0.000019  -0.000016   0.000273   0.000009
    37  F   -0.000000  -0.000000  -0.000000  -0.000000   0.000007   0.000000
    38  F   -0.000000  -0.000000  -0.000000  -0.000000  -0.000235  -0.000074
              25         26         27         28         29         30
     1  C    0.000001   0.000002  -0.000008   0.000000  -0.000031   0.000000
     2  C   -0.000008  -0.000017   0.000079  -0.000003   0.000036  -0.000000
     3  C   -0.000017   0.000038  -0.000251  -0.000012   0.000030  -0.000000
     4  C    0.000206  -0.000030   0.000003  -0.000002  -0.000028   0.000000
     5  C    0.000026  -0.000006   0.000631   0.000455   0.000287  -0.000002
     6  C   -0.000038   0.000003  -0.000194  -0.000604  -0.001219   0.000002
     7  O   -0.000006   0.000000   0.000014  -0.000003  -0.000062   0.000008
     8  C    0.000010   0.000002  -0.000091  -0.000079   0.000070   0.000253
     9  C    0.000002   0.000000  -0.000006   0.000013   0.000014   0.000066
    10  C    0.000000  -0.000000  -0.000000   0.000001   0.000001  -0.000994
    11  C   -0.000000  -0.000000  -0.000000  -0.000000  -0.000000  -0.000278
    12  O    0.000000   0.000000   0.000000  -0.000000  -0.000000   0.000003
    13  C    0.000000  -0.000000   0.000000  -0.000000  -0.000000   0.000003
    14  C    0.000000   0.000000  -0.000000   0.000000   0.000000   0.000017
    15  C    0.000000  -0.000000   0.000000  -0.000000   0.000000   0.000036
    16  N    0.000000  -0.000000  -0.000002   0.000000   0.000000   0.000101
    17  N    0.000005  -0.000003  -0.000404   0.000127   0.000128  -0.000007
    18  H   -0.000001   0.000000   0.000000  -0.000000  -0.000007   0.000000
    19  H   -0.000000   0.000000  -0.000002  -0.000001   0.000004  -0.000000
    20  H   -0.000000  -0.000000   0.000000  -0.000000  -0.000002   0.000000
    21  H   -0.000000  -0.000000   0.000007  -0.000001  -0.000001   0.000000
    22  H   -0.000000   0.000006  -0.000003   0.000000  -0.000000  -0.000000
    23  H   -0.000008  -0.000007  -0.000006   0.000000   0.000002   0.000000
    24  H   -0.000101  -0.000002  -0.000001  -0.000001   0.000002   0.000000
    25  H   -0.000129  -0.000014   0.000001   0.000000   0.000019  -0.000000
    26  H   -0.000014   0.000065  -0.000001  -0.000000  -0.000001  -0.000000
    27  H    0.000001  -0.000001   0.000611   0.000024   0.000002   0.000000
    28  H    0.000000  -0.000000   0.000024  -0.000649   0.000276  -0.000000
    29  H    0.000019  -0.000001   0.000002   0.000276   0.000500  -0.000000
    30  H   -0.000000  -0.000000   0.000000  -0.000000  -0.000000   0.001112
    31  H   -0.000000  -0.000000  -0.000000  -0.000000   0.000000   0.000000
    32  H   -0.000000  -0.000000   0.000000  -0.000000  -0.000000   0.000000
    33  H    0.000000   0.000000   0.000000   0.000000  -0.000000  -0.000000
    34  H   -0.000000  -0.000000   0.000000  -0.000000  -0.000000   0.000005
    35  H    0.000000  -0.000000   0.000000  -0.000000  -0.000000   0.000001
    36  Ni   0.000030  -0.000013   0.000331   0.000079   0.000117   0.000084
    37  F    0.000000  -0.000000   0.000006   0.000000   0.000000   0.000000
    38  F   -0.000000  -0.000004  -0.000000   0.000000   0.000000   0.000000
              31         32         33         34         35         36
     1  C    0.000000   0.000000  -0.000000   0.000000   0.000000  -0.000014
     2  C   -0.000000  -0.000000   0.000000  -0.000000  -0.000000   0.000165
     3  C   -0.000000  -0.000000   0.000000  -0.000000  -0.000000  -0.000091
     4  C    0.000000  -0.000000  -0.000000   0.000000   0.000000   0.000167
     5  C    0.000000  -0.000000  -0.000000  -0.000000   0.000000   0.003627
     6  C    0.000000  -0.000000  -0.000000   0.000000   0.000000  -0.000587
     7  O   -0.000000  -0.000000  -0.000000   0.000000   0.000000  -0.000485
     8  C    0.000000   0.000000   0.000000   0.000003   0.000022   0.006569
     9  C    0.000000   0.000000   0.000001   0.000067  -0.000075   0.005328
    10  C   -0.000002   0.000001  -0.000004  -0.000015  -0.000008  -0.000514
    11  C   -0.000129  -0.000013  -0.000124  -0.000458  -0.000083   0.000078
    12  O    0.000140  -0.000011   0.000135  -0.000012  -0.000000  -0.000017
    13  C    0.000102  -0.000041   0.000100  -0.000015   0.000000  -0.000001
    14  C    0.000035   0.000007   0.000032  -0.002256  -0.001745  -0.000671
    15  C    0.000005   0.000000   0.000003   0.000652   0.001542   0.003321
    16  N   -0.000000   0.000000  -0.000000   0.000124  -0.001865  -0.048775
    17  N    0.000000  -0.000000  -0.000000   0.000000   0.000001  -0.043062
    18  H    0.000000   0.000000  -0.000000   0.000000   0.000000  -0.000006
    19  H   -0.000000  -0.000000   0.000000  -0.000000  -0.000000   0.000001
    20  H   -0.000000   0.000000   0.000000   0.000000   0.000000  -0.000006
    21  H   -0.000000   0.000000   0.000000   0.000000   0.000000  -0.000019
    22  H    0.000000  -0.000000  -0.000000   0.000000  -0.000000  -0.000016
    23  H   -0.000000   0.000000   0.000000   0.000000   0.000000   0.000273
    24  H   -0.000000   0.000000   0.000000   0.000000   0.000000   0.000009
    25  H   -0.000000  -0.000000   0.000000  -0.000000   0.000000   0.000030
    26  H   -0.000000  -0.000000   0.000000  -0.000000  -0.000000  -0.000013
    27  H   -0.000000   0.000000   0.000000   0.000000   0.000000   0.000331
    28  H   -0.000000  -0.000000   0.000000  -0.000000  -0.000000   0.000079
    29  H    0.000000  -0.000000  -0.000000  -0.000000  -0.000000   0.000117
    30  H    0.000000   0.000000  -0.000000   0.000005   0.000001   0.000084
    31  H   -0.000659  -0.000006   0.000188  -0.000003  -0.000000  -0.000000
    32  H   -0.000006   0.000110  -0.000002   0.000005   0.000000   0.000002
    33  H    0.000188  -0.000002  -0.000659  -0.000004  -0.000000   0.000003
    34  H   -0.000003   0.000005  -0.000004   0.002390   0.000280   0.000143
    35  H   -0.000000   0.000000  -0.000000   0.000280   0.004021   0.000951
    36  Ni  -0.000000   0.000002   0.000003   0.000143   0.000951   1.827883
    37  F    0.000000   0.000000  -0.000000   0.000000   0.000055  -0.027036
    38  F   -0.000000   0.000000   0.000000   0.000000   0.000042  -0.025216
              37         38
     1  C   -0.000000  -0.000000
     2  C    0.000000  -0.000001
     3  C   -0.000002   0.000037
     4  C    0.000000   0.000060
     5  C    0.000054   0.000097
     6  C   -0.000001  -0.000002
     7  O   -0.000000  -0.000000
     8  C    0.000032   0.000039
     9  C   -0.000003   0.000005
    10  C   -0.000001  -0.000001
    11  C   -0.000000  -0.000000
    12  O    0.000000   0.000000
    13  C    0.000000   0.000000
    14  C   -0.000001  -0.000001
    15  C    0.000064   0.000048
    16  N   -0.001496  -0.001500
    17  N   -0.001573  -0.001316
    18  H   -0.000000  -0.000000
    19  H   -0.000000  -0.000000
    20  H   -0.000000  -0.000000
    21  H   -0.000000  -0.000000
    22  H   -0.000000  -0.000000
    23  H    0.000007  -0.000235
    24  H    0.000000  -0.000074
    25  H    0.000000  -0.000000
    26  H   -0.000000  -0.000004
    27  H    0.000006  -0.000000
    28  H    0.000000   0.000000
    29  H    0.000000   0.000000
    30  H    0.000000   0.000000
    31  H    0.000000  -0.000000
    32  H    0.000000   0.000000
    33  H   -0.000000   0.000000
    34  H    0.000000   0.000000
    35  H    0.000055   0.000042
    36  Ni  -0.027036  -0.025216
    37  F    0.138097   0.000017
    38  F    0.000017   0.123658
 Mulliken charges and spin densities:
               1          2
     1  C   -0.460611   0.000004
     2  C   -0.271346   0.000006
     3  C   -0.098983   0.000812
     4  C   -0.478414  -0.000166
     5  C   -0.030149   0.000910
     6  C   -0.074562   0.006445
     7  O   -0.521124  -0.004784
     8  C    0.583355  -0.025770
     9  C    0.364087  -0.017009
    10  C   -0.227434   0.005809
    11  C    0.423772  -0.020158
    12  O   -0.502783  -0.003875
    13  C   -0.231170   0.000418
    14  C   -0.224942   0.012585
    15  C    0.103363  -0.019409
    16  N   -0.586043   0.075473
    17  N   -0.486967   0.078582
    18  H    0.149629   0.000001
    19  H    0.137179  -0.000008
    20  H    0.153714   0.000009
    21  H    0.146902   0.000011
    22  H    0.151013   0.000014
    23  H    0.207474  -0.000674
    24  H    0.183090  -0.000075
    25  H    0.134945  -0.000021
    26  H    0.167003   0.000018
    27  H    0.181811   0.000740
    28  H    0.171576  -0.000380
    29  H    0.181740   0.000137
    30  H    0.191331   0.000411
    31  H    0.167344  -0.000331
    32  H    0.188869   0.000053
    33  H    0.167769  -0.000331
    34  H    0.169302   0.000905
    35  H    0.220155   0.003138
    36  Ni   0.597605   1.702634
    37  F   -0.471092   0.108221
    38  F   -0.477406   0.095654
 Sum of Mulliken charges =  -0.00000   2.00000
 Mulliken charges and spin densities with hydrogens summed into heavy atoms:
               1          2
     1  C   -0.020088   0.000005
     2  C    0.026569   0.000030
     3  C    0.108490   0.000139
     4  C    0.006624  -0.000244
     5  C    0.151661   0.001650
     6  C    0.278754   0.006203
     7  O   -0.521124  -0.004784
     8  C    0.583355  -0.025770
     9  C    0.364087  -0.017009
    10  C   -0.036103   0.006220
    11  C    0.423772  -0.020158
    12  O   -0.502783  -0.003875
    13  C    0.292812  -0.000191
    14  C   -0.055640   0.013490
    15  C    0.323518  -0.016271
    16  N   -0.586043   0.075473
    17  N   -0.486967   0.078582
    36  Ni   0.597605   1.702634
    37  F   -0.471092   0.108221
    38  F   -0.477406   0.095654
 Electronic spatial extent (au):  <R**2>=           7220.4592
 Charge=             -0.0000 electrons
 Dipole moment (field-independent basis, Debye):
    X=             -5.4299    Y=             -8.7645    Z=              0.2374  Tot=             10.3129
 Quadrupole moment (field-independent basis, Debye-Ang):
   XX=            -74.0580   YY=           -146.0558   ZZ=           -131.0999
   XY=            -10.1595   XZ=             -8.2051   YZ=              4.9362
 Traceless Quadrupole moment (field-independent basis, Debye-Ang):
   XX=             43.0132   YY=            -28.9846   ZZ=            -14.0287
   XY=            -10.1595   XZ=             -8.2051   YZ=              4.9362
 Octapole moment (field-independent basis, Debye-Ang**2):
  XXX=           -183.6426  YYY=             -0.4162  ZZZ=             -9.2719  XYY=            -23.2847
  XXY=              3.8541  XXZ=             21.8186  XZZ=              2.8664  YZZ=             -6.4240
  YYZ=             10.6512  XYZ=             -1.1567
 Hexadecapole moment (field-independent basis, Debye-Ang**3):
 XXXX=          -5390.6745 YYYY=          -1946.7985 ZZZZ=           -624.5436 XXXY=            197.2113
 XXXZ=           -146.9029 YYYX=            -14.5015 YYYZ=             52.3113 ZZZX=            -12.8697
 ZZZY=              4.9739 XXYY=          -1386.7055 XXZZ=          -1230.8865 YYZZ=           -460.5684
 XXYZ=            -11.4721 YYXZ=            -28.6444 ZZXY=              0.4922
 N-N= 1.890899796834D+03 E-N=-6.448611923371D+03  KE= 1.064474158429D+03
                          Isotropic Fermi Contact Couplings
        Atom                 a.u.       MegaHertz       Gauss      10(-4) cm-1
     1  C(13)             -0.00003      -0.01676      -0.00598      -0.00559
     2  C(13)             -0.00007      -0.03677      -0.01312      -0.01226
     3  C(13)              0.00079       0.44193       0.15769       0.14741
     4  C(13)             -0.00021      -0.12045      -0.04298      -0.04018
     5  C(13)              0.00586       3.29669       1.17634       1.09966
     6  C(13)              0.00459       2.58077       0.92088       0.86085
     7  O(17)              0.00193      -0.58531      -0.20885      -0.19524
     8  C(13)             -0.00413      -2.32080      -0.82812      -0.77414
     9  C(13)             -0.00385      -2.16637      -0.77301      -0.72262
    10  C(13)              0.00195       1.09429       0.39047       0.36502
    11  C(13)             -0.00200      -1.12460      -0.40129      -0.37513
    12  O(17)             -0.00113       0.34226       0.12213       0.11417
    13  C(13)              0.00016       0.09160       0.03268       0.03055
    14  C(13)              0.00662       3.71881       1.32696       1.24046
    15  C(13)              0.00117       0.66015       0.23556       0.22020
    16  N(14)              0.10186      16.45620       5.87198       5.48920
    17  N(14)              0.09899      15.99133       5.70610       5.33413
    18  H(1)               0.00000       0.00056       0.00020       0.00019
    19  H(1)               0.00000       0.00932       0.00333       0.00311
    20  H(1)               0.00000       0.00702       0.00251       0.00234
    21  H(1)               0.00000       0.00462       0.00165       0.00154
    22  H(1)               0.00001       0.02213       0.00790       0.00738
    23  H(1)              -0.00003      -0.07318      -0.02611      -0.02441
    24  H(1)              -0.00001      -0.01510      -0.00539      -0.00504
    25  H(1)               0.00000       0.00320       0.00114       0.00107
    26  H(1)               0.00001       0.02154       0.00769       0.00719
    27  H(1)               0.00047       1.05287       0.37569       0.35120
    28  H(1)              -0.00016      -0.36728      -0.13105      -0.12251
    29  H(1)              -0.00001      -0.01425      -0.00508      -0.00475
    30  H(1)               0.00016       0.36836       0.13144       0.12287
    31  H(1)              -0.00010      -0.22543      -0.08044      -0.07519
    32  H(1)               0.00002       0.05057       0.01804       0.01687
    33  H(1)              -0.00011      -0.23717      -0.08463      -0.07911
    34  H(1)               0.00027       0.59787       0.21334       0.19943
    35  H(1)               0.00146       3.26110       1.16364       1.08779
    36  Ni(61)             0.00000      -0.00025      -0.00009      -0.00008
    37  F(19)              0.02664      56.05237      20.00088      18.69706
    38  F(19)              0.02379      50.04405      17.85696      16.69290
 --------------------------------------------------------
       Center         ----  Spin Dipole Couplings  ----
                      3XX-RR        3YY-RR        3ZZ-RR
 --------------------------------------------------------
     1   Atom        0.001407     -0.000052     -0.001355
     2   Atom        0.003741     -0.001258     -0.002483
     3   Atom        0.006966     -0.002266     -0.004700
     4   Atom       -0.000481      0.001261     -0.000780
     5   Atom        0.011322      0.002075     -0.013397
     6   Atom       -0.004835      0.011644     -0.006809
     7   Atom        0.005520      0.036421     -0.041941
     8   Atom        0.004196      0.049483     -0.053679
     9   Atom        0.010555      0.027500     -0.038055
    10   Atom       -0.000041      0.003007     -0.002966
    11   Atom        0.013534      0.010452     -0.023986
    12   Atom        0.011007      0.010922     -0.021929
    13   Atom        0.000825     -0.000137     -0.000688
    14   Atom        0.005574     -0.005681      0.000108
    15   Atom        0.036740     -0.003509     -0.033232
    16   Atom        0.100504     -0.023338     -0.077166
    17   Atom       -0.086001      0.128397     -0.042396
    18   Atom        0.000689      0.000389     -0.001077
    19   Atom        0.001096      0.000275     -0.001371
    20   Atom        0.001115     -0.000226     -0.000889
    21   Atom        0.004346     -0.001898     -0.002448
    22   Atom        0.002845     -0.001377     -0.001468
    23   Atom        0.015812     -0.008298     -0.007514
    24   Atom       -0.004640      0.003062      0.001577
    25   Atom       -0.000881      0.002049     -0.001168
    26   Atom        0.000305     -0.000733      0.000428
    27   Atom        0.005900     -0.002293     -0.003608
    28   Atom       -0.002133      0.003173     -0.001040
    29   Atom       -0.001297      0.003770     -0.002472
    30   Atom       -0.000951      0.003342     -0.002391
    31   Atom        0.001089     -0.000374     -0.000715
    32   Atom        0.000521     -0.000030     -0.000491
    33   Atom        0.001262     -0.000506     -0.000757
    34   Atom        0.004629     -0.002473     -0.002157
    35   Atom        0.016724     -0.008475     -0.008249
    36   Atom       -0.034280     -0.073721      0.108001
    37   Atom       -0.069292      0.399650     -0.330359
    38   Atom       -0.013490      0.241371     -0.227880
 --------------------------------------------------------
                        XY            XZ            YZ
 --------------------------------------------------------
     1   Atom       -0.001943      0.000239     -0.000135
     2   Atom       -0.002804      0.000890     -0.000328
     3   Atom       -0.008604      0.005054     -0.002087
     4   Atom       -0.005012      0.003848     -0.004330
     5   Atom       -0.020504     -0.003014      0.003245
     6   Atom       -0.001452     -0.000153      0.003751
     7   Atom        0.001824     -0.012916     -0.009235
     8   Atom        0.002087     -0.017671      0.010304
     9   Atom        0.020291     -0.005998      0.010678
    10   Atom        0.007231      0.001595      0.000331
    11   Atom        0.005756     -0.006829      0.006130
    12   Atom        0.003478     -0.006615      0.006004
    13   Atom        0.001173     -0.000070     -0.000114
    14   Atom        0.006472     -0.000990     -0.003490
    15   Atom       -0.000090     -0.014612      0.007136
    16   Atom        0.126239     -0.000120     -0.006528
    17   Atom       -0.062333     -0.007123      0.025958
    18   Atom       -0.001762      0.000488     -0.000423
    19   Atom       -0.002056     -0.000327      0.000288
    20   Atom       -0.001167      0.000115     -0.000058
    21   Atom       -0.001916     -0.000281      0.000112
    22   Atom       -0.001654      0.001460     -0.000457
    23   Atom       -0.008096      0.008830     -0.001911
    24   Atom       -0.005309      0.004670     -0.009072
    25   Atom       -0.003018      0.001565     -0.002541
    26   Atom       -0.002731      0.003303     -0.002641
    27   Atom       -0.007893     -0.007750      0.004241
    28   Atom       -0.002559     -0.001143      0.003014
    29   Atom       -0.002978      0.000179     -0.000022
    30   Atom        0.003461      0.000414      0.000387
    31   Atom        0.001020     -0.000397     -0.000305
    32   Atom        0.000695     -0.000064     -0.000046
    33   Atom        0.000997      0.000033      0.000028
    34   Atom        0.000643     -0.001296     -0.000186
    35   Atom       -0.006745     -0.006759      0.001619
    36   Atom        0.007655     -0.134326     -0.111665
    37   Atom        0.140026     -0.053558     -0.036545
    38   Atom        0.141670      0.024248      0.156452
 --------------------------------------------------------


 ---------------------------------------------------------------------------------
              Anisotropic Spin Dipole Couplings in Principal Axis System
 ---------------------------------------------------------------------------------

       Atom             a.u.   MegaHertz   Gauss  10(-4) cm-1        Axes

              Baa    -0.0014    -0.190    -0.068    -0.063  0.5114  0.6772 -0.5290
     1 C(13)  Bbb    -0.0014    -0.182    -0.065    -0.061  0.2557  0.4678  0.8460
              Bcc     0.0028     0.372     0.133     0.124  0.8204 -0.5679  0.0661
 
              Baa    -0.0026    -0.354    -0.126    -0.118 -0.2920 -0.3863  0.8749
     2 C(13)  Bbb    -0.0025    -0.333    -0.119    -0.111  0.3066  0.8287  0.4682
              Bcc     0.0051     0.686     0.245     0.229  0.9060 -0.4049  0.1236
 
              Baa    -0.0078    -1.048    -0.374    -0.350  0.5596  0.7041 -0.4371
     3 C(13)  Bbb    -0.0059    -0.791    -0.282    -0.264  0.0124  0.5202  0.8540
              Bcc     0.0137     1.839     0.656     0.614  0.8287 -0.4833  0.2824
 
              Baa    -0.0047    -0.635    -0.227    -0.212  0.8215  0.5233 -0.2264
     4 C(13)  Bbb    -0.0042    -0.563    -0.201    -0.188 -0.1201  0.5470  0.8285
              Bcc     0.0089     1.198     0.428     0.400 -0.5574  0.6534 -0.5122
 
              Baa    -0.0148    -1.983    -0.708    -0.661  0.4642  0.6751 -0.5734
     5 C(13)  Bbb    -0.0134    -1.798    -0.642    -0.600  0.4276  0.3961  0.8126
              Bcc     0.0282     3.781     1.349     1.261  0.7757 -0.6223 -0.1048
 
              Baa    -0.0075    -1.013    -0.361    -0.338 -0.0492 -0.1951  0.9795
     6 C(13)  Bbb    -0.0050    -0.664    -0.237    -0.222  0.9953  0.0725  0.0644
              Bcc     0.0125     1.677     0.598     0.559 -0.0836  0.9781  0.1907
 
              Baa    -0.0461     3.336     1.190     1.113  0.2380  0.1028  0.9658
     7 O(17)  Bbb     0.0083    -0.597    -0.213    -0.199  0.9652 -0.1357 -0.2234
              Bcc     0.0379    -2.739    -0.977    -0.914  0.1081  0.9854 -0.1315
 
              Baa    -0.0597    -8.005    -2.856    -2.670  0.2684 -0.0956  0.9585
     8 C(13)  Bbb     0.0091     1.228     0.438     0.410  0.9633  0.0186 -0.2679
              Bcc     0.0505     6.777     2.418     2.261  0.0078  0.9952  0.0971
 
              Baa    -0.0415    -5.571    -1.988    -1.858  0.1903 -0.2045  0.9602
     9 C(13)  Bbb     0.0001     0.013     0.005     0.004  0.8211 -0.5029 -0.2698
              Bcc     0.0414     5.558     1.983     1.854  0.5381  0.8398  0.0722
 
              Baa    -0.0062    -0.838    -0.299    -0.279  0.7546 -0.5790 -0.3089
    10 C(13)  Bbb    -0.0028    -0.371    -0.132    -0.124  0.1761 -0.2748  0.9452
              Bcc     0.0090     1.209     0.431     0.403  0.6321  0.7677  0.1054
 
              Baa    -0.0265    -3.562    -1.271    -1.188  0.1913 -0.1893  0.9631
    11 C(13)  Bbb     0.0085     1.143     0.408     0.381 -0.5489  0.7928  0.2649
              Bcc     0.0180     2.420     0.863     0.807  0.8137  0.5793 -0.0477
 
              Baa    -0.0244     1.768     0.631     0.590  0.1977 -0.1830  0.9630
    12 O(17)  Bbb     0.0100    -0.722    -0.258    -0.241 -0.6558  0.7055  0.2687
              Bcc     0.0145    -1.046    -0.373    -0.349  0.7286  0.6847 -0.0195
 
              Baa    -0.0009    -0.126    -0.045    -0.042 -0.5344  0.8156  0.2217
    13 C(13)  Bbb    -0.0007    -0.091    -0.033    -0.031  0.1666 -0.1555  0.9737
              Bcc     0.0016     0.217     0.077     0.072  0.8286  0.5573 -0.0528
 
              Baa    -0.0095    -1.269    -0.453    -0.423 -0.3630  0.8868  0.2860
    14 C(13)  Bbb     0.0003     0.040     0.014     0.013  0.3577 -0.1508  0.9216
              Bcc     0.0092     1.229     0.439     0.410  0.8604  0.4369 -0.2625
 
              Baa    -0.0376    -5.044    -1.800    -1.683  0.1887 -0.2008  0.9613
    15 C(13)  Bbb    -0.0021    -0.286    -0.102    -0.095  0.0737  0.9790  0.1900
              Bcc     0.0397     5.330     1.902     1.778  0.9793 -0.0350 -0.1996
 
              Baa    -0.1032    -3.979    -1.420    -1.327 -0.5154  0.8318  0.2063
    16 N(14)  Bbb    -0.0761    -2.933    -1.047    -0.979  0.1207 -0.1679  0.9784
              Bcc     0.1792     6.913     2.467     2.306  0.8484  0.5291 -0.0139
 
              Baa    -0.1028    -3.965    -1.415    -1.323  0.9656  0.2601  0.0021
    17 N(14)  Bbb    -0.0462    -1.781    -0.636    -0.594  0.0342 -0.1350  0.9903
              Bcc     0.1490     5.746     2.050     1.917 -0.2578  0.9561  0.1393
 
              Baa    -0.0012    -0.661    -0.236    -0.220  0.6715  0.6231 -0.4010
    18 H(1)   Bbb    -0.0012    -0.634    -0.226    -0.211  0.1536  0.4124  0.8980
              Bcc     0.0024     1.295     0.462     0.432  0.7249 -0.6646  0.1812
 
              Baa    -0.0014    -0.762    -0.272    -0.254 -0.3405 -0.5407  0.7692
    19 H(1)   Bbb    -0.0014    -0.746    -0.266    -0.249  0.5412  0.5563  0.6306
              Bcc     0.0028     1.508     0.538     0.503  0.7689 -0.6310 -0.1032
 
              Baa    -0.0009    -0.483    -0.173    -0.161  0.4416  0.7107 -0.5476
    20 H(1)   Bbb    -0.0009    -0.475    -0.170    -0.159  0.2400  0.4945  0.8354
              Bcc     0.0018     0.959     0.342     0.320  0.8645 -0.5003  0.0478
 
              Baa    -0.0025    -1.325    -0.473    -0.442 -0.1265 -0.5702  0.8117
    21 H(1)   Bbb    -0.0024    -1.289    -0.460    -0.430  0.2439  0.7753  0.5826
              Bcc     0.0049     2.614     0.933     0.872  0.9615 -0.2717 -0.0410
 
              Baa    -0.0020    -1.053    -0.376    -0.351  0.4135  0.7529 -0.5120
    22 H(1)   Bbb    -0.0019    -1.003    -0.358    -0.335 -0.0485  0.5798  0.8133
              Bcc     0.0039     2.057     0.734     0.686  0.9092 -0.3115  0.2762
 
              Baa    -0.0113    -6.028    -2.151    -2.011  0.4002  0.7157 -0.5724
    23 H(1)   Bbb    -0.0098    -5.237    -1.869    -1.747 -0.0596  0.6436  0.7631
              Bcc     0.0211    11.264     4.019     3.757  0.9145 -0.2713  0.3002
 
              Baa    -0.0073    -3.921    -1.399    -1.308  0.9034  0.4270 -0.0387
    24 H(1)   Bbb    -0.0067    -3.597    -1.283    -1.200 -0.2431  0.5846  0.7740
              Bcc     0.0141     7.518     2.683     2.508 -0.3531  0.6899 -0.6320
 
              Baa    -0.0028    -1.479    -0.528    -0.493  0.8256  0.5586  0.0793
    25 H(1)   Bbb    -0.0025    -1.356    -0.484    -0.452 -0.2947  0.3072  0.9049
              Bcc     0.0053     2.835     1.012     0.946 -0.4811  0.7704 -0.4183
 
              Baa    -0.0030    -1.609    -0.574    -0.537  0.7603  0.5864 -0.2795
    26 H(1)   Bbb    -0.0028    -1.517    -0.541    -0.506 -0.2208  0.6379  0.7378
              Bcc     0.0059     3.126     1.115     1.043  0.6109 -0.4993  0.6144
 
              Baa    -0.0080    -4.250    -1.516    -1.418  0.5359  0.1210  0.8355
    27 H(1)   Bbb    -0.0069    -3.703    -1.321    -1.235  0.3339  0.8786 -0.3414
              Bcc     0.0149     7.953     2.838     2.653  0.7754 -0.4620 -0.4305
 
              Baa    -0.0032    -1.693    -0.604    -0.565  0.9070  0.4105 -0.0942
    28 H(1)   Bbb    -0.0026    -1.369    -0.489    -0.457  0.2553 -0.3579  0.8982
              Bcc     0.0057     3.062     1.093     1.021 -0.3350  0.8387  0.4294
 
              Baa    -0.0028    -1.471    -0.525    -0.491  0.8006  0.3637 -0.4762
    29 H(1)   Bbb    -0.0024    -1.275    -0.455    -0.425  0.4277  0.2099  0.8792
              Bcc     0.0051     2.746     0.980     0.916 -0.4197  0.9076 -0.0125
 
              Baa    -0.0029    -1.567    -0.559    -0.523  0.8373 -0.4417 -0.3221
    30 H(1)   Bbb    -0.0024    -1.264    -0.451    -0.422  0.2496 -0.2153  0.9441
              Bcc     0.0053     2.831     1.010     0.944  0.4864  0.8709  0.0700
 
              Baa    -0.0010    -0.509    -0.182    -0.170 -0.2960  0.7972  0.5261
    31 H(1)   Bbb    -0.0008    -0.405    -0.144    -0.135  0.3975 -0.3981  0.8268
              Bcc     0.0017     0.914     0.326     0.305  0.8686  0.4538 -0.1991
 
              Baa    -0.0005    -0.268    -0.096    -0.089 -0.5330  0.8080  0.2512
    32 H(1)   Bbb    -0.0005    -0.264    -0.094    -0.088  0.1835 -0.1795  0.9665
              Bcc     0.0010     0.532     0.190     0.177  0.8260  0.5612 -0.0526
 
              Baa    -0.0010    -0.509    -0.182    -0.170 -0.4084  0.9106 -0.0631
    33 H(1)   Bbb    -0.0008    -0.404    -0.144    -0.135 -0.0413  0.0506  0.9979
              Bcc     0.0017     0.913     0.326     0.305  0.9119  0.4102  0.0169
 
              Baa    -0.0026    -1.366    -0.487    -0.455 -0.0133  0.9232  0.3842
    34 H(1)   Bbb    -0.0024    -1.264    -0.451    -0.422  0.2019 -0.3738  0.9053
              Bcc     0.0049     2.629     0.938     0.877  0.9793  0.0896 -0.1814
 
              Baa    -0.0102    -5.436    -1.940    -1.813  0.2995  0.9110  0.2834
    35 H(1)   Bbb    -0.0099    -5.298    -1.890    -1.767  0.1500 -0.3383  0.9290
              Bcc     0.0201    10.734     3.830     3.581  0.9422 -0.2357 -0.2380
 
              Baa    -0.1601     7.646     2.728     2.551  0.5361  0.6495  0.5392
    36 Ni(61) Bbb    -0.0631     3.013     1.075     1.005  0.7173 -0.6872  0.1146
              Bcc     0.2232   -10.659    -3.804    -3.556 -0.4450 -0.3253  0.8344
 
              Baa    -0.3410  -171.276   -61.116   -57.132  0.1868  0.0131  0.9823
    37 F(19)  Bbb    -0.1004   -50.438   -17.998   -16.824  0.9445 -0.2773 -0.1759
              Bcc     0.4415   221.715    79.113    73.956  0.2701  0.9607 -0.0642
 
              Baa    -0.2767  -138.947   -49.580   -46.348  0.0783 -0.3078  0.9482
    38 F(19)  Bbb    -0.0688   -34.567   -12.334   -11.530  0.9259 -0.3302 -0.1837
              Bcc     0.3455   173.514    61.914    57.878  0.3697  0.8923  0.2591
 

 ---------------------------------------------------------------------------------

 PrsmSu:  requested number of processors reduced to:  13 ShMem   1 Linda.
   1 Symmetry operations used in ECPInt.
 ECPInt:  NShTT=    8911 NPrTT=   52776 LenC2=    7782 LenP2D=   27242.
 LDataN:  DoStor=T MaxTD1= 7 Len=  274
 Calling FoFJK, ICntrl=      2127 FMM=F ISym2X=0 I1Cent= 0 IOpClX= 1 NMat=1 NMatS=1 NMatT=0.
 ***** Axes restored to original set *****
 -------------------------------------------------------------------
 Center     Atomic                   Forces (Hartrees/Bohr)
 Number     Number              X              Y              Z
 -------------------------------------------------------------------
      1        6           0.004195257    0.003393381   -0.003880252
      2        6          -0.002568513   -0.006281716    0.008517589
      3        6          -0.002213318    0.005639730   -0.010208093
      4        6           0.003618636    0.002337188    0.010577939
      5        6          -0.024658956    0.010368603   -0.005984548
      6        6          -0.007569549    0.016164010   -0.000822558
      7        8           0.020536439   -0.027162987    0.000528866
      8        6          -0.011835380   -0.032284122    0.023557255
      9        6           0.008290316   -0.014787912    0.000609319
     10        6          -0.005239691    0.006114966   -0.001331242
     11        6           0.013053860   -0.013664549    0.001289034
     12        8          -0.008284514    0.015713993   -0.004148632
     13        6           0.005199054    0.001959298   -0.003325915
     14        6          -0.004338042    0.000947408    0.001152681
     15        6          -0.017069449   -0.013359342    0.014878517
     16        7           0.008896241   -0.023846856    0.007210059
     17        7          -0.003974376    0.003430965   -0.002685421
     18        1          -0.000437465   -0.003656896   -0.000813801
     19        1           0.000464612   -0.000882309    0.004810997
     20        1          -0.002491771    0.001998927   -0.000407559
     21        1           0.001947261    0.003175513    0.003255633
     22        1           0.001581456   -0.002311375   -0.004164475
     23        1           0.007377360   -0.000852639    0.001273914
     24        1           0.003888380    0.000439059    0.000396374
     25        1          -0.003579234   -0.003091989    0.002195108
     26        1          -0.000852547    0.003646854   -0.001121779
     27        1          -0.003192065    0.002514285   -0.002317546
     28        1           0.001982442   -0.001458654    0.003858815
     29        1           0.003159999   -0.004628301   -0.002671582
     30        1          -0.001844409   -0.001473498    0.001673853
     31        1          -0.000603946    0.001462016   -0.004348988
     32        1          -0.007816784    0.000422840    0.003352429
     33        1           0.001798870    0.004139348    0.001014783
     34        1           0.002481091   -0.001241487   -0.000511765
     35        1          -0.001403323    0.002579229    0.000611615
     36       28           0.031892962    0.087588563   -0.055642446
     37        9          -0.005460887   -0.013849482    0.003057508
     38        9          -0.004930016   -0.009202063    0.010564316
 -------------------------------------------------------------------
 Cartesian Forces:  Max     0.087588563 RMS     0.013114997

 GradGradGradGradGradGradGradGradGradGradGradGradGradGradGradGradGradGrad
 Berny optimization.
 FormGI is forming the generalized inverse of G from B-inverse, IUseBI=4.
 Internal  Forces:  Max     0.041038129 RMS     0.007068930
 Search for a local minimum.
 Step number   1 out of a maximum of  228
 All quantities printed in internal units (Hartrees-Bohrs-Radians)
 Mixed Optimization -- RFO/linear search
 Second derivative matrix not updated -- first step.
 ITU=  0
     Eigenvalues ---    0.00230   0.00230   0.00230   0.00253   0.00721
     Eigenvalues ---    0.01380   0.01703   0.01964   0.01973   0.01985
     Eigenvalues ---    0.02022   0.02041   0.02125   0.02187   0.02226
     Eigenvalues ---    0.02256   0.02652   0.02896   0.03042   0.03068
     Eigenvalues ---    0.03578   0.03842   0.04632   0.04690   0.04712
     Eigenvalues ---    0.04837   0.05149   0.05195   0.05264   0.05427
     Eigenvalues ---    0.05491   0.05786   0.06734   0.08965   0.09949
     Eigenvalues ---    0.10305   0.10465   0.10762   0.11040   0.12376
     Eigenvalues ---    0.12661   0.13203   0.13401   0.13611   0.15997
     Eigenvalues ---    0.15999   0.15999   0.16000   0.16000   0.16000
     Eigenvalues ---    0.16000   0.16000   0.16000   0.16000   0.16000
     Eigenvalues ---    0.16000   0.17944   0.18458   0.19800   0.19801
     Eigenvalues ---    0.19810   0.20969   0.21624   0.21924   0.22419
     Eigenvalues ---    0.22660   0.23516   0.24233   0.24609   0.24931
     Eigenvalues ---    0.24999   0.25000   0.26379   0.26987   0.27645
     Eigenvalues ---    0.27847   0.28628   0.33795   0.34471   0.34530
     Eigenvalues ---    0.34612   0.34619   0.34626   0.34678   0.34679
     Eigenvalues ---    0.34741   0.34744   0.34760   0.34791   0.34803
     Eigenvalues ---    0.34869   0.34900   0.34901   0.35650   0.36027
     Eigenvalues ---    0.36143   0.36764   0.40581   0.40918   0.41931
     Eigenvalues ---    0.42471   0.45015   0.46236   0.47798   0.49339
     Eigenvalues ---    0.49626   0.53540   0.67643
 RFO step:  Lambda=-3.87503649D-02 EMin= 2.30000000D-03
 Linear search not attempted -- first point.
 Maximum step size (   0.300) exceeded in Quadratic search.
    -- Step size scaled by   0.842
 Iteration  1 RMS(Cart)=  0.05630620 RMS(Int)=  0.00082523
 Iteration  2 RMS(Cart)=  0.00222843 RMS(Int)=  0.00039696
 Iteration  3 RMS(Cart)=  0.00000225 RMS(Int)=  0.00039696
 Iteration  4 RMS(Cart)=  0.00000000 RMS(Int)=  0.00039696
 Variable       Old X    -DE/DX   Delta X   Delta X   Delta X     New X
                                 (Linear)    (Quad)   (Total)
    R1        2.90785  -0.00183   0.00000  -0.00475  -0.00475   2.90310
    R2        2.06015   0.00372   0.00000   0.00811   0.00811   2.06826
    R3        2.05887   0.00487   0.00000   0.01058   0.01058   2.06946
    R4        2.06093   0.00321   0.00000   0.00700   0.00700   2.06792
    R5        2.92922  -0.00482   0.00000  -0.01286  -0.01286   2.91636
    R6        2.06309   0.00446   0.00000   0.00975   0.00975   2.07284
    R7        2.06298   0.00318   0.00000   0.00696   0.00696   2.06994
    R8        2.92475  -0.00937   0.00000  -0.02487  -0.02487   2.89988
    R9        2.95826  -0.01347   0.00000  -0.03747  -0.03747   2.92079
   R10        2.06543   0.00361   0.00000   0.00793   0.00793   2.07335
   R11        2.06067   0.00323   0.00000   0.00705   0.00705   2.06771
   R12        2.05837   0.00519   0.00000   0.01127   0.01127   2.06963
   R13        2.06097   0.00198   0.00000   0.00431   0.00431   2.06527
   R14        2.92706   0.00886   0.00000   0.02038   0.02032   2.94739
   R15        2.71117   0.01362   0.00000   0.02996   0.03001   2.74118
   R16        2.06445   0.00131   0.00000   0.00287   0.00287   2.06733
   R17        2.69246   0.01979   0.00000   0.03070   0.03061   2.72307
   R18        2.06287   0.00295   0.00000   0.00645   0.00645   2.06931
   R19        2.05837  -0.00009   0.00000  -0.00019  -0.00019   2.05818
   R20        2.57090  -0.00963   0.00000  -0.01452  -0.01450   2.55640
   R21        2.79396  -0.01171   0.00000  -0.02574  -0.02697   2.76699
   R22        2.38497   0.03459   0.00000   0.04031   0.03979   2.42476
   R23        2.63483  -0.00950   0.00000  -0.01504  -0.01516   2.61968
   R24        2.57998   0.00267   0.00000   0.00068   0.00016   2.58014
   R25        2.64647  -0.00339   0.00000  -0.00503  -0.00514   2.64133
   R26        2.04040   0.00289   0.00000   0.00609   0.00609   2.04649
   R27        2.60538  -0.02637   0.00000  -0.04171  -0.04171   2.56367
   R28        2.66874  -0.01090   0.00000  -0.01941  -0.01941   2.64933
   R29        2.69011  -0.00370   0.00000  -0.00681  -0.00681   2.68330
   R30        2.06201   0.00404   0.00000   0.00883   0.00883   2.07085
   R31        2.05996   0.00047   0.00000   0.00103   0.00103   2.06099
   R32        2.06199   0.00403   0.00000   0.00880   0.00880   2.07078
   R33        2.64331  -0.00642   0.00000  -0.01172  -0.01160   2.63171
   R34        2.03859   0.00279   0.00000   0.00587   0.00587   2.04446
   R35        2.55248  -0.01418   0.00000  -0.02094  -0.02082   2.53165
   R36        2.04632   0.00035   0.00000   0.00075   0.00075   2.04707
   R37        3.50539   0.04104   0.00000   0.13571   0.13658   3.64197
   R38        3.47796   0.03868   0.00000   0.13417   0.13501   3.61298
   R39        3.53373  -0.01281   0.00000  -0.04557  -0.04557   3.48816
   R40        3.53370  -0.01036   0.00000  -0.03682  -0.03682   3.49687
    A1        1.95171  -0.00003   0.00000  -0.00037  -0.00037   1.95134
    A2        1.95112   0.00064   0.00000   0.00243   0.00243   1.95355
    A3        1.92835  -0.00027   0.00000  -0.00061  -0.00061   1.92774
    A4        1.89219  -0.00058   0.00000  -0.00339  -0.00339   1.88880
    A5        1.87083   0.00030   0.00000   0.00179   0.00179   1.87262
    A6        1.86575  -0.00008   0.00000   0.00012   0.00012   1.86586
    A7        2.03209   0.00168   0.00000   0.00364   0.00366   2.03574
    A8        1.89865  -0.00048   0.00000   0.00045   0.00045   1.89910
    A9        1.89361   0.00118   0.00000   0.00741   0.00740   1.90101
   A10        1.90298  -0.00090   0.00000  -0.00501  -0.00502   1.89796
   A11        1.89649  -0.00295   0.00000  -0.01699  -0.01699   1.87949
   A12        1.82932   0.00149   0.00000   0.01155   0.01148   1.84080
   A13        1.95685   0.00576   0.00000   0.02025   0.01971   1.97656
   A14        1.97645  -0.00181   0.00000  -0.01136  -0.01123   1.96522
   A15        1.81269   0.00191   0.00000   0.03052   0.03027   1.84296
   A16        2.01227  -0.00581   0.00000  -0.03155  -0.03151   1.98076
   A17        1.83381   0.00039   0.00000   0.00708   0.00637   1.84018
   A18        1.85005   0.00023   0.00000  -0.00799  -0.00788   1.84217
   A19        1.94432  -0.00226   0.00000  -0.00936  -0.00944   1.93488
   A20        1.96577   0.00113   0.00000   0.00630   0.00633   1.97210
   A21        1.93579  -0.00452   0.00000  -0.02083  -0.02090   1.91489
   A22        1.88014   0.00144   0.00000   0.00913   0.00915   1.88929
   A23        1.85962   0.00277   0.00000   0.00884   0.00867   1.86829
   A24        1.87331   0.00181   0.00000   0.00737   0.00739   1.88070
   A25        2.02993   0.00466   0.00000   0.01709   0.01693   2.04686
   A26        1.93022  -0.00322   0.00000  -0.02990  -0.02989   1.90033
   A27        1.90947  -0.00292   0.00000  -0.01156  -0.01158   1.89789
   A28        1.77936  -0.00370   0.00000  -0.01113  -0.01109   1.76827
   A29        1.92930   0.00144   0.00000   0.01154   0.01150   1.94080
   A30        1.87700   0.00381   0.00000   0.02507   0.02505   1.90205
   A31        1.80326   0.01132   0.00000   0.02921   0.02901   1.83227
   A32        1.94071  -0.00058   0.00000   0.00823   0.00828   1.94899
   A33        1.99271  -0.00119   0.00000   0.00071   0.00093   1.99364
   A34        1.90950  -0.00390   0.00000  -0.01632  -0.01663   1.89287
   A35        1.93394  -0.00833   0.00000  -0.03588  -0.03575   1.89819
   A36        1.88250   0.00242   0.00000   0.01222   0.01189   1.89439
   A37        1.86889  -0.01012   0.00000  -0.03335  -0.03371   1.83518
   A38        2.17636  -0.00740   0.00000  -0.03566  -0.03499   2.14137
   A39        2.00317   0.01178   0.00000   0.04056   0.04106   2.04424
   A40        2.10330  -0.00441   0.00000  -0.00542  -0.00679   2.09650
   A41        2.20915  -0.00806   0.00000  -0.02411  -0.02333   2.18582
   A42        1.95325  -0.00004   0.00000  -0.00018  -0.00148   1.95177
   A43        2.12007   0.00810   0.00000   0.02431   0.02483   2.14490
   A44        2.06909  -0.00330   0.00000  -0.00823  -0.00854   2.06055
   A45        2.11660   0.00154   0.00000   0.00363   0.00378   2.12039
   A46        2.09744   0.00177   0.00000   0.00462   0.00478   2.10222
   A47        2.02939  -0.00066   0.00000  -0.00225  -0.00215   2.02723
   A48        2.08062   0.00004   0.00000   0.00075   0.00056   2.08118
   A49        2.17316   0.00062   0.00000   0.00150   0.00160   2.17476
   A50        2.08111  -0.00927   0.00000  -0.02702  -0.02702   2.05408
   A51        1.94700  -0.00017   0.00000  -0.00023  -0.00034   1.94666
   A52        1.90704  -0.01174   0.00000  -0.05071  -0.05090   1.85614
   A53        1.94741  -0.00022   0.00000  -0.00046  -0.00058   1.94683
   A54        1.87671   0.00556   0.00000   0.02263   0.02245   1.89916
   A55        1.90619   0.00144   0.00000   0.00781   0.00775   1.91394
   A56        1.87682   0.00555   0.00000   0.02258   0.02239   1.89921
   A57        2.08824  -0.00256   0.00000  -0.01072  -0.01067   2.07756
   A58        2.11729   0.00086   0.00000   0.00361   0.00359   2.12087
   A59        2.07761   0.00170   0.00000   0.00713   0.00711   2.08471
   A60        2.09763   0.01136   0.00000   0.03338   0.03354   2.13117
   A61        2.13074  -0.00282   0.00000  -0.00458  -0.00466   2.12608
   A62        2.05467  -0.00853   0.00000  -0.02872  -0.02880   2.02587
   A63        2.11061  -0.01363   0.00000  -0.03944  -0.03967   2.07093
   A64        1.88628   0.01874   0.00000   0.05179   0.05230   1.93857
   A65        2.28609  -0.00511   0.00000  -0.01231  -0.01259   2.27350
   A66        1.92020  -0.00878   0.00000  -0.01953  -0.01968   1.90052
   A67        2.40001  -0.00179   0.00000  -0.01954  -0.01987   2.38014
   A68        1.87433   0.01099   0.00000   0.04262   0.04312   1.91746
   A69        1.59224  -0.02516   0.00000  -0.08735  -0.08575   1.50649
   A70        1.98566   0.00447   0.00000   0.00585   0.00438   1.99004
   A71        1.98651   0.00434   0.00000   0.01045   0.00761   1.99412
   A72        1.98770   0.00409   0.00000   0.00729   0.00582   1.99352
   A73        1.98678  -0.00014   0.00000  -0.01666  -0.01778   1.96900
   A74        1.91016   0.00797   0.00000   0.05761   0.05749   1.96765
    D1       -0.97126   0.00062   0.00000   0.00468   0.00468  -0.96658
    D2       -3.12889   0.00097   0.00000   0.00832   0.00833  -3.12055
    D3        1.17360  -0.00114   0.00000  -0.00929  -0.00930   1.16429
    D4        1.15411   0.00031   0.00000   0.00176   0.00176   1.15587
    D5       -1.00352   0.00066   0.00000   0.00541   0.00542  -0.99810
    D6       -2.98422  -0.00146   0.00000  -0.01221  -0.01222  -2.99644
    D7       -3.05356   0.00045   0.00000   0.00308   0.00308  -3.05048
    D8        1.07200   0.00080   0.00000   0.00672   0.00673   1.07873
    D9       -0.90870  -0.00132   0.00000  -0.01089  -0.01090  -0.91960
   D10        1.17561  -0.00264   0.00000  -0.02258  -0.02281   1.15280
   D11       -1.13820   0.00194   0.00000   0.01430   0.01435  -1.12385
   D12       -3.13687   0.00139   0.00000   0.01123   0.01141  -3.12546
   D13       -2.95219  -0.00277   0.00000  -0.02340  -0.02364  -2.97583
   D14        1.01719   0.00181   0.00000   0.01348   0.01351   1.03071
   D15       -0.98148   0.00126   0.00000   0.01041   0.01058  -0.97090
   D16       -0.96775  -0.00303   0.00000  -0.02131  -0.02153  -0.98929
   D17        3.00163   0.00155   0.00000   0.01557   0.01562   3.01725
   D18        1.00295   0.00100   0.00000   0.01249   0.01269   1.01564
   D19        2.98247   0.00184   0.00000   0.01856   0.01870   3.00117
   D20       -1.18583   0.00287   0.00000   0.02809   0.02818  -1.15765
   D21        0.91415   0.00279   0.00000   0.02715   0.02719   0.94134
   D22       -1.00481  -0.00068   0.00000  -0.00835  -0.00837  -1.01318
   D23        1.11008   0.00035   0.00000   0.00117   0.00111   1.11119
   D24       -3.07313   0.00027   0.00000   0.00024   0.00012  -3.07301
   D25        1.02489  -0.00324   0.00000  -0.03033  -0.03031   0.99458
   D26        3.13978  -0.00220   0.00000  -0.02080  -0.02083   3.11895
   D27       -1.04343  -0.00229   0.00000  -0.02174  -0.02182  -1.06525
   D28        1.46692   0.00230   0.00000   0.00312   0.00332   1.47024
   D29       -2.79821  -0.00179   0.00000  -0.02188  -0.02190  -2.82011
   D30       -0.73385  -0.00085   0.00000  -0.01627  -0.01594  -0.74979
   D31       -0.81965   0.00128   0.00000   0.01547   0.01537  -0.80428
   D32        1.19840  -0.00280   0.00000  -0.00954  -0.00984   1.18856
   D33       -3.02042  -0.00187   0.00000  -0.00393  -0.00389  -3.02431
   D34       -2.84011   0.00383   0.00000   0.02927   0.02925  -2.81086
   D35       -0.82205  -0.00026   0.00000   0.00427   0.00403  -0.81802
   D36        1.24231   0.00067   0.00000   0.00988   0.00998   1.25229
   D37        1.81777  -0.00396   0.00000  -0.02341  -0.02343   1.79434
   D38       -2.41885  -0.00248   0.00000  -0.02235  -0.02243  -2.44128
   D39       -0.28401  -0.00062   0.00000   0.00076   0.00068  -0.28333
   D40       -0.28320   0.00011   0.00000   0.01220   0.01240  -0.27080
   D41        1.76336   0.00159   0.00000   0.01327   0.01340   1.77676
   D42       -2.38499   0.00345   0.00000   0.03637   0.03651  -2.34848
   D43       -2.27463  -0.00294   0.00000  -0.01536  -0.01518  -2.28981
   D44       -0.22807  -0.00146   0.00000  -0.01430  -0.01418  -0.24225
   D45        1.90677   0.00040   0.00000   0.00880   0.00893   1.91570
   D46       -1.90386  -0.00503   0.00000  -0.02198  -0.02223  -1.92609
   D47        0.71959  -0.00137   0.00000   0.00009  -0.00014   0.71946
   D48        0.26547  -0.00337   0.00000  -0.02372  -0.02351   0.24196
   D49        2.88893   0.00028   0.00000  -0.00165  -0.00142   2.88750
   D50        2.29527  -0.00196   0.00000  -0.00605  -0.00587   2.28940
   D51       -1.36447   0.00170   0.00000   0.01602   0.01623  -1.34824
   D52        0.21528  -0.00025   0.00000  -0.00621  -0.00619   0.20909
   D53       -1.85310  -0.00377   0.00000  -0.02367  -0.02327  -1.87637
   D54        2.35669   0.00079   0.00000  -0.00658  -0.00696   2.34973
   D55        3.11201   0.00150   0.00000   0.01737   0.01718   3.12918
   D56       -0.05842   0.00043   0.00000  -0.00357  -0.00392  -0.06234
   D57       -0.14286   0.00010   0.00000  -0.01309  -0.01269  -0.15555
   D58        2.95843   0.00033   0.00000  -0.01175  -0.01136   2.94707
   D59        3.02912   0.00099   0.00000   0.00832   0.00831   3.03742
   D60       -0.15278   0.00122   0.00000   0.00965   0.00963  -0.14315
   D61       -0.14648   0.00153   0.00000   0.01664   0.01698  -0.12951
   D62       -2.92992   0.00115   0.00000   0.01513   0.01549  -2.91442
   D63        2.96759   0.00043   0.00000  -0.00394  -0.00409   2.96350
   D64        0.18416   0.00005   0.00000  -0.00545  -0.00557   0.17859
   D65        3.09786  -0.00015   0.00000   0.00311   0.00304   3.10090
   D66       -0.03304  -0.00012   0.00000   0.00062   0.00059  -0.03245
   D67        0.00010  -0.00018   0.00000   0.00232   0.00229   0.00240
   D68       -3.13079  -0.00014   0.00000  -0.00017  -0.00016  -3.13095
   D69       -3.09166   0.00031   0.00000  -0.00444  -0.00433  -3.09598
   D70        0.03013   0.00031   0.00000  -0.00294  -0.00287   0.02726
   D71        0.01199   0.00011   0.00000  -0.00443  -0.00430   0.00770
   D72        3.13378   0.00011   0.00000  -0.00293  -0.00284   3.13094
   D73        3.13979   0.00002   0.00000  -0.00123  -0.00121   3.13858
   D74       -0.00793   0.00001   0.00000  -0.00009  -0.00006  -0.00799
   D75       -0.01238  -0.00002   0.00000   0.00123   0.00121  -0.01117
   D76        3.12309  -0.00003   0.00000   0.00237   0.00236   3.12544
   D77        3.13163   0.00004   0.00000   0.00131   0.00131   3.13295
   D78       -0.00347   0.00006   0.00000   0.00011   0.00010  -0.00336
   D79        0.00421   0.00015   0.00000  -0.00043  -0.00042   0.00379
   D80       -3.12654  -0.00008   0.00000  -0.00242  -0.00245  -3.12898
   D81        3.13914   0.00013   0.00000   0.00080   0.00082   3.13995
   D82        0.00839  -0.00010   0.00000  -0.00119  -0.00121   0.00718
   D83       -1.06816  -0.00077   0.00000  -0.00462  -0.00451  -1.07267
   D84       -3.14086  -0.00000   0.00000   0.00006   0.00007  -3.14079
   D85        1.06926   0.00080   0.00000   0.00499   0.00487   1.07413
   D86        0.00764  -0.00001   0.00000  -0.00100  -0.00104   0.00660
   D87       -3.11530  -0.00062   0.00000  -0.00650  -0.00659  -3.12189
   D88        3.13864   0.00020   0.00000   0.00092   0.00093   3.13957
   D89        0.01570  -0.00040   0.00000  -0.00457  -0.00463   0.01107
   D90       -0.01577  -0.00002   0.00000   0.00365   0.00355  -0.01222
   D91       -3.13241  -0.00029   0.00000   0.00108   0.00104  -3.13137
   D92        3.10797   0.00061   0.00000   0.00913   0.00901   3.11698
   D93       -0.00868   0.00034   0.00000   0.00655   0.00651  -0.00217
   D94        0.05116  -0.00026   0.00000  -0.00212  -0.00197   0.04919
   D95        2.09097  -0.00727   0.00000  -0.03659  -0.03603   2.05495
   D96       -1.98784   0.01154   0.00000   0.05813   0.05780  -1.93004
   D97       -3.11295  -0.00034   0.00000  -0.00071  -0.00056  -3.11351
   D98       -1.07313  -0.00735   0.00000  -0.03518  -0.03462  -1.10775
   D99        1.13124   0.01146   0.00000   0.05954   0.05920   1.19044
   D100      -2.76229   0.00140   0.00000  -0.00327  -0.00351  -2.76579
   D101       1.48287   0.00812   0.00000   0.03264   0.03214   1.51501
   D102      -0.72352  -0.00650   0.00000  -0.03986  -0.03858  -0.76211
   D103      -0.13007   0.00127   0.00000   0.00693   0.00659  -0.12348
   D104      -2.16810   0.00800   0.00000   0.04284   0.04223  -2.12587
   D105       1.90870  -0.00662   0.00000  -0.02966  -0.02849   1.88020
         Item               Value     Threshold  Converged?
 Maximum Force            0.041038     0.000450     NO 
 RMS     Force            0.007069     0.000300     NO 
 Maximum Displacement     0.212979     0.001800     NO 
 RMS     Displacement     0.055836     0.001200     NO 
 Predicted change in Energy=-2.120113D-02
 GradGradGradGradGradGradGradGradGradGradGradGradGradGradGradGradGradGrad

                          Input orientation:                          
 ---------------------------------------------------------------------
 Center     Atomic      Atomic             Coordinates (Angstroms)
 Number     Number       Type             X           Y           Z
 ---------------------------------------------------------------------
      1          6           0       -6.012911    1.573357   -2.595322
      2          6           0       -4.822608    2.234352   -3.306901
      3          6           0       -3.485414    1.464398   -3.279218
      4          6           0       -3.529949    0.144860   -4.061318
      5          6           0       -2.915769    1.314623   -1.850235
      6          6           0       -3.448106    0.128034   -0.989274
      7          8           0       -2.400476   -0.860562   -1.029203
      8          6           0       -1.331475   -0.221662   -1.557490
      9          6           0       -0.037607   -0.877331   -1.757405
     10          6           0        0.303127   -2.135243   -1.284843
     11          6           0        1.567100   -2.638117   -1.606003
     12          8           0        1.861352   -3.870364   -1.120786
     13          6           0        3.133104   -4.417406   -1.436421
     14          6           0        2.431729   -1.865315   -2.393847
     15          6           0        2.008845   -0.612971   -2.832319
     16          7           0        0.803739   -0.118486   -2.519296
     17          7           0       -1.504514    0.991152   -1.939004
     18          1           0       -6.201620    0.563128   -2.971757
     19          1           0       -5.859674    1.512291   -1.512708
     20          1           0       -6.925424    2.155807   -2.755207
     21          1           0       -4.664022    3.231708   -2.878736
     22          1           0       -5.086465    2.405418   -4.356156
     23          1           0       -2.768934    2.098245   -3.816503
     24          1           0       -2.531896   -0.297229   -4.136770
     25          1           0       -4.200179   -0.596010   -3.612570
     26          1           0       -3.875260    0.332230   -5.081159
     27          1           0       -3.030068    2.267247   -1.324651
     28          1           0       -3.606044    0.423791    0.053166
     29          1           0       -4.366926   -0.319962   -1.365173
     30          1           0       -0.386018   -2.721869   -0.690080
     31          1           0        3.259463   -4.543974   -2.517573
     32          1           0        3.172196   -5.397966   -0.960556
     33          1           0        3.946609   -3.799466   -1.039986
     34          1           0        3.413485   -2.223307   -2.673969
     35          1           0        2.632870    0.013814   -3.457772
     36         28           0       -0.019597    1.555597   -3.002869
     37          9           0        0.858945    3.041524   -2.349142
     38          9           0       -0.439407    1.705460   -4.798843
 ---------------------------------------------------------------------
                    Distance matrix (angstroms):
                    1          2          3          4          5
     1  C    0.000000
     2  C    1.536255   0.000000
     3  C    2.620654   1.543269   0.000000
     4  C    3.217895   2.570231   1.534550   0.000000
     5  C    3.195996   2.569788   1.545614   2.575743   0.000000
     6  C    3.353591   3.420120   2.651623   3.073180   1.559689
     7  O    4.628864   4.542369   3.412492   3.388260   2.381397
     8  C    5.120062   4.613073   3.232120   3.352131   2.226175
     9  C    6.512468   5.914367   4.437002   4.306895   3.618991
    10  C    7.440659   7.032441   5.593567   5.253585   4.752108
    11  C    8.727648   8.213548   6.719984   6.305034   5.981632
    12  O    9.685680   9.312464   7.855344   7.337226   7.087812
    13  C   10.994630  10.537454   9.044131   8.491210   8.343636
    14  C    9.120143   8.382502   6.847150   6.508677   6.245259
    15  C    8.317739   7.416281   5.890846   5.723896   5.378841
    16  N    7.023876   6.149142   4.634635   4.607389   4.041804
    17  N    4.592969   3.798215   2.438053   3.053329   1.450570
    18  H    1.094475   2.192483   2.878296   2.915461   3.552375
    19  H    1.095109   2.194539   2.959722   3.713879   2.969777
    20  H    1.094299   2.175401   3.547717   4.156811   4.195700
    21  H    2.156375   1.096902   2.161686   3.494746   2.790953
    22  H    2.156656   1.095363   2.146783   2.760397   3.490186
    23  H    3.505735   2.120329   1.097170   2.110638   2.121752
    24  H    4.241771   3.513537   2.178973   1.094187   2.823769
    25  H    3.004487   2.914069   2.206194   1.095204   2.899319
    26  H    3.505615   2.768308   2.163510   1.092896   3.510640
    27  H    3.315637   2.672751   2.161537   3.499108   1.093982
    28  H    3.758856   4.006021   3.493164   4.124630   2.212012
    29  H    2.794135   3.240751   2.761263   2.861082   2.238975
    30  H    7.330814   7.148090   5.816762   5.428414   4.902944
    31  H   11.108767  10.577741   9.064988   8.394309   8.538266
    32  H   11.646373  11.299314   9.838293   9.233439   9.105696
    33  H   11.422711  10.883245   9.378560   8.976919   8.596664
    34  H   10.162568   9.386402   7.846038   7.466206   7.297598
    35  H    8.827544   7.780597   6.290428   6.193689   5.921458
    36  Ni   6.007181   4.860252   3.478013   3.928494   3.126410
    37  F    7.031253   5.817978   4.714427   5.530335   4.180856
    38  F    5.994740   4.660265   3.412555   3.539896   3.870324
                    6          7          8          9         10
     6  C    0.000000
     7  O    1.440988   0.000000
     8  C    2.219298   1.352791   0.000000
     9  C    3.637622   2.472592   1.464228   0.000000
    10  C    4.391074   2.999939   2.531413   1.386274   0.000000
    11  C    5.760577   4.385665   3.774036   2.387127   1.397732
    12  O    6.647920   5.218283   4.868048   3.601330   2.337868
    13  C    8.010824   6.590711   6.127920   4.763252   3.638683
    14  C    6.365433   5.120741   4.190799   2.734738   2.415305
    15  C    5.807256   4.770183   3.596673   2.326648   2.760700
    16  N    4.525475   3.610823   2.344111   1.365352   2.416980
    17  N    2.329059   2.249296   1.283127   2.382441   3.670128
    18  H    3.420728   4.499900   5.131701   6.445512   7.241451
    19  H    2.829454   4.222589   4.849039   6.298145   7.164952
    20  H    4.395693   5.705499   6.195090   7.591940   8.533875
    21  H    3.831620   5.029025   4.977683   6.288506   7.484466
    22  H    4.382532   5.380500   5.369733   6.559033   7.687540
    23  H    3.512297   4.081586   3.542795   4.533661   5.811134
    24  H    3.305604   3.160948   2.845946   3.495622   4.421441
    25  H    2.823391   3.159542   3.548655   4.565938   5.297860
    26  H    4.119184   4.473934   4.381082   5.219000   6.161116
    27  H    2.205327   3.204195   3.022267   4.362393   5.522109
    28  H    1.095033   2.067481   2.860853   4.207711   4.860097
    29  H    1.089141   2.066894   3.043125   4.382637   5.011097
    30  H    4.193786   2.763604   2.810218   2.159373   1.082956
    31  H    8.315939   6.915032   6.378154   4.989267   4.007684
    32  H    8.623567   7.186614   6.887199   5.601245   4.356843
    33  H    8.373150   6.994480   6.397395   4.992748   4.013048
    34  H    7.446370   6.193906   5.269512   3.815989   3.407602
    35  H    6.563901   5.656594   4.402562   3.288895   3.842885
    36  Ni   4.224591   3.924508   2.639847   2.733248   4.083878
    37  F    5.374789   5.252841   4.009119   4.063421   5.314187
    38  F    5.104249   4.963914   3.875043   4.010311   5.258379
                   11         12         13         14         15
    11  C    0.000000
    12  O    1.356633   0.000000
    13  C    2.376341   1.419941   0.000000
    14  C    1.401964   2.442588   2.814562   0.000000
    15  C    2.408361   3.682623   4.205498   1.392643   0.000000
    16  N    2.786640   4.141373   5.007921   2.391130   1.339694
    17  N    4.766266   5.969328   7.142310   4.884700   3.964204
    18  H    8.512712   9.385812  10.691120   8.986992   8.295444
    19  H    8.508323   9.420235  10.772056   8.996221   8.256616
    20  H    9.819640  10.779309  12.088023  10.190992   9.353782
    21  H    8.654570   9.803588  11.017459   8.750112   7.701355
    22  H    8.790365   9.905818  11.074164   8.866401   7.859782
    23  H    6.791217   8.020645   9.107829   6.691835   5.580903
    24  H    5.355960   6.415925   7.507328   5.489468   4.734936
    25  H    6.438791   7.326155   8.550774   6.861387   6.257880
    26  H    7.107669   8.139722   9.217393   7.199234   6.369724
    27  H    6.728723   7.850976   9.092952   6.931989   5.996613
    28  H    6.236148   7.050557   8.430432   6.905257   6.397490
    29  H    6.375305   7.173321   8.546612   7.047553   6.548956
    30  H    2.158843   2.560317   3.976946   3.402383   3.843437
    31  H    2.706906   2.087936   1.095844   2.806361   4.137135
    32  H    3.257254   2.019295   1.090630   3.883586   5.268117
    33  H    2.707613   2.088025   1.095810   2.805127   4.137769
    34  H    2.172960   2.744866   2.534603   1.081883   2.142724
    35  H    3.405532   4.598216   4.896101   2.168760   1.083263
    36  Ni   4.696390   6.043283   6.933257   4.252358   2.974282
    37  F    5.771660   7.091395   7.851147   5.152933   3.861486
    38  F    5.752127   7.064801   7.845904   5.174733   3.903368
                   16         17         18         19         20
    16  N    0.000000
    17  N    2.626036   0.000000
    18  H    7.052968   4.828311   0.000000
    19  H    6.933521   4.406896   1.773882   0.000000
    20  H    8.060274   5.604362   1.762785   1.758902   0.000000
    21  H    6.422570   3.985684   3.081262   2.500401   2.507341
    22  H    6.666232   4.546773   2.560110   3.079078   2.450941
    23  H    4.400072   2.519804   3.854025   3.899165   4.290230
    24  H    3.711419   2.746929   3.945167   4.608054   5.218159
    25  H    5.144168   3.547748   2.400002   3.407092   3.966677
    26  H    5.353440   3.990959   3.148784   4.250210   4.247232
    27  H    4.670864   2.081625   3.959258   2.934620   4.151230
    28  H    5.133985   2.950774   3.988306   2.952226   4.680290
    29  H    5.301732   3.200267   2.593658   2.367955   3.821981
    30  H    3.396933   4.073987   7.058220   6.968912   8.415479
    31  H    5.061178   7.325833  10.761080  10.993032  12.193254
    32  H    5.992676   7.978083  11.289287  11.385570  12.737432
    33  H    5.061186   7.312523  11.213853  11.162500  12.514325
    34  H    3.356332   5.921117  10.015145  10.064526  11.228369
    35  H    2.060088   4.514398   8.864884   8.840362   9.820525
    36  Ni   1.927247   1.911905   6.261259   6.027350   6.936283
    37  F    3.165070   3.155657   7.508772   6.941038   7.845111
    38  F    3.173094   3.134225   6.151931   6.341552   6.815253
                   21         22         23         24         25
    21  H    0.000000
    22  H    1.744701   0.000000
    23  H    2.399063   2.399277   0.000000
    24  H    4.310685   3.725353   2.428385   0.000000
    25  H    3.924931   3.216674   3.057623   1.774041   0.000000
    26  H    3.725559   2.508138   2.437647   1.758612   1.767471
    27  H    2.452585   3.665772   2.511191   3.838324   3.847334
    28  H    4.195207   5.055750   4.298707   4.385114   3.851053
    29  H    3.872144   4.109916   3.796093   3.324094   2.270419
    30  H    7.650922   7.862785   6.219831   4.728989   5.254336
    31  H   11.107352  11.014942   9.063545   7.361826   8.510681
    32  H   11.813425  11.858684   9.982316   8.285078   9.189335
    33  H   11.267714  11.449628   9.358982   7.989165   9.124170
    34  H    9.749115   9.823645   7.629121   6.418498   7.841999
    35  H    7.995921   8.131113   5.801123   5.218486   6.861954
    36  Ni   4.939174   5.312883   2.918102   3.321196   4.741140
    37  F    5.551559   6.307189   4.025472   5.083374   6.357880
    38  F    4.885040   4.720282   2.558509   2.971130   4.565896
                   26         27         28         29         30
    26  H    0.000000
    27  H    4.309292   0.000000
    28  H    5.142193   2.372437   0.000000
    29  H    3.804687   2.912470   1.773075   0.000000
    30  H    6.386227   5.681985   4.562472   4.698141   0.000000
    31  H    9.014078   9.347405   8.855651   8.793867   4.466467
    32  H    9.974024   9.866921   8.992498   9.098802   4.460442
    33  H    9.725411   9.249868   8.722009   9.018179   4.478315
    34  H    8.090188   7.969009   7.982366   8.116062   4.315160
    35  H    6.715097   6.457323   7.170691   7.313516   4.925217
    36  Ni   4.547753   3.519345   4.845919   5.009893   4.876471
    37  F    6.100565   4.095547   5.706113   6.291065   6.125285
    38  F    3.710869   4.370027   5.933991   5.596233   6.040366
                   31         32         33         34         35
    31  H    0.000000
    32  H    1.777982   0.000000
    33  H    1.791570   1.777984   0.000000
    34  H    2.331025   3.615587   2.332037   0.000000
    35  H    4.695745   5.984507   4.702414   2.495680   0.000000
    36  Ni   6.942083   7.919004   6.946970   5.116087   3.101550
    37  F    7.958055   8.860265   7.618839   5.860856   3.680068
    38  F    7.611915   8.845043   7.979370   5.898735   3.754867
                   36         37         38
    36  Ni   0.000000
    37  F    1.845854   0.000000
    38  F    1.850466   3.077633   0.000000
 Stoichiometry    C13H18F2N2NiO2(3)
 Framework group  C1[X(C13H18F2N2NiO2)]
 Deg. of freedom   108
 Full point group                 C1      NOp   1
 Largest Abelian subgroup         C1      NOp   1
 Largest concise Abelian subgroup C1      NOp   1
                         Standard orientation:                         
 ---------------------------------------------------------------------
 Center     Atomic      Atomic             Coordinates (Angstroms)
 Number     Number       Type             X           Y           Z
 ---------------------------------------------------------------------
      1          6           0        5.075923   -1.869152    0.174760
      2          6           0        4.598374   -0.428166    0.410526
      3          6           0        3.075120   -0.216271    0.538903
      4          6           0        2.475034   -0.875378    1.788030
      5          6           0        2.316020   -0.558604   -0.763209
      6          6           0        1.940018   -2.053757   -0.999374
      7          8           0        0.535920   -2.138619   -0.686716
      8          6           0        0.116306   -0.855919   -0.593735
      9          6           0       -1.272718   -0.497527   -0.300253
     10          6           0       -2.336327   -1.385669   -0.259057
     11          6           0       -3.595892   -0.887534    0.085925
     12          8           0       -4.609215   -1.789206    0.110762
     13          6           0       -5.901090   -1.320302    0.467720
     14          6           0       -3.735263    0.475239    0.384137
     15          6           0       -2.613595    1.298466    0.324047
     16          7           0       -1.405134    0.831571   -0.017144
     17          7           0        1.005157    0.060950   -0.719074
     18          1           0        4.708104   -2.550939    0.947903
     19          1           0        4.755470   -2.251916   -0.799952
     20          1           0        6.169028   -1.917323    0.191834
     21          1           0        4.975437    0.206586   -0.400712
     22          1           0        5.065933   -0.043944    1.323534
     23          1           0        2.938617    0.862672    0.683918
     24          1           0        1.428141   -0.584566    1.917214
     25          1           0        2.526357   -1.969049    1.761163
     26          1           0        3.013270   -0.538203    2.677433
     27          1           0        2.873336   -0.151972   -1.612234
     28          1           0        2.080455   -2.345635   -2.045405
     29          1           0        2.482497   -2.756129   -0.368011
     30          1           0       -2.203544   -2.437801   -0.478558
     31          1           0       -5.913694   -0.910550    1.483997
     32          1           0       -6.563357   -2.185980    0.429276
     33          1           0       -6.264623   -0.565532   -0.238656
     34          1           0       -4.690405    0.897550    0.666675
     35          1           0       -2.666289    2.353773    0.562811
     36         28           0        0.287294    1.742401   -0.159812
     37          9           0        0.328087    3.052982   -1.459000
     38          9           0        0.980329    2.316365    1.457127
 ---------------------------------------------------------------------
 Rotational constants (GHZ):           0.4880610           0.1864020           0.1510654
 Basis read from rwf:  (6D, 7F)
 Pseudo-potential data read from rwf file.
 There are   398 symmetry adapted cartesian basis functions of A   symmetry.
 There are   395 symmetry adapted basis functions of A   symmetry.
   395 basis functions,   758 primitive gaussians,   398 cartesian basis functions
    82 alpha electrons       80 beta electrons
       nuclear repulsion energy      1890.3399798553 Hartrees.
 NAtoms=   38 NActive=   38 NUniq=   38 SFac= 1.00D+00 NAtFMM=   60 NAOKFM=F Big=F
 Integral buffers will be    131072 words long.
 Raffenetti 2 integral format.
 Two-electron integral symmetry is turned on.
 Nuclear repulsion after empirical dispersion term =     1890.2604757097 Hartrees.
 One-electron integrals computed using PRISM.
 PrsmSu:  requested number of processors reduced to:  12 ShMem   1 Linda.
   1 Symmetry operations used in ECPInt.
 ECPInt:  NShTT=    8911 NPrTT=   52776 LenC2=    7800 LenP2D=   27297.
 LDataN:  DoStor=T MaxTD1= 6 Len=  172
 NBasis=   395 RedAO= T EigKep=  1.11D-06  NBF=   395
 NBsUse=   395 1.00D-06 EigRej= -1.00D+00 NBFU=   395
 Initial guess from the checkpoint file:  "Lig2214_xyz_3.chk"
 B after Tr=    -0.000000    0.000000   -0.000000
         Rot=    0.999988   -0.000477    0.000331    0.004770 Ang=  -0.55 deg.
 Initial guess <Sx>= 0.0000 <Sy>= 0.0000 <Sz>= 1.0000 <S**2>= 2.0208 S= 1.0069
 ExpMin= 2.40D-02 ExpMax= 7.14D+04 ExpMxC= 1.07D+04 IAcc=3 IRadAn=         5 AccDes= 0.00D+00
 Harris functional with IExCor=  402 and IRadAn=       5 diagonalized for initial guess.
 HarFok:  IExCor=  402 AccDes= 0.00D+00 IRadAn=         5 IDoV= 1 UseB2=F ITyADJ=14
 ICtDFT=  3500011 ScaDFX=  1.000000  1.000000  1.000000  1.000000
 FoFCou: FMM=F IPFlag=           0 FMFlag=      100000 FMFlg1=           0
         NFxFlg=           0 DoJE=T BraDBF=F KetDBF=T FulRan=T
         wScrn=  0.000000 ICntrl=       500 IOpCl=  0 I1Cent=   200000004 NGrid=           0
         NMat0=    1 NMatS0=      1 NMatT0=    0 NMatD0=    1 NMtDS0=    0 NMtDT0=    0
 Petite list used in FoFCou.
 Requested convergence on RMS density matrix=1.00D-08 within  32 cycles.
 Requested convergence on MAX density matrix=1.00D-06.
 Requested convergence on             energy=1.00D-06.
 No special actions if energy rises.
 Restarting incremental Fock formation.
 >>>>>>>>>> Convergence criterion not met.
 SCF Done:  E(UB3LYP) =  -1135.36585247     A.U. after   33 cycles
            NFock= 32  Conv=0.50D-07     -V/T= 2.0665
 <Sx>= 0.0000 <Sy>= 0.0000 <Sz>= 1.0000 <S**2>= 2.0166 S= 1.0055
 <L.S>=  0.00000000000    
 Annihilation of the first spin contaminant:
 S**2 before annihilation     2.0166,   after     2.0001
 SCF Done:  E(UB3LYP) =  -1135.36585247     a.u. after    1 cycles
            Convg  =    0.1356D-05                     1 Fock formations.
              S**2 =  2.0166                  -V/T =  2.0665
 <Sx>= 0.0000 <Sy>= 0.0000 <Sz>= 1.0000 <S**2>= 2.0166 S= 1.0055
 <L.S>=  0.00000000000    
 Annihilation of the first spin contaminant:
 S**2 before annihilation     2.0166,   after     2.0001
 PrsmSu:  requested number of processors reduced to:  13 ShMem   1 Linda.
   1 Symmetry operations used in ECPInt.
 ECPInt:  NShTT=    8911 NPrTT=   52776 LenC2=    7800 LenP2D=   27297.
 LDataN:  DoStor=T MaxTD1= 7 Len=  274
 Calling FoFJK, ICntrl=      2127 FMM=F ISym2X=0 I1Cent= 0 IOpClX= 1 NMat=1 NMatS=1 NMatT=0.
 ***** Axes restored to original set *****
 -------------------------------------------------------------------
 Center     Atomic                   Forces (Hartrees/Bohr)
 Number     Number              X              Y              Z
 -------------------------------------------------------------------
      1        6           0.001763267    0.001338931   -0.001674263
      2        6          -0.001811141   -0.001904878    0.003020323
      3        6          -0.002386391    0.003975151   -0.006177841
      4        6           0.000974091   -0.000695388    0.003293182
      5        6          -0.010751233    0.001324173    0.000673189
      6        6          -0.011295286    0.011250249    0.001479945
      7        8           0.013927883   -0.005074027   -0.003170964
      8        6          -0.008432392   -0.009151179    0.011604290
      9        6           0.003824333   -0.006933121   -0.000566128
     10        6          -0.005124200    0.004515211   -0.000200475
     11        6           0.005403946   -0.008333462    0.001976379
     12        8          -0.003629232    0.008091952   -0.002466895
     13        6           0.004787903   -0.004347811   -0.000002507
     14        6           0.000739298    0.000538884   -0.000830870
     15        6          -0.005726280   -0.002409932    0.004438920
     16        7           0.003185444   -0.019668903    0.007553356
     17        7          -0.001999925   -0.013616720    0.005656672
     18        1          -0.000099631   -0.000951607    0.000027479
     19        1          -0.000012307   -0.000427074    0.001168311
     20        1          -0.000498842    0.000421053   -0.000002789
     21        1           0.000790485    0.000605780    0.000982170
     22        1           0.000226443   -0.000945753   -0.001243172
     23        1           0.002905783   -0.000972562    0.001093904
     24        1           0.000441599    0.000850713   -0.000564429
     25        1          -0.000809950   -0.000387408    0.000054304
     26        1          -0.000177047    0.000338812   -0.000653464
     27        1          -0.000435692   -0.000069791    0.000449549
     28        1           0.001557944   -0.000932186    0.000382001
     29        1           0.001783929   -0.001899185   -0.001237448
     30        1          -0.000340026    0.000129894    0.000227666
     31        1          -0.000467560    0.000814253   -0.000635334
     32        1          -0.001569210    0.000302012    0.000585238
     33        1          -0.000195035    0.001116440   -0.000013565
     34        1           0.000053947    0.000651699   -0.000352022
     35        1           0.000770584    0.000955968    0.000075875
     36       28           0.019614480    0.054727984   -0.032643860
     37        9          -0.000856440   -0.005637858    0.005312517
     38        9          -0.006133539   -0.007590315    0.002380756
 -------------------------------------------------------------------
 Cartesian Forces:  Max     0.054727984 RMS     0.007672460

 GradGradGradGradGradGradGradGradGradGradGradGradGradGradGradGradGradGrad
 Berny optimization.
 Using GEDIIS/GDIIS optimizer.
 FormGI is forming the generalized inverse of G from B-inverse, IUseBI=4.
 Internal  Forces:  Max     0.026274616 RMS     0.003462429
 Search for a local minimum.
 Step number   2 out of a maximum of  228
 All quantities printed in internal units (Hartrees-Bohrs-Radians)
 Mixed Optimization -- RFO/linear search
 Update second derivatives using D2CorX and points    1    2
 DE= -2.32D-02 DEPred=-2.12D-02 R= 1.09D+00
 TightC=F SS=  1.41D+00  RLast= 3.47D-01 DXNew= 5.0454D-01 1.0405D+00
 Trust test= 1.09D+00 RLast= 3.47D-01 DXMaxT set to 5.05D-01
 ITU=  1  0
 Use linear search instead of GDIIS.
     Eigenvalues ---    0.00230   0.00230   0.00230   0.00253   0.00708
     Eigenvalues ---    0.01380   0.01724   0.01973   0.01982   0.01990
     Eigenvalues ---    0.02022   0.02042   0.02125   0.02188   0.02225
     Eigenvalues ---    0.02268   0.02811   0.02915   0.03049   0.03077
     Eigenvalues ---    0.03576   0.03793   0.04645   0.04666   0.04836
     Eigenvalues ---    0.04924   0.05016   0.05199   0.05261   0.05485
     Eigenvalues ---    0.05582   0.05673   0.06794   0.08969   0.09426
     Eigenvalues ---    0.10007   0.10601   0.10658   0.11287   0.11442
     Eigenvalues ---    0.11772   0.12221   0.12673   0.13406   0.15983
     Eigenvalues ---    0.15999   0.15999   0.16000   0.16000   0.16000
     Eigenvalues ---    0.16000   0.16000   0.16000   0.16000   0.16000
     Eigenvalues ---    0.16296   0.17944   0.17997   0.18299   0.19780
     Eigenvalues ---    0.19804   0.20159   0.21339   0.21958   0.22403
     Eigenvalues ---    0.22758   0.23562   0.24461   0.24576   0.24902
     Eigenvalues ---    0.24998   0.25783   0.26849   0.27528   0.27686
     Eigenvalues ---    0.28622   0.28997   0.34082   0.34480   0.34531
     Eigenvalues ---    0.34613   0.34617   0.34642   0.34679   0.34717
     Eigenvalues ---    0.34740   0.34748   0.34781   0.34802   0.34829
     Eigenvalues ---    0.34880   0.34900   0.35149   0.35660   0.36047
     Eigenvalues ---    0.36195   0.36938   0.39917   0.41087   0.42156
     Eigenvalues ---    0.42579   0.44978   0.46377   0.48027   0.49375
     Eigenvalues ---    0.50478   0.53931   0.69353
 RFO step:  Lambda=-2.23986549D-02 EMin= 2.29978371D-03
 Quartic linear search produced a step of  1.52737.
 Iteration  1 RMS(Cart)=  0.08298409 RMS(Int)=  0.01191651
 Iteration  2 RMS(Cart)=  0.02063104 RMS(Int)=  0.00314550
 Iteration  3 RMS(Cart)=  0.00029620 RMS(Int)=  0.00314447
 Iteration  4 RMS(Cart)=  0.00000064 RMS(Int)=  0.00314447
 Variable       Old X    -DE/DX   Delta X   Delta X   Delta X     New X
                                 (Linear)    (Quad)   (Total)
    R1        2.90310  -0.00128  -0.00725  -0.00454  -0.01179   2.89131
    R2        2.06826   0.00088   0.01238  -0.00402   0.00836   2.07662
    R3        2.06946   0.00118   0.01616  -0.00511   0.01105   2.08051
    R4        2.06792   0.00064   0.01069  -0.00427   0.00642   2.07434
    R5        2.91636  -0.00128  -0.01965   0.00464  -0.01501   2.90135
    R6        2.07284   0.00105   0.01489  -0.00488   0.01001   2.08286
    R7        2.06994   0.00099   0.01063  -0.00191   0.00872   2.07866
    R8        2.89988  -0.00119  -0.03798   0.01951  -0.01847   2.88141
    R9        2.92079   0.00025  -0.05723   0.04575  -0.01148   2.90930
   R10        2.07335   0.00080   0.01210  -0.00429   0.00781   2.08116
   R11        2.06771   0.00010   0.01076  -0.00791   0.00285   2.07056
   R12        2.06963   0.00078   0.01721  -0.00857   0.00864   2.07827
   R13        2.06527   0.00072   0.00658  -0.00046   0.00612   2.07140
   R14        2.94739  -0.00036   0.03104  -0.02553   0.00517   2.95256
   R15        2.74118   0.01058   0.04583   0.02759   0.07343   2.81461
   R16        2.06733   0.00020   0.00439  -0.00215   0.00224   2.06956
   R17        2.72307   0.01060   0.04675   0.01764   0.06437   2.78745
   R18        2.06931  -0.00011   0.00985  -0.00857   0.00128   2.07059
   R19        2.05818  -0.00030  -0.00029  -0.00172  -0.00201   2.05617
   R20        2.55640  -0.00714  -0.02215  -0.01549  -0.03744   2.51897
   R21        2.76699  -0.00125  -0.04120   0.01856  -0.03034   2.73665
   R22        2.42476   0.00721   0.06077  -0.03002   0.02730   2.45206
   R23        2.61968  -0.00325  -0.02315   0.00354  -0.02027   2.59940
   R24        2.58014   0.00153   0.00025   0.00276  -0.00031   2.57983
   R25        2.64133   0.00359  -0.00785   0.02539   0.01700   2.65833
   R26        2.04649   0.00027   0.00931  -0.00570   0.00360   2.05009
   R27        2.56367  -0.00656  -0.06371   0.02167  -0.04204   2.52163
   R28        2.64933  -0.00053  -0.02965   0.02127  -0.00822   2.64111
   R29        2.68330   0.00312  -0.01040   0.02568   0.01528   2.69858
   R30        2.07085   0.00048   0.01349  -0.00754   0.00594   2.07679
   R31        2.06099  -0.00007   0.00157  -0.00172  -0.00015   2.06084
   R32        2.07078   0.00048   0.01343  -0.00752   0.00591   2.07669
   R33        2.63171  -0.00041  -0.01771   0.01171  -0.00532   2.62639
   R34        2.04446  -0.00008   0.00897  -0.00765   0.00132   2.04578
   R35        2.53165  -0.00312  -0.03181   0.01276  -0.01850   2.51315
   R36        2.04707   0.00095   0.00115   0.00522   0.00637   2.05344
   R37        3.64197   0.02627   0.20861   0.13171   0.34519   3.98716
   R38        3.61298   0.02433   0.20622   0.10786   0.31885   3.93182
   R39        3.48816  -0.00306  -0.06960   0.01601  -0.05359   3.43457
   R40        3.49687  -0.00153  -0.05624   0.02336  -0.03288   3.46399
    A1        1.95134   0.00017  -0.00057   0.00218   0.00161   1.95295
    A2        1.95355   0.00036   0.00371   0.00135   0.00506   1.95862
    A3        1.92774  -0.00008  -0.00093   0.00103   0.00010   1.92783
    A4        1.88880  -0.00042  -0.00518  -0.00476  -0.00993   1.87887
    A5        1.87262   0.00005   0.00273   0.00067   0.00340   1.87602
    A6        1.86586  -0.00011   0.00018  -0.00073  -0.00056   1.86531
    A7        2.03574   0.00027   0.00558  -0.00627  -0.00067   2.03507
    A8        1.89910   0.00011   0.00068   0.00522   0.00583   1.90492
    A9        1.90101   0.00018   0.01130  -0.00391   0.00722   1.90823
   A10        1.89796  -0.00044  -0.00766  -0.00441  -0.01207   1.88590
   A11        1.87949  -0.00062  -0.02595   0.00067  -0.02529   1.85420
   A12        1.84080   0.00054   0.01754   0.01041   0.02765   1.86845
   A13        1.97656   0.00103   0.03011  -0.01491   0.01177   1.98832
   A14        1.96522  -0.00102  -0.01715  -0.01247  -0.02947   1.93575
   A15        1.84296   0.00137   0.04624   0.04445   0.08981   1.93277
   A16        1.98076  -0.00061  -0.04813   0.00173  -0.04687   1.93389
   A17        1.84018  -0.00025   0.00973   0.00247   0.00852   1.84869
   A18        1.84217  -0.00041  -0.01204  -0.01629  -0.02754   1.81463
   A19        1.93488  -0.00069  -0.01441   0.00129  -0.01342   1.92146
   A20        1.97210   0.00039   0.00966   0.00352   0.01324   1.98534
   A21        1.91489  -0.00040  -0.03192   0.01091  -0.02126   1.89362
   A22        1.88929   0.00064   0.01398   0.00874   0.02273   1.91202
   A23        1.86829   0.00009   0.01324  -0.01717  -0.00459   1.86370
   A24        1.88070  -0.00002   0.01129  -0.00880   0.00260   1.88330
   A25        2.04686   0.00201   0.02586  -0.00444   0.02086   2.06772
   A26        1.90033  -0.00139  -0.04566  -0.00347  -0.04901   1.85131
   A27        1.89789  -0.00028  -0.01769   0.00890  -0.00879   1.88910
   A28        1.76827  -0.00034  -0.01694   0.02093   0.00386   1.77212
   A29        1.94080  -0.00096   0.01757  -0.01565   0.00202   1.94282
   A30        1.90205   0.00093   0.03826  -0.00612   0.03215   1.93420
   A31        1.83227  -0.00017   0.04430  -0.03878   0.00452   1.83679
   A32        1.94899   0.00072   0.01265   0.01515   0.02741   1.97640
   A33        1.99364   0.00058   0.00142   0.01220   0.01327   2.00690
   A34        1.89287  -0.00092  -0.02540  -0.01119  -0.03707   1.85580
   A35        1.89819  -0.00115  -0.05461  -0.00273  -0.05650   1.84168
   A36        1.89439   0.00075   0.01816   0.02155   0.03730   1.93169
   A37        1.83518   0.00077  -0.05149   0.04408  -0.00919   1.82599
   A38        2.14137  -0.00132  -0.05344   0.01976  -0.02928   2.11209
   A39        2.04424   0.00258   0.06272  -0.02408   0.04064   2.08488
   A40        2.09650  -0.00131  -0.01037   0.00202  -0.01817   2.07833
   A41        2.18582  -0.00262  -0.03563   0.00171  -0.02876   2.15706
   A42        1.95177   0.00004  -0.00226   0.00328  -0.00744   1.94433
   A43        2.14490   0.00257   0.03792  -0.00472   0.03649   2.18139
   A44        2.06055   0.00026  -0.01305   0.01566   0.00087   2.06142
   A45        2.12039  -0.00045   0.00578  -0.01157  -0.00495   2.11544
   A46        2.10222   0.00019   0.00730  -0.00404   0.00410   2.10632
   A47        2.02723  -0.00045  -0.00329  -0.00217  -0.00501   2.02222
   A48        2.08118  -0.00220   0.00086  -0.01907  -0.01911   2.06206
   A49        2.17476   0.00265   0.00244   0.02126   0.02414   2.19890
   A50        2.05408   0.00411  -0.04127   0.06790   0.02662   2.08071
   A51        1.94666  -0.00075  -0.00053  -0.00977  -0.01070   1.93596
   A52        1.85614  -0.00196  -0.07774   0.02711  -0.05126   1.80489
   A53        1.94683  -0.00077  -0.00088  -0.00989  -0.01119   1.93564
   A54        1.89916   0.00154   0.03429  -0.00190   0.03175   1.93091
   A55        1.91394   0.00047   0.01184  -0.00242   0.00916   1.92311
   A56        1.89921   0.00153   0.03420  -0.00206   0.03148   1.93069
   A57        2.07756  -0.00062  -0.01630   0.00402  -0.01198   2.06559
   A58        2.12087   0.00107   0.00548   0.00994   0.01524   2.13611
   A59        2.08471  -0.00044   0.01085  -0.01391  -0.00323   2.08149
   A60        2.13117   0.00424   0.05122   0.00225   0.05404   2.18521
   A61        2.12608  -0.00200  -0.00712  -0.01201  -0.01955   2.10653
   A62        2.02587  -0.00223  -0.04399   0.00994  -0.03447   1.99140
   A63        2.07093  -0.00425  -0.06059   0.00196  -0.06027   2.01066
   A64        1.93857   0.00753   0.07988   0.01800   0.10094   2.03952
   A65        2.27350  -0.00328  -0.01923  -0.01982  -0.04053   2.23296
   A66        1.90052  -0.00274  -0.03006   0.00462  -0.02632   1.87420
   A67        2.38014  -0.00413  -0.03035  -0.03609  -0.06948   2.31067
   A68        1.91746   0.00692   0.06586   0.03913   0.10918   2.02664
   A69        1.50649  -0.01312  -0.13097  -0.05687  -0.17809   1.32840
   A70        1.99004   0.00064   0.00669  -0.01372  -0.01758   1.97246
   A71        1.99412   0.00078   0.01162  -0.01504  -0.02874   1.96538
   A72        1.99352   0.00134   0.00889  -0.00716  -0.00992   1.98360
   A73        1.96900  -0.00346  -0.02716  -0.06720  -0.10353   1.86547
   A74        1.96765   0.00868   0.08781   0.11271   0.20137   2.16902
    D1       -0.96658   0.00014   0.00715   0.00077   0.00793  -0.95865
    D2       -3.12055   0.00044   0.01273   0.00700   0.01981  -3.10075
    D3        1.16429  -0.00034  -0.01421  -0.00601  -0.02031   1.14399
    D4        1.15587  -0.00002   0.00269  -0.00285  -0.00014   1.15572
    D5       -0.99810   0.00028   0.00827   0.00339   0.01173  -0.98638
    D6       -2.99644  -0.00050  -0.01866  -0.00963  -0.02839  -3.02483
    D7       -3.05048   0.00002   0.00470  -0.00220   0.00252  -3.04796
    D8        1.07873   0.00032   0.01028   0.00404   0.01439   1.09312
    D9       -0.91960  -0.00046  -0.01665  -0.00898  -0.02572  -0.94533
   D10        1.15280  -0.00061  -0.03483  -0.01142  -0.04731   1.10549
   D11       -1.12385   0.00025   0.02191   0.01121   0.03314  -1.09071
   D12       -3.12546   0.00045   0.01743   0.01079   0.02937  -3.09608
   D13       -2.97583  -0.00062  -0.03610  -0.01269  -0.04991  -3.02574
   D14        1.03071   0.00023   0.02064   0.00994   0.03054   1.06124
   D15       -0.97090   0.00043   0.01616   0.00951   0.02677  -0.94413
   D16       -0.98929  -0.00054  -0.03289  -0.00238  -0.03638  -1.02567
   D17        3.01725   0.00032   0.02386   0.02024   0.04407   3.06132
   D18        1.01564   0.00052   0.01938   0.01982   0.04030   1.05594
   D19        3.00117   0.00054   0.02857   0.00575   0.03457   3.03574
   D20       -1.15765   0.00114   0.04304   0.02054   0.06368  -1.09397
   D21        0.94134   0.00110   0.04153   0.01931   0.06070   1.00204
   D22       -1.01318  -0.00052  -0.01278  -0.02432  -0.03708  -1.05026
   D23        1.11119   0.00008   0.00170  -0.00954  -0.00798   1.10321
   D24       -3.07301   0.00004   0.00019  -0.01076  -0.01096  -3.08397
   D25        0.99458  -0.00148  -0.04629  -0.04153  -0.08754   0.90704
   D26        3.11895  -0.00087  -0.03181  -0.02675  -0.05844   3.06051
   D27       -1.06525  -0.00092  -0.03333  -0.02797  -0.06142  -1.12667
   D28        1.47024  -0.00028   0.00507  -0.04030  -0.03410   1.43614
   D29       -2.82011  -0.00049  -0.03344  -0.01874  -0.05227  -2.87237
   D30       -0.74979  -0.00033  -0.02435  -0.02296  -0.04609  -0.79588
   D31       -0.80428  -0.00025   0.02348  -0.00914   0.01416  -0.79012
   D32        1.18856  -0.00046  -0.01504   0.01242  -0.00401   1.18455
   D33       -3.02431  -0.00030  -0.00595   0.00820   0.00217  -3.02214
   D34       -2.81086   0.00061   0.04468  -0.00307   0.04177  -2.76909
   D35       -0.81802   0.00040   0.00616   0.01849   0.02360  -0.79442
   D36        1.25229   0.00056   0.01525   0.01427   0.02978   1.28208
   D37        1.79434  -0.00038  -0.03578   0.03163  -0.00392   1.79043
   D38       -2.44128  -0.00120  -0.03425   0.00329  -0.03162  -2.47290
   D39       -0.28333   0.00083   0.00104   0.05392   0.05520  -0.22813
   D40       -0.27080   0.00055   0.01894   0.02363   0.04359  -0.22721
   D41        1.77676  -0.00028   0.02047  -0.00471   0.01589   1.79265
   D42       -2.34848   0.00176   0.05576   0.04592   0.10271  -2.24577
   D43       -2.28981   0.00005  -0.02318   0.02602   0.00357  -2.28624
   D44       -0.24225  -0.00077  -0.02165  -0.00232  -0.02413  -0.26637
   D45        1.91570   0.00126   0.01364   0.04832   0.06269   1.97839
   D46       -1.92609  -0.00175  -0.03395  -0.02421  -0.05903  -1.98512
   D47        0.71946   0.00043  -0.00021   0.01144   0.01039   0.72985
   D48        0.24196  -0.00027  -0.03591  -0.01950  -0.05567   0.18629
   D49        2.88750   0.00192  -0.00217   0.01615   0.01375   2.90125
   D50        2.28940  -0.00114  -0.00896  -0.02941  -0.03788   2.25152
   D51       -1.34824   0.00104   0.02478   0.00624   0.03154  -1.31670
   D52        0.20909  -0.00002  -0.00945  -0.00784  -0.01746   0.19163
   D53       -1.87637  -0.00031  -0.03554   0.00079  -0.03329  -1.90966
   D54        2.34973  -0.00005  -0.01062  -0.01715  -0.02865   2.32108
   D55        3.12918   0.00168   0.02624   0.04413   0.06826  -3.08574
   D56       -0.06234   0.00046  -0.00599  -0.00914  -0.01768  -0.08002
   D57       -0.15555  -0.00060  -0.01938  -0.03112  -0.04791  -0.20346
   D58        2.94707  -0.00082  -0.01736  -0.02355  -0.03810   2.90896
   D59        3.03742   0.00055   0.01268   0.02439   0.03609   3.07351
   D60       -0.14315   0.00033   0.01471   0.03196   0.04589  -0.09726
   D61       -0.12951   0.00019   0.02593   0.02347   0.05171  -0.07780
   D62       -2.91442   0.00123   0.02366   0.01829   0.04234  -2.87208
   D63        2.96350  -0.00100  -0.00625  -0.02780  -0.03295   2.93056
   D64        0.17859   0.00004  -0.00851  -0.03298  -0.04231   0.13628
   D65        3.10090  -0.00031   0.00464   0.01242   0.01739   3.11828
   D66       -0.03245  -0.00031   0.00090   0.00520   0.00638  -0.02607
   D67        0.00240   0.00001   0.00351   0.00386   0.00744   0.00984
   D68       -3.13095   0.00001  -0.00024  -0.00336  -0.00356  -3.13451
   D69       -3.09598   0.00036  -0.00661  -0.01768  -0.02426  -3.12024
   D70        0.02726   0.00029  -0.00439  -0.01059  -0.01525   0.01200
   D71        0.00770   0.00001  -0.00656  -0.01016  -0.01600  -0.00831
   D72        3.13094  -0.00006  -0.00434  -0.00307  -0.00700   3.12394
   D73        3.13858  -0.00003  -0.00185  -0.00241  -0.00421   3.13437
   D74       -0.00799  -0.00005  -0.00010   0.00209   0.00208  -0.00591
   D75       -0.01117  -0.00004   0.00185   0.00470   0.00669  -0.00447
   D76        3.12544  -0.00005   0.00360   0.00920   0.01299   3.13843
   D77        3.13295   0.00004   0.00201   0.00567   0.00779   3.14074
   D78       -0.00336   0.00007   0.00016   0.00103   0.00108  -0.00228
   D79        0.00379   0.00005  -0.00064  -0.00165  -0.00236   0.00144
   D80       -3.12898  -0.00006  -0.00374  -0.00859  -0.01255  -3.14154
   D81        3.13995   0.00003   0.00125   0.00318   0.00453  -3.13870
   D82        0.00718  -0.00009  -0.00185  -0.00377  -0.00566   0.00151
   D83       -1.07267   0.00026  -0.00688   0.00934   0.00281  -1.06986
   D84       -3.14079   0.00000   0.00010   0.00050   0.00062  -3.14017
   D85        1.07413  -0.00024   0.00744  -0.00809  -0.00101   1.07312
   D86        0.00660   0.00001  -0.00158  -0.00497  -0.00671  -0.00011
   D87       -3.12189  -0.00041  -0.01007  -0.02098  -0.03124   3.13005
   D88        3.13957   0.00013   0.00142   0.00195   0.00326  -3.14036
   D89        0.01107  -0.00029  -0.00706  -0.01406  -0.02128  -0.01020
   D90       -0.01222  -0.00003   0.00542   0.01061   0.01545   0.00323
   D91       -3.13137  -0.00007   0.00159   0.00140   0.00358  -3.12779
   D92        3.11698   0.00037   0.01377   0.02561   0.03861  -3.12760
   D93       -0.00217   0.00033   0.00994   0.01640   0.02674   0.02457
   D94        0.04919  -0.00054  -0.00301  -0.00767  -0.00861   0.04058
   D95        2.05495  -0.00504  -0.05503  -0.04369  -0.09243   1.96252
   D96       -1.93004   0.00925   0.08828   0.09472   0.17687  -1.75318
   D97       -3.11351  -0.00062  -0.00086   0.00086   0.00177  -3.11174
   D98       -1.10775  -0.00511  -0.05288  -0.03515  -0.08205  -1.18980
   D99        1.19044   0.00917   0.09043   0.10325   0.18725   1.37769
   D100      -2.76579   0.00026  -0.00535  -0.00693  -0.01446  -2.78025
   D101       1.51501   0.00547   0.04909   0.03569   0.07938   1.59439
   D102      -0.76211  -0.00501  -0.05893  -0.05630  -0.10171  -0.86382
   D103      -0.12348   0.00058   0.01006   0.02216   0.02944  -0.09404
   D104      -2.12587   0.00580   0.06450   0.06477   0.12328  -2.00259
   D105       1.88020  -0.00468  -0.04352  -0.02722  -0.05782   1.82238
         Item               Value     Threshold  Converged?
 Maximum Force            0.026275     0.000450     NO 
 RMS     Force            0.003462     0.000300     NO 
 Maximum Displacement     0.458543     0.001800     NO 
 RMS     Displacement     0.091253     0.001200     NO 
 Predicted change in Energy=-7.816594D-03
 GradGradGradGradGradGradGradGradGradGradGradGradGradGradGradGradGradGrad

                          Input orientation:                          
 ---------------------------------------------------------------------
 Center     Atomic      Atomic             Coordinates (Angstroms)
 Number     Number       Type             X           Y           Z
 ---------------------------------------------------------------------
      1          6           0       -5.964797    1.454767   -2.591164
      2          6           0       -4.820580    2.194213   -3.287539
      3          6           0       -3.448253    1.505908   -3.274003
      4          6           0       -3.417037    0.174373   -4.016283
      5          6           0       -2.930333    1.341212   -1.833583
      6          6           0       -3.442242    0.128349   -0.992101
      7          8           0       -2.338951   -0.850498   -1.011840
      8          6           0       -1.305628   -0.182525   -1.524568
      9          6           0       -0.038661   -0.840344   -1.768040
     10          6           0        0.272292   -2.092944   -1.292193
     11          6           0        1.527901   -2.634547   -1.622347
     12          8           0        1.786125   -3.847764   -1.130397
     13          6           0        3.039974   -4.465830   -1.422150
     14          6           0        2.385271   -1.872585   -2.420880
     15          6           0        1.954089   -0.621202   -2.844836
     16          7           0        0.776814   -0.076218   -2.552159
     17          7           0       -1.478271    1.030954   -1.950436
     18          1           0       -6.091445    0.435319   -2.981375
     19          1           0       -5.810846    1.379227   -1.503645
     20          1           0       -6.913313    1.986119   -2.742548
     21          1           0       -4.706534    3.192442   -2.834351
     22          1           0       -5.077174    2.347898   -4.346072
     23          1           0       -2.689204    2.139832   -3.758622
     24          1           0       -2.391175   -0.207995   -4.060414
     25          1           0       -4.076597   -0.590739   -3.581438
     26          1           0       -3.735799    0.345495   -5.050992
     27          1           0       -3.084895    2.287022   -1.303544
     28          1           0       -3.616007    0.375487    0.061136
     29          1           0       -4.300842   -0.392203   -1.411316
     30          1           0       -0.426563   -2.650084   -0.677275
     31          1           0        3.161077   -4.616197   -2.504048
     32          1           0        2.975798   -5.424233   -0.905772
     33          1           0        3.873142   -3.868207   -1.026751
     34          1           0        3.366362   -2.222251   -2.716143
     35          1           0        2.593940    0.007593   -3.458004
     36         28           0        0.026776    1.798248   -3.164981
     37          9           0        0.919346    3.197418   -2.424085
     38          9           0       -0.611561    1.774290   -4.883144
 ---------------------------------------------------------------------
                    Distance matrix (angstroms):
                    1          2          3          4          5
     1  C    0.000000
     2  C    1.530017   0.000000
     3  C    2.608041   1.535327   0.000000
     4  C    3.187703   2.565298   1.524776   0.000000
     5  C    3.129664   2.532713   1.539537   2.522414   0.000000
     6  C    3.267977   3.381811   2.665480   3.024637   1.562427
     7  O    4.577693   4.539555   3.449722   3.352508   2.414247
     8  C    5.052347   4.594763   3.240705   3.285433   2.248762
     9  C    6.408132   5.863802   4.404332   4.183022   3.622879
    10  C    7.292109   6.949710   5.542721   5.115910   4.726873
    11  C    8.590787   8.148190   6.680826   6.170362   5.977217
    12  O    9.504076   9.209088   7.788168   7.181839   7.047334
    13  C   10.840017  10.470156   9.010445   8.363851   8.338800
    14  C    8.990212   8.319509   6.795000   6.356267   6.239315
    15  C    8.190406   7.349741   5.821862   5.554657   5.360156
    16  N    6.913375   6.084938   4.568957   4.449140   4.033410
    17  N    4.551820   3.783126   2.420379   2.959774   1.489428
    18  H    1.098899   2.191471   2.866751   2.879511   3.482915
    19  H    1.100957   2.197068   2.955007   3.673601   2.899597
    20  H    1.097694   2.172521   3.538317   4.138691   4.135970
    21  H    2.159138   1.102200   2.149642   3.488338   2.753811
    22  H    2.159921   1.099978   2.124068   2.754819   3.454699
    23  H    3.544261   2.183493   1.101304   2.111672   2.098025
    24  H    4.206453   3.502849   2.161786   1.095695   2.765774
    25  H    2.954664   2.897559   2.210263   1.099775   2.846287
    26  H    3.499953   2.775658   2.141713   1.096136   3.462939
    27  H    3.262583   2.637698   2.150552   3.454353   1.095166
    28  H    3.703561   3.996547   3.525500   4.087222   2.234443
    29  H    2.751743   3.237266   2.792730   2.808554   2.249741
    30  H    7.154356   7.041881   5.757246   5.298063   4.851428
    31  H   10.961103  10.521521   9.041916   8.276957   8.546667
    32  H   11.405939  11.157825   9.741859   9.049200   9.028536
    33  H   11.294534  10.837200   9.355965   8.855872   8.606758
    34  H   10.030285   9.319746   7.787769   7.310860   7.288727
    35  H    8.723400   7.732107   6.227913   6.039150   5.910573
    36  Ni   6.028780   4.865046   3.489007   3.901478   3.275056
    37  F    7.103251   5.890562   4.760198   5.520698   4.314420
    38  F    5.832015   4.520855   3.272336   3.343932   3.855396
                    6          7          8          9         10
     6  C    0.000000
     7  O    1.475053   0.000000
     8  C    2.223799   1.332980   0.000000
     9  C    3.622818   2.421421   1.448175   0.000000
    10  C    4.338428   2.905316   2.488680   1.375546   0.000000
    11  C    5.721286   4.302103   3.748447   2.386316   1.406730
    12  O    6.569963   5.100383   4.811266   3.575053   2.323201
    13  C    7.956793   6.493984   6.102578   4.768834   3.647951
    14  C    6.324955   5.034713   4.157212   2.714252   2.405655
    15  C    5.754549   4.673612   3.544192   2.275646   2.721243
    16  N    4.502895   3.560911   2.324610   1.365186   2.430893
    17  N    2.364377   2.271914   1.297575   2.368017   3.640946
    18  H    3.327119   4.428724   5.040641   6.303625   7.052842
    19  H    2.727024   4.155430   4.768280   6.189873   7.007514
    20  H    4.308562   5.653895   6.134543   7.496626   8.388992
    21  H    3.792226   5.027162   4.967101   6.260145   7.423089
    22  H    4.341488   5.370726   5.346820   6.495980   7.593684
    23  H    3.502394   4.075483   3.506939   4.457493   5.724518
    24  H    3.260738   3.115981   2.758546   3.345021   4.279034
    25  H    2.761189   3.112832   3.475000   4.433468   5.139075
    26  H    4.075282   4.438055   4.315113   5.084567   6.011600
    27  H    2.210105   3.238141   3.051771   4.390412   5.518599
    28  H    1.095710   2.070069   2.857216   4.197801   4.800366
    29  H    1.088077   2.053930   3.004680   4.300497   4.880600
    30  H    4.112557   2.647201   2.753091   2.148347   1.084863
    31  H    8.270461   6.830629   6.369324   5.003708   4.022497
    32  H    8.487041   7.012622   6.796251   5.553603   4.307640
    33  H    8.335976   6.906294   6.375871   5.001966   4.023449
    34  H    7.406397   6.110397   5.235248   3.795095   3.408463
    35  H    6.521560   5.572563   4.356713   3.241229   3.806973
    36  Ni   4.420865   4.153136   2.896500   2.986285   4.325388
    37  F    5.522065   5.384846   4.145317   4.201392   5.448650
    38  F    5.085478   4.986019   3.948530   4.107116   5.350852
                   11         12         13         14         15
    11  C    0.000000
    12  O    1.334388   0.000000
    13  C    2.383285   1.428028   0.000000
    14  C    1.397614   2.434267   2.854999   0.000000
    15  C    2.393674   3.657624   4.240796   1.389826   0.000000
    16  N    2.823779   4.155078   5.066311   2.414809   1.329903
    17  N    4.751905   5.927110   7.135003   4.855802   3.912884
    18  H    8.326191   9.155710  10.480232   8.803141   8.115755
    19  H    8.365505   9.229015  10.606996   8.865209   8.129866
    20  H    9.688110  10.597803  11.934782  10.072572   9.243343
    21  H    8.619218   9.727413  10.984163   8.724629   7.675147
    22  H    8.710364   9.789365  10.993830   8.786747   7.778684
    23  H    6.718804   7.923852   9.050820   6.606007   5.478912
    24  H    5.214545   6.267595   7.388300   5.317270   4.530969
    25  H    6.278979   7.140540   8.385967   6.689227   6.075580
    26  H    6.952897   7.965307   9.067990   7.021742   6.178709
    27  H    6.752878   7.835331   9.117517   6.962290   6.018696
    28  H    6.193077   6.959786   8.363048   6.872377   6.361134
    29  H    6.248750   7.005068   8.395364   6.922056   6.421182
    30  H    2.171021   2.556510   3.983548   3.398688   3.805547
    31  H    2.715069   2.089952   1.098990   2.852403   4.187236
    32  H    3.223700   1.987721   1.090551   3.906211   5.279486
    33  H    2.716028   2.089689   1.098937   2.853045   4.187033
    34  H    2.178604   2.766592   2.610478   1.082583   2.138793
    35  H    3.389245   4.575379   4.935095   2.157368   1.086631
    36  Ni   4.927754   6.253982   7.166275   4.426194   3.109785
    37  F    5.918187   7.215228   8.014132   5.277677   3.978641
    38  F    5.886249   7.172133   8.015690   5.323856   4.059019
                   16         17         18         19         20
    16  N    0.000000
    17  N    2.583275   0.000000
    18  H    6.900643   4.764345   0.000000
    19  H    6.827516   4.369453   1.775777   0.000000
    20  H    7.964140   5.574895   1.771295   1.765964   0.000000
    21  H    6.389904   3.984346   3.088903   2.505600   2.516648
    22  H    6.585107   4.519459   2.559121   3.091276   2.464463
    23  H    4.287156   2.442438   3.883906   3.925314   4.347313
    24  H    3.511175   2.611587   3.907707   4.555271   5.196213
    25  H    4.987960   3.470064   2.339334   3.347479   3.923123
    26  H    5.175489   3.896117   3.136949   4.237699   4.256425
    27  H    4.696461   2.139490   3.909381   2.880094   4.100982
    28  H    5.131299   3.007653   3.922786   2.876344   4.618117
    29  H    5.213824   3.206701   2.521138   2.329507   3.775393
    30  H    3.404129   4.034485   6.849779   6.775599   8.236361
    31  H    5.128200   7.329417  10.552479  10.837035  12.047439
    32  H    6.012270   7.911985  10.993515  11.128776  12.493261
    33  H    5.127699   7.313863  11.028775  11.024637  12.392122
    34  H    3.367210   5.885585   9.827672   9.932872  11.107780
    35  H    2.032123   4.461270   8.708963   8.737352   9.737263
    36  Ni   2.109912   2.080631   6.270878   6.083868   6.955471
    37  F    3.279239   3.265958   7.555855   7.031964   7.932163
    38  F    3.284122   3.147143   5.953041   6.213667   6.658761
                   21         22         23         24         25
    21  H    0.000000
    22  H    1.770855   0.000000
    23  H    2.455990   2.467953   0.000000
    24  H    4.292678   3.718707   2.385831   0.000000
    25  H    3.907354   3.197094   3.067942   1.793477   0.000000
    26  H    3.736433   2.511139   2.446472   1.759435   1.775462
    27  H    2.406837   3.637287   2.491113   3.782418   3.801813
    28  H    4.184295   5.044690   4.308414   4.339106   3.796589
    29  H    3.878053   4.089454   3.810305   3.270854   2.190693
    30  H    7.556867   7.750360   6.128420   4.611847   5.098805
    31  H   11.089781  10.943512   9.024615   7.258239   8.351587
    32  H   11.704048  11.708632   9.871478   8.121903   8.958690
    33  H   11.257487  11.391488   9.307203   7.863964   8.970316
    34  H    9.721343   9.738389   7.535542   6.246080   7.668650
    35  H    7.989313   8.069181   5.705122   5.026007   6.698455
    36  Ni   4.945434   5.267580   2.801006   3.267001   4.766378
    37  F    5.640821   6.354051   3.990126   5.023341   6.375660
    38  F    4.793486   4.534223   2.390558   2.788075   4.392525
                   26         27         28         29         30
    26  H    0.000000
    27  H    4.270429   0.000000
    28  H    5.113619   2.407987   0.000000
    29  H    3.756423   2.944213   1.796236   0.000000
    30  H    6.249315   5.642159   4.457789   4.543884   0.000000
    31  H    8.869736   9.386577   8.799202   8.643867   4.480387
    32  H    9.773339   9.815992   8.833095   8.861512   4.395928
    33  H    9.583620   9.293963   8.676392   8.890698   4.482569
    34  H    7.904779   7.996730   7.950785   7.989848   4.327390
    35  H    6.535853   6.487423   7.147246   7.203248   4.890720
    36  Ni   4.452471   3.658735   5.069709   5.157683   5.116821
    37  F    6.058422   4.256569   5.891438   6.415718   6.249488
    38  F    3.439548   4.381074   5.952248   5.509817   6.107262
                   31         32         33         34         35
    31  H    0.000000
    32  H    1.800482   0.000000
    33  H    1.802480   1.800300   0.000000
    34  H    2.412075   3.699010   2.412476   0.000000
    35  H    4.755115   6.013688   4.750703   2.473701   0.000000
    36  Ni   7.169783   8.121884   7.174627   5.245827   3.143666
    37  F    8.129227   8.992616   7.784633   5.953653   3.748097
    38  F    7.793024   8.972590   8.174479   6.040869   3.927783
                   36         37         38
    36  Ni   0.000000
    37  F    1.817494   0.000000
    38  F    1.833066   3.227373   0.000000
 Stoichiometry    C13H18F2N2NiO2(3)
 Framework group  C1[X(C13H18F2N2NiO2)]
 Deg. of freedom   108
 Full point group                 C1      NOp   1
 Largest Abelian subgroup         C1      NOp   1
 Largest concise Abelian subgroup C1      NOp   1
                         Standard orientation:                         
 ---------------------------------------------------------------------
 Center     Atomic      Atomic             Coordinates (Angstroms)
 Number     Number       Type             X           Y           Z
 ---------------------------------------------------------------------
      1          6           0        4.883613   -2.098177    0.217460
      2          6           0        4.521450   -0.624186    0.410179
      3          6           0        3.026062   -0.291169    0.510903
      4          6           0        2.334353   -0.912213    1.719532
      5          6           0        2.291563   -0.662621   -0.790138
      6          6           0        1.850839   -2.146991   -0.998918
      7          8           0        0.402952   -2.164782   -0.717694
      8          6           0        0.057703   -0.879124   -0.648978
      9          6           0       -1.295716   -0.486796   -0.314993
     10          6           0       -2.354635   -1.363890   -0.275942
     11          6           0       -3.616976   -0.863036    0.090841
     12          8           0       -4.613441   -1.750406    0.105716
     13          6           0       -5.925451   -1.319154    0.468918
     14          6           0       -3.722366    0.495486    0.401707
     15          6           0       -2.577014    1.279540    0.330682
     16          7           0       -1.368886    0.842555   -0.012994
     17          7           0        0.976061    0.033597   -0.734189
     18          1           0        4.445333   -2.733514    0.999660
     19          1           0        4.545764   -2.486098   -0.755926
     20          1           0        5.972298   -2.233686    0.253984
     21          1           0        4.947308   -0.035946   -0.418956
     22          1           0        4.982117   -0.254308    1.338040
     23          1           0        2.873796    0.795818    0.601145
     24          1           0        1.302852   -0.549544    1.790398
     25          1           0        2.338348   -2.011974    1.715537
     26          1           0        2.850822   -0.576628    2.626261
     27          1           0        2.887420   -0.301653   -1.635150
     28          1           0        1.968184   -2.491537   -2.032406
     29          1           0        2.291159   -2.859239   -0.304128
     30          1           0       -2.225417   -2.412394   -0.522660
     31          1           0       -5.939558   -0.927135    1.495514
     32          1           0       -6.520140   -2.230487    0.397364
     33          1           0       -6.296482   -0.558848   -0.232462
     34          1           0       -4.659557    0.952897    0.692280
     35          1           0       -2.617543    2.342224    0.553903
     36         28           0        0.425838    1.946057   -0.126921
     37          9           0        0.425164    3.166711   -1.473505
     38          9           0        1.188499    2.222721    1.516836
 ---------------------------------------------------------------------
 Rotational constants (GHZ):           0.4550434           0.1893402           0.1498105
 Basis read from rwf:  (6D, 7F)
 Pseudo-potential data read from rwf file.
 There are   398 symmetry adapted cartesian basis functions of A   symmetry.
 There are   395 symmetry adapted basis functions of A   symmetry.
   395 basis functions,   758 primitive gaussians,   398 cartesian basis functions
    82 alpha electrons       80 beta electrons
       nuclear repulsion energy      1879.0117819185 Hartrees.
 NAtoms=   38 NActive=   38 NUniq=   38 SFac= 1.00D+00 NAtFMM=   60 NAOKFM=F Big=F
 Integral buffers will be    131072 words long.
 Raffenetti 2 integral format.
 Two-electron integral symmetry is turned on.
 Nuclear repulsion after empirical dispersion term =     1878.9312877852 Hartrees.
 One-electron integrals computed using PRISM.
 PrsmSu:  requested number of processors reduced to:  12 ShMem   1 Linda.
   1 Symmetry operations used in ECPInt.
 ECPInt:  NShTT=    8911 NPrTT=   52776 LenC2=    7794 LenP2D=   27272.
 LDataN:  DoStor=T MaxTD1= 6 Len=  172
 NBasis=   395 RedAO= T EigKep=  1.12D-06  NBF=   395
 NBsUse=   395 1.00D-06 EigRej= -1.00D+00 NBFU=   395
 Initial guess from the checkpoint file:  "Lig2214_xyz_3.chk"
 B after Tr=    -0.000000   -0.000000   -0.000000
         Rot=    0.999888   -0.005982    0.000138    0.013710 Ang=  -1.71 deg.
 Initial guess <Sx>= 0.0000 <Sy>= 0.0000 <Sz>= 1.0000 <S**2>= 2.0164 S= 1.0054
 ExpMin= 2.40D-02 ExpMax= 7.14D+04 ExpMxC= 1.07D+04 IAcc=3 IRadAn=         5 AccDes= 0.00D+00
 Harris functional with IExCor=  402 and IRadAn=       5 diagonalized for initial guess.
 HarFok:  IExCor=  402 AccDes= 0.00D+00 IRadAn=         5 IDoV= 1 UseB2=F ITyADJ=14
 ICtDFT=  3500011 ScaDFX=  1.000000  1.000000  1.000000  1.000000
 FoFCou: FMM=F IPFlag=           0 FMFlag=      100000 FMFlg1=           0
         NFxFlg=           0 DoJE=T BraDBF=F KetDBF=T FulRan=T
         wScrn=  0.000000 ICntrl=       500 IOpCl=  0 I1Cent=   200000004 NGrid=           0
         NMat0=    1 NMatS0=      1 NMatT0=    0 NMatD0=    1 NMtDS0=    0 NMtDT0=    0
 Petite list used in FoFCou.
 Requested convergence on RMS density matrix=1.00D-08 within  32 cycles.
 Requested convergence on MAX density matrix=1.00D-06.
 Requested convergence on             energy=1.00D-06.
 No special actions if energy rises.
 Restarting incremental Fock formation.
 >>>>>>>>>> Convergence criterion not met.
 SCF Done:  E(UB3LYP) =  -1135.37299196     A.U. after   33 cycles
            NFock= 32  Conv=0.24D-06     -V/T= 2.0665
 <Sx>= 0.0000 <Sy>= 0.0000 <Sz>= 1.0000 <S**2>= 2.0078 S= 1.0026
 <L.S>=  0.00000000000    
 Annihilation of the first spin contaminant:
 S**2 before annihilation     2.0078,   after     2.0000
 LinEq1:  Iter=  0 NonCon=     1 RMS=5.67D-08 Max=7.38D-06 NDo=     1
 AX will form     1 AO Fock derivatives at one time.
 LinEq1:  Iter=  1 NonCon=     1 RMS=3.32D-08 Max=1.85D-06 NDo=     1
 LinEq1:  Iter=  2 NonCon=     1 RMS=1.46D-08 Max=6.54D-07 NDo=     1
 LinEq1:  Iter=  3 NonCon=     1 RMS=1.85D-08 Max=1.80D-06 NDo=     1
 LinEq1:  Iter=  4 NonCon=     1 RMS=1.41D-08 Max=7.81D-07 NDo=     1
 LinEq1:  Iter=  5 NonCon=     1 RMS=1.31D-08 Max=9.40D-07 NDo=     1
 LinEq1:  Iter=  6 NonCon=     1 RMS=1.16D-08 Max=6.22D-07 NDo=     1
 LinEq1:  Iter=  7 NonCon=     1 RMS=7.10D-09 Max=3.33D-07 NDo=     1
 LinEq1:  Iter=  8 NonCon=     1 RMS=5.38D-09 Max=4.31D-07 NDo=     1
 LinEq1:  Iter=  9 NonCon=     1 RMS=5.96D-09 Max=4.45D-07 NDo=     1
 LinEq1:  Iter= 10 NonCon=     1 RMS=3.79D-09 Max=1.71D-07 NDo=     1
 LinEq1:  Iter= 11 NonCon=     1 RMS=3.47D-09 Max=1.61D-07 NDo=     1
 LinEq1:  Iter= 12 NonCon=     1 RMS=2.20D-09 Max=1.07D-07 NDo=     1
 LinEq1:  Iter= 13 NonCon=     1 RMS=1.49D-09 Max=8.15D-08 NDo=     1
 LinEq1:  Iter= 14 NonCon=     1 RMS=1.11D-09 Max=6.31D-08 NDo=     1
 LinEq1:  Iter= 15 NonCon=     1 RMS=6.97D-10 Max=4.00D-08 NDo=     1
 LinEq1:  Iter= 16 NonCon=     1 RMS=5.32D-10 Max=3.22D-08 NDo=     1
 LinEq1:  Iter= 17 NonCon=     1 RMS=4.23D-10 Max=3.03D-08 NDo=     1
 LinEq1:  Iter= 18 NonCon=     1 RMS=2.95D-10 Max=1.75D-08 NDo=     1
 LinEq1:  Iter= 19 NonCon=     1 RMS=2.24D-10 Max=1.19D-08 NDo=     1
 LinEq1:  Iter= 20 NonCon=     1 RMS=1.53D-10 Max=9.62D-09 NDo=     1
 LinEq1:  Iter= 21 NonCon=     1 RMS=1.09D-10 Max=6.80D-09 NDo=     1
 LinEq1:  Iter= 22 NonCon=     1 RMS=7.73D-11 Max=4.02D-09 NDo=     1
 LinEq1:  Iter= 23 NonCon=     1 RMS=3.67D-11 Max=1.25D-09 NDo=     1
 LinEq1:  Iter= 24 NonCon=     1 RMS=2.34D-11 Max=1.00D-09 NDo=     1
 LinEq1:  Iter= 25 NonCon=     1 RMS=1.22D-11 Max=4.66D-10 NDo=     1
 LinEq1:  Iter= 26 NonCon=     0 RMS=8.77D-12 Max=2.94D-10 NDo=     1
 Linear equations converged to 3.367D-11 3.367D-10 after    26 iterations.
 SCF Done:  E(UB3LYP) =  -1135.37299196     a.u. after    2 cycles
            Convg  =    0.3317D-07                    28 Fock formations.
              S**2 =  2.0078                  -V/T =  2.0665
 <Sx>= 0.0000 <Sy>= 0.0000 <Sz>= 1.0000 <S**2>= 2.0078 S= 1.0026
 <L.S>=  0.00000000000    
 Annihilation of the first spin contaminant:
 S**2 before annihilation     2.0078,   after     2.0000
 PrsmSu:  requested number of processors reduced to:  13 ShMem   1 Linda.
   1 Symmetry operations used in ECPInt.
 ECPInt:  NShTT=    8911 NPrTT=   52776 LenC2=    7794 LenP2D=   27272.
 LDataN:  DoStor=T MaxTD1= 7 Len=  274
 Calling FoFJK, ICntrl=      2127 FMM=F ISym2X=0 I1Cent= 0 IOpClX= 1 NMat=1 NMatS=1 NMatT=0.
 ***** Axes restored to original set *****
 -------------------------------------------------------------------
 Center     Atomic                   Forces (Hartrees/Bohr)
 Number     Number              X              Y              Z
 -------------------------------------------------------------------
      1        6          -0.001874243   -0.001789701    0.001799760
      2        6           0.003449470    0.004540551   -0.006211852
      3        6          -0.001237837   -0.005501437    0.008555860
      4        6          -0.000367248   -0.001083230   -0.007987056
      5        6           0.010763422   -0.005368803    0.000632482
      6        6          -0.000111347   -0.001168055    0.000342308
      7        8          -0.003615333    0.007682843    0.001832423
      8        6          -0.003335565    0.020667714   -0.013042015
      9        6           0.001737712    0.007698299   -0.004265730
     10        6           0.002596357   -0.002146723    0.000387985
     11        6          -0.003439188    0.004083138   -0.000595835
     12        8           0.000958488   -0.004372027    0.001552592
     13        6          -0.002057288    0.000247481    0.000866030
     14        6           0.000973879   -0.002679784    0.001057492
     15        6           0.007791892    0.012095262   -0.008258473
     16        7           0.002919107   -0.011881123    0.004985967
     17        7          -0.008379321   -0.008941032    0.012079479
     18        1          -0.000197841    0.002105866    0.000441263
     19        1          -0.000679999    0.000716691   -0.002464863
     20        1           0.001445083   -0.000934477    0.000237722
     21        1          -0.001555988   -0.001431679   -0.002348810
     22        1          -0.002056818    0.001980732    0.002446606
     23        1          -0.006446741    0.000623707   -0.002038976
     24        1          -0.002234593   -0.000034031   -0.000789099
     25        1           0.002023090    0.001968700   -0.001163118
     26        1           0.000217904   -0.002504340    0.000193057
     27        1           0.003711753   -0.001559855    0.002382375
     28        1          -0.001135644    0.000988842   -0.002643663
     29        1          -0.000859339    0.001804735    0.001214322
     30        1           0.000956961    0.000689972   -0.000783027
     31        1           0.000213975   -0.000231349    0.002293593
     32        1           0.004457812   -0.000542266   -0.001885206
     33        1          -0.001217431   -0.001767752   -0.000762580
     34        1          -0.000219853   -0.000089327    0.000102752
     35        1           0.001780802   -0.002375049   -0.000556817
     36       28          -0.001725135   -0.002737536    0.006622480
     37        9           0.000849796   -0.003333208    0.003173029
     38        9          -0.004100753   -0.005421750    0.002597542
 -------------------------------------------------------------------
 Cartesian Forces:  Max     0.020667714 RMS     0.004494129

 GradGradGradGradGradGradGradGradGradGradGradGradGradGradGradGradGradGrad
 Berny optimization.
 Using GEDIIS/GDIIS optimizer.
 FormGI is forming the generalized inverse of G from B-inverse, IUseBI=4.
 Internal  Forces:  Max     0.018171606 RMS     0.003405439
 Search for a local minimum.
 Step number   3 out of a maximum of  228
 All quantities printed in internal units (Hartrees-Bohrs-Radians)
 Mixed Optimization -- RFO/linear search
 Update second derivatives using D2CorX and points    2    3
 DE= -7.14D-03 DEPred=-7.82D-03 R= 9.13D-01
 TightC=F SS=  1.41D+00  RLast= 7.93D-01 DXNew= 8.4853D-01 2.3792D+00
 Trust test= 9.13D-01 RLast= 7.93D-01 DXMaxT set to 8.49D-01
 ITU=  1  1  0
 Use linear search instead of GDIIS.
     Eigenvalues ---    0.00230   0.00230   0.00230   0.00253   0.00697
     Eigenvalues ---    0.01380   0.01751   0.01973   0.01983   0.02021
     Eigenvalues ---    0.02023   0.02049   0.02125   0.02190   0.02226
     Eigenvalues ---    0.02313   0.02955   0.03082   0.03109   0.03194
     Eigenvalues ---    0.03555   0.03760   0.04441   0.04618   0.04686
     Eigenvalues ---    0.04962   0.05127   0.05220   0.05246   0.05364
     Eigenvalues ---    0.05455   0.05771   0.06866   0.07108   0.08922
     Eigenvalues ---    0.09593   0.10149   0.10407   0.10750   0.10901
     Eigenvalues ---    0.11560   0.12622   0.13211   0.14200   0.16000
     Eigenvalues ---    0.16000   0.16000   0.16000   0.16000   0.16000
     Eigenvalues ---    0.16000   0.16000   0.16000   0.16000   0.16011
     Eigenvalues ---    0.16312   0.17007   0.17549   0.19504   0.19786
     Eigenvalues ---    0.19810   0.20392   0.21463   0.22020   0.22544
     Eigenvalues ---    0.23048   0.23570   0.24484   0.24899   0.24994
     Eigenvalues ---    0.25655   0.26070   0.26878   0.27526   0.27706
     Eigenvalues ---    0.28629   0.29427   0.34398   0.34522   0.34540
     Eigenvalues ---    0.34616   0.34621   0.34652   0.34679   0.34724
     Eigenvalues ---    0.34741   0.34751   0.34782   0.34802   0.34841
     Eigenvalues ---    0.34886   0.34900   0.35642   0.35808   0.36095
     Eigenvalues ---    0.36318   0.37359   0.40103   0.41078   0.42133
     Eigenvalues ---    0.42570   0.44993   0.46456   0.48080   0.49470
     Eigenvalues ---    0.50566   0.54064   0.71748
 RFO step:  Lambda=-3.89506219D-03 EMin= 2.29830721D-03
 Quartic linear search produced a step of -0.38694.
 Iteration  1 RMS(Cart)=  0.07152136 RMS(Int)=  0.00127675
 Iteration  2 RMS(Cart)=  0.00226660 RMS(Int)=  0.00086710
 Iteration  3 RMS(Cart)=  0.00000148 RMS(Int)=  0.00086710
 Iteration  4 RMS(Cart)=  0.00000000 RMS(Int)=  0.00086710
 Variable       Old X    -DE/DX   Delta X   Delta X   Delta X     New X
                                 (Linear)    (Quad)   (Total)
    R1        2.89131   0.00094   0.00456  -0.00048   0.00408   2.89540
    R2        2.07662  -0.00210  -0.00323  -0.00115  -0.00439   2.07223
    R3        2.08051  -0.00257  -0.00428  -0.00119  -0.00546   2.07504
    R4        2.07434  -0.00173  -0.00248  -0.00099  -0.00347   2.07087
    R5        2.90135   0.00370   0.00581   0.00391   0.00971   2.91106
    R6        2.08286  -0.00242  -0.00387  -0.00125  -0.00512   2.07774
    R7        2.07866  -0.00160  -0.00337  -0.00042  -0.00380   2.07486
    R8        2.88141   0.00619   0.00715   0.00694   0.01408   2.89549
    R9        2.90930   0.01174   0.00444   0.01943   0.02388   2.93318
   R10        2.08116  -0.00319  -0.00302  -0.00320  -0.00622   2.07494
   R11        2.07056  -0.00205  -0.00110  -0.00207  -0.00318   2.06739
   R12        2.07827  -0.00303  -0.00334  -0.00224  -0.00559   2.07269
   R13        2.07140  -0.00064  -0.00237   0.00046  -0.00191   2.06948
   R14        2.95256  -0.00570  -0.00200  -0.00747  -0.00944   2.94311
   R15        2.81461  -0.00508  -0.02841   0.00629  -0.02212   2.79249
   R16        2.06956  -0.00072  -0.00087  -0.00048  -0.00135   2.06822
   R17        2.78745  -0.00244  -0.02491   0.01371  -0.01126   2.77618
   R18        2.07059  -0.00213  -0.00049  -0.00255  -0.00304   2.06755
   R19        2.05617  -0.00067   0.00078  -0.00148  -0.00070   2.05547
   R20        2.51897   0.00342   0.01449  -0.00395   0.01053   2.52950
   R21        2.73665   0.01615   0.01174   0.01794   0.03167   2.76832
   R22        2.45206  -0.01817  -0.01056  -0.00558  -0.01509   2.43697
   R23        2.59940   0.00431   0.00784  -0.00032   0.00766   2.60707
   R24        2.57983  -0.00401   0.00012  -0.00366  -0.00264   2.57718
   R25        2.65833   0.00254  -0.00658   0.00493  -0.00156   2.65677
   R26        2.05009  -0.00142  -0.00139  -0.00091  -0.00231   2.04779
   R27        2.52163   0.00729   0.01627  -0.00388   0.01239   2.53402
   R28        2.64111   0.00301   0.00318   0.00018   0.00331   2.64442
   R29        2.69858   0.00210  -0.00591   0.00439  -0.00152   2.69706
   R30        2.07679  -0.00221  -0.00230  -0.00162  -0.00392   2.07287
   R31        2.06084  -0.00068   0.00006  -0.00104  -0.00098   2.05986
   R32        2.07669  -0.00216  -0.00229  -0.00154  -0.00383   2.07286
   R33        2.62639   0.00307   0.00206   0.00197   0.00389   2.63028
   R34        2.04578  -0.00020  -0.00051   0.00074   0.00023   2.04601
   R35        2.51315   0.00518   0.00716  -0.00007   0.00700   2.52015
   R36        2.05344  -0.00001  -0.00246   0.00106  -0.00140   2.05204
   R37        3.98716  -0.00553  -0.13357   0.05639  -0.07850   3.90866
   R38        3.93182  -0.00802  -0.12338   0.04127  -0.08339   3.84843
   R39        3.43457  -0.00087   0.02074  -0.01665   0.00409   3.43865
   R40        3.46399  -0.00092   0.01272  -0.01267   0.00005   3.46404
    A1        1.95295   0.00025  -0.00062   0.00183   0.00120   1.95415
    A2        1.95862   0.00004  -0.00196   0.00182  -0.00014   1.95847
    A3        1.92783  -0.00007  -0.00004  -0.00172  -0.00175   1.92608
    A4        1.87887   0.00023   0.00384   0.00156   0.00540   1.88427
    A5        1.87602  -0.00027  -0.00132  -0.00156  -0.00288   1.87314
    A6        1.86531  -0.00021   0.00022  -0.00218  -0.00196   1.86334
    A7        2.03507   0.00035   0.00026   0.00502   0.00526   2.04033
    A8        1.90492  -0.00037  -0.00226  -0.00365  -0.00594   1.89898
    A9        1.90823  -0.00152  -0.00279  -0.00444  -0.00733   1.90090
   A10        1.88590   0.00043   0.00467   0.00211   0.00680   1.89269
   A11        1.85420   0.00202   0.00979   0.00970   0.01949   1.87369
   A12        1.86845  -0.00100  -0.01070  -0.00979  -0.02054   1.84791
   A13        1.98832  -0.00213  -0.00455   0.00591   0.00015   1.98847
   A14        1.93575   0.00076   0.01140   0.01360   0.02428   1.96003
   A15        1.93277  -0.00248  -0.03475  -0.03770  -0.07253   1.86024
   A16        1.93389   0.00403   0.01814   0.02676   0.04437   1.97826
   A17        1.84869  -0.00046  -0.00330  -0.01607  -0.01964   1.82905
   A18        1.81463   0.00039   0.01066   0.00512   0.01628   1.83091
   A19        1.92146   0.00118   0.00519   0.00090   0.00611   1.92757
   A20        1.98534  -0.00082  -0.00512  -0.00201  -0.00714   1.97820
   A21        1.89362   0.00339   0.00823   0.00859   0.01683   1.91045
   A22        1.91202  -0.00061  -0.00880  -0.00135  -0.01014   1.90188
   A23        1.86370  -0.00181   0.00178  -0.00279  -0.00099   1.86271
   A24        1.88330  -0.00142  -0.00101  -0.00340  -0.00441   1.87889
   A25        2.06772  -0.00155  -0.00807   0.00666  -0.00143   2.06628
   A26        1.85131   0.00464   0.01896   0.02553   0.04440   1.89572
   A27        1.88910   0.00088   0.00340   0.00286   0.00656   1.89566
   A28        1.77212  -0.00042  -0.00149  -0.00216  -0.00404   1.76808
   A29        1.94282  -0.00071  -0.00078  -0.01233  -0.01347   1.92935
   A30        1.93420  -0.00290  -0.01244  -0.02147  -0.03409   1.90011
   A31        1.83679  -0.00446  -0.00175  -0.00374  -0.00531   1.83147
   A32        1.97640  -0.00012  -0.01060  -0.00543  -0.01595   1.96044
   A33        2.00690   0.00028  -0.00513   0.00324  -0.00177   2.00514
   A34        1.85580   0.00138   0.01435   0.00187   0.01610   1.87189
   A35        1.84168   0.00395   0.02186   0.00737   0.02913   1.87081
   A36        1.93169  -0.00078  -0.01443  -0.00235  -0.01643   1.91526
   A37        1.82599   0.00344   0.00356   0.00256   0.00650   1.83249
   A38        2.11209   0.00205   0.01133   0.00510   0.01479   2.12687
   A39        2.08488  -0.00597  -0.01573  -0.00379  -0.02057   2.06431
   A40        2.07833   0.00406   0.00703   0.00281   0.01172   2.09005
   A41        2.15706   0.00320   0.01113   0.00192   0.01177   2.16883
   A42        1.94433   0.00388   0.00288   0.00558   0.01056   1.95489
   A43        2.18139  -0.00710  -0.01412  -0.00761  -0.02257   2.15882
   A44        2.06142   0.00165  -0.00034   0.00177   0.00177   2.06319
   A45        2.11544  -0.00077   0.00191  -0.00132   0.00041   2.11585
   A46        2.10632  -0.00088  -0.00159  -0.00043  -0.00220   2.10412
   A47        2.02222   0.00238   0.00194   0.00469   0.00655   2.02877
   A48        2.06206   0.00153   0.00740   0.00088   0.00843   2.07049
   A49        2.19890  -0.00391  -0.00934  -0.00556  -0.01499   2.18391
   A50        2.08071  -0.00351  -0.01030  -0.00849  -0.01880   2.06191
   A51        1.93596  -0.00032   0.00414  -0.00340   0.00077   1.93673
   A52        1.80489   0.00736   0.01983   0.01423   0.03410   1.83899
   A53        1.93564  -0.00028   0.00433  -0.00333   0.00103   1.93667
   A54        1.93091  -0.00267  -0.01228  -0.00139  -0.01364   1.91727
   A55        1.92311  -0.00105  -0.00355  -0.00381  -0.00733   1.91578
   A56        1.93069  -0.00267  -0.01218  -0.00140  -0.01354   1.91714
   A57        2.06559   0.00062   0.00463   0.00021   0.00477   2.07036
   A58        2.13611  -0.00048  -0.00590   0.00022  -0.00564   2.13047
   A59        2.08149  -0.00014   0.00125  -0.00042   0.00086   2.08235
   A60        2.18521  -0.00801  -0.02091  -0.00698  -0.02801   2.15720
   A61        2.10653   0.00099   0.00756  -0.00489   0.00272   2.10925
   A62        1.99140   0.00702   0.01334   0.01195   0.02533   2.01673
   A63        2.01066   0.01132   0.02332   0.01179   0.03562   2.04627
   A64        2.03952  -0.01194  -0.03906  -0.00380  -0.04377   1.99575
   A65        2.23296   0.00062   0.01568  -0.00800   0.00808   2.24105
   A66        1.87420   0.00700   0.01018   0.00326   0.01359   1.88779
   A67        2.31067  -0.00069   0.02688  -0.00833   0.01937   2.33003
   A68        2.02664  -0.00656  -0.04225   0.00235  -0.04111   1.98553
   A69        1.32840   0.01055   0.06891  -0.00820   0.05886   1.38726
   A70        1.97246  -0.00491   0.00680  -0.01539  -0.00610   1.96636
   A71        1.96538  -0.00418   0.01112  -0.01149   0.00692   1.97230
   A72        1.98360  -0.00260   0.00384  -0.00351   0.00359   1.98720
   A73        1.86547  -0.00819   0.04006  -0.04417  -0.00155   1.86392
   A74        2.16902   0.00884  -0.07792   0.05193  -0.02694   2.14208
    D1       -0.95865  -0.00061  -0.00307  -0.00045  -0.00352  -0.96216
    D2       -3.10075  -0.00115  -0.00766  -0.00397  -0.01161  -3.11236
    D3        1.14399   0.00112   0.00786   0.01238   0.02021   1.16419
    D4        1.15572  -0.00010   0.00006   0.00420   0.00426   1.15998
    D5       -0.98638  -0.00064  -0.00454   0.00068  -0.00383  -0.99021
    D6       -3.02483   0.00163   0.01098   0.01703   0.02798  -2.99684
    D7       -3.04796  -0.00038  -0.00098   0.00148   0.00051  -3.04745
    D8        1.09312  -0.00092  -0.00557  -0.00204  -0.00758   1.08554
    D9       -0.94533   0.00134   0.00995   0.01431   0.02423  -0.92109
   D10        1.10549   0.00270   0.01831   0.03177   0.04997   1.15546
   D11       -1.09071  -0.00169  -0.01282  -0.02023  -0.03303  -1.12374
   D12       -3.09608  -0.00114  -0.01137  -0.01209  -0.02331  -3.11940
   D13       -3.02574   0.00282   0.01931   0.03224   0.05144  -2.97430
   D14        1.06124  -0.00157  -0.01182  -0.01976  -0.03156   1.02968
   D15       -0.94413  -0.00102  -0.01036  -0.01162  -0.02185  -0.96598
   D16       -1.02567   0.00287   0.01408   0.02672   0.04064  -0.98503
   D17        3.06132  -0.00151  -0.01705  -0.02529  -0.04236   3.01895
   D18        1.05594  -0.00097  -0.01560  -0.01714  -0.03265   1.02330
   D19        3.03574  -0.00234  -0.01338  -0.03889  -0.05233   2.98342
   D20       -1.09397  -0.00283  -0.02464  -0.04143  -0.06612  -1.16009
   D21        1.00204  -0.00278  -0.02349  -0.04100  -0.06452   0.93751
   D22       -1.05026   0.00032   0.01435   0.00613   0.02066  -1.02960
   D23        1.10321  -0.00017   0.00309   0.00359   0.00686   1.11007
   D24       -3.08397  -0.00012   0.00424   0.00403   0.00846  -3.07551
   D25        0.90704   0.00240   0.03387   0.01602   0.04976   0.95680
   D26        3.06051   0.00191   0.02261   0.01348   0.03596   3.09647
   D27       -1.12667   0.00196   0.02377   0.01392   0.03756  -1.08910
   D28        1.43614   0.00003   0.01319   0.02649   0.03974   1.47588
   D29       -2.87237   0.00196   0.02022   0.04560   0.06619  -2.80619
   D30       -0.79588   0.00150   0.01783   0.03562   0.05379  -0.74209
   D31       -0.79012  -0.00087  -0.00548  -0.01254  -0.01840  -0.80852
   D32        1.18455   0.00106   0.00155   0.00658   0.00805   1.19260
   D33       -3.02214   0.00061  -0.00084  -0.00340  -0.00435  -3.02649
   D34       -2.76909  -0.00230  -0.01616  -0.00829  -0.02471  -2.79380
   D35       -0.79442  -0.00037  -0.00913   0.01082   0.00174  -0.79268
   D36        1.28208  -0.00083  -0.01152   0.00084  -0.01066   1.27142
   D37        1.79043   0.00385   0.00152   0.01995   0.02142   1.81185
   D38       -2.47290   0.00274   0.01224   0.01715   0.02945  -2.44344
   D39       -0.22813   0.00176  -0.02136   0.01166  -0.00985  -0.23798
   D40       -0.22721  -0.00084  -0.01687  -0.01337  -0.03021  -0.25742
   D41        1.79265  -0.00194  -0.00615  -0.01616  -0.02218   1.77047
   D42       -2.24577  -0.00293  -0.03974  -0.02166  -0.06148  -2.30724
   D43       -2.28624   0.00307  -0.00138   0.01811   0.01674  -2.26950
   D44       -0.26637   0.00196   0.00934   0.01532   0.02477  -0.24160
   D45        1.97839   0.00098  -0.02426   0.00983  -0.01453   1.96387
   D46       -1.98512   0.00261   0.02284   0.00817   0.03111  -1.95400
   D47        0.72985   0.00078  -0.00402   0.00180  -0.00246   0.72739
   D48        0.18629   0.00271   0.02154   0.02601   0.04797   0.23426
   D49        2.90125   0.00088  -0.00532   0.01964   0.01440   2.91565
   D50        2.25152   0.00040   0.01466   0.00121   0.01639   2.26791
   D51       -1.31670  -0.00143  -0.01220  -0.00516  -0.01719  -1.33389
   D52        0.19163   0.00048   0.00676  -0.00090   0.00585   0.19748
   D53       -1.90966   0.00217   0.01288   0.00631   0.01909  -1.89057
   D54        2.32108   0.00054   0.01109   0.00461   0.01575   2.33683
   D55       -3.08574  -0.00081  -0.02641  -0.01480  -0.04069  -3.12642
   D56       -0.08002   0.00075   0.00684   0.02072   0.02781  -0.05221
   D57       -0.20346   0.00042   0.01854   0.02384   0.04210  -0.16136
   D58        2.90896  -0.00028   0.01474   0.01961   0.03389   2.94285
   D59        3.07351  -0.00037  -0.01396  -0.01104  -0.02492   3.04859
   D60       -0.09726  -0.00107  -0.01776  -0.01527  -0.03313  -0.13038
   D61       -0.07780  -0.00215  -0.02001  -0.03089  -0.05119  -0.12899
   D62       -2.87208  -0.00163  -0.01638  -0.02265  -0.03880  -2.91088
   D63        2.93056  -0.00076   0.01275   0.00413   0.01612   2.94668
   D64        0.13628  -0.00023   0.01637   0.01237   0.02851   0.16479
   D65        3.11828  -0.00086  -0.00673  -0.01123  -0.01796   3.10032
   D66       -0.02607  -0.00056  -0.00247  -0.00520  -0.00767  -0.03374
   D67        0.00984  -0.00028  -0.00288  -0.00667  -0.00946   0.00038
   D68       -3.13451   0.00001   0.00138  -0.00063   0.00083  -3.13368
   D69       -3.12024   0.00095   0.00939   0.01247   0.02190  -3.09834
   D70        0.01200   0.00073   0.00590   0.01046   0.01647   0.02848
   D71       -0.00831   0.00046   0.00619   0.00836   0.01443   0.00612
   D72        3.12394   0.00024   0.00271   0.00636   0.00901   3.13294
   D73        3.13437   0.00015   0.00163   0.00459   0.00626   3.14063
   D74       -0.00591  -0.00006  -0.00081   0.00129   0.00054  -0.00537
   D75       -0.00447  -0.00015  -0.00259  -0.00141  -0.00397  -0.00844
   D76        3.13843  -0.00035  -0.00503  -0.00471  -0.00969   3.12875
   D77        3.14074  -0.00010  -0.00301  -0.00180  -0.00479   3.13595
   D78       -0.00228   0.00013  -0.00042   0.00181   0.00137  -0.00092
   D79        0.00144   0.00011   0.00091   0.00154   0.00244   0.00388
   D80       -3.14154   0.00026   0.00486   0.00474   0.00954  -3.13200
   D81       -3.13870  -0.00013  -0.00175  -0.00214  -0.00385   3.14064
   D82        0.00151   0.00002   0.00219   0.00106   0.00325   0.00476
   D83       -1.06986   0.00087  -0.00109   0.00426   0.00317  -1.06669
   D84       -3.14017  -0.00001  -0.00024  -0.00052  -0.00076  -3.14093
   D85        1.07312  -0.00089   0.00039  -0.00533  -0.00493   1.06819
   D86       -0.00011   0.00012   0.00260   0.00048   0.00302   0.00291
   D87        3.13005   0.00036   0.01209   0.00867   0.02064  -3.13250
   D88       -3.14036  -0.00002  -0.00126  -0.00261  -0.00387   3.13895
   D89       -0.01020   0.00021   0.00823   0.00558   0.01375   0.00354
   D90        0.00323  -0.00036  -0.00598  -0.00512  -0.01101  -0.00779
   D91       -3.12779  -0.00004  -0.00139  -0.00289  -0.00442  -3.13221
   D92       -3.12760  -0.00055  -0.01494  -0.01274  -0.02767   3.12792
   D93        0.02457  -0.00023  -0.01035  -0.01052  -0.02107   0.00350
   D94        0.04058  -0.00083   0.00333  -0.00425  -0.00156   0.03901
   D95        1.96252   0.00068   0.03576  -0.00939   0.02446   1.98698
   D96       -1.75318   0.00355  -0.06844   0.04532  -0.02145  -1.77462
   D97       -3.11174  -0.00104  -0.00068  -0.00643  -0.00760  -3.11934
   D98       -1.18980   0.00047   0.03175  -0.01157   0.01843  -1.17137
   D99        1.37769   0.00335  -0.07245   0.04314  -0.02748   1.35021
   D100      -2.78025  -0.00047   0.00559   0.00247   0.00884  -2.77141
   D101       1.59439   0.00065  -0.03072   0.02206  -0.00718   1.58722
   D102      -0.86382  -0.00117   0.03936  -0.00480   0.03058  -0.83324
   D103      -0.09404   0.00020  -0.01139  -0.00445  -0.01500  -0.10904
   D104      -2.00259   0.00132  -0.04770   0.01514  -0.03101  -2.03360
   D105       1.82238  -0.00050   0.02237  -0.01172   0.00674   1.82913
         Item               Value     Threshold  Converged?
 Maximum Force            0.018172     0.000450     NO 
 RMS     Force            0.003405     0.000300     NO 
 Maximum Displacement     0.319795     0.001800     NO 
 RMS     Displacement     0.071545     0.001200     NO 
 Predicted change in Energy=-4.020998D-03
 GradGradGradGradGradGradGradGradGradGradGradGradGradGradGradGradGradGrad

                          Input orientation:                          
 ---------------------------------------------------------------------
 Center     Atomic      Atomic             Coordinates (Angstroms)
 Number     Number       Type             X           Y           Z
 ---------------------------------------------------------------------
      1          6           0       -6.023003    1.568116   -2.601912
      2          6           0       -4.831763    2.232951   -3.299413
      3          6           0       -3.496056    1.465766   -3.280559
      4          6           0       -3.519352    0.157607   -4.077992
      5          6           0       -2.931968    1.300460   -1.843994
      6          6           0       -3.442792    0.109314   -0.980388
      7          8           0       -2.350363   -0.872618   -1.005727
      8          6           0       -1.310202   -0.219784   -1.538269
      9          6           0       -0.015885   -0.871515   -1.752796
     10          6           0        0.312292   -2.123180   -1.274322
     11          6           0        1.575368   -2.648551   -1.598650
     12          8           0        1.853440   -3.866832   -1.112237
     13          6           0        3.122202   -4.442032   -1.422638
     14          6           0        2.435652   -1.883518   -2.394179
     15          6           0        2.006859   -0.632197   -2.827399
     16          7           0        0.816060   -0.114239   -2.523713
     17          7           0       -1.489357    0.993770   -1.936046
     18          1           0       -6.213065    0.559198   -2.987199
     19          1           0       -5.879774    1.494364   -1.515728
     20          1           0       -6.934397    2.155347   -2.761351
     21          1           0       -4.669277    3.225226   -2.854590
     22          1           0       -5.090700    2.413905   -4.350956
     23          1           0       -2.764134    2.098032   -3.800327
     24          1           0       -2.510374   -0.256930   -4.161593
     25          1           0       -4.182459   -0.602349   -3.646982
     26          1           0       -3.863156    0.358284   -5.098200
     27          1           0       -3.059285    2.246014   -1.307759
     28          1           0       -3.601189    0.391577    0.064739
     29          1           0       -4.330565   -0.387494   -1.365285
     30          1           0       -0.383188   -2.693863   -0.670245
     31          1           0        3.240344   -4.570958   -2.505525
     32          1           0        3.126158   -5.415092   -0.931403
     33          1           0        3.939579   -3.824013   -1.031282
     34          1           0        3.416813   -2.237397   -2.684586
     35          1           0        2.641617   -0.011895   -3.453071
     36         28           0        0.024888    1.709612   -3.094485
     37          9           0        0.910681    3.119015   -2.359569
     38          9           0       -0.587451    1.715698   -4.822269
 ---------------------------------------------------------------------
                    Distance matrix (angstroms):
                    1          2          3          4          5
     1  C    0.000000
     2  C    1.532177   0.000000
     3  C    2.618492   1.540468   0.000000
     4  C    3.230575   2.575977   1.532228   0.000000
     5  C    3.193834   2.568463   1.552172   2.577184   0.000000
     6  C    3.378599   3.437579   2.670877   3.098926   1.557429
     7  O    4.689698   4.589433   3.457673   3.444809   2.400671
     8  C    5.151545   4.638850   3.264140   3.387176   2.243822
     9  C    6.538980   5.934847   4.461898   4.328962   3.637215
    10  C    7.451451   7.038336   5.604376   5.267262   4.750901
    11  C    8.747689   8.232435   6.743572   6.322803   5.997580
    12  O    9.684841   9.310372   7.858456   7.338849   7.080714
    13  C   11.006695  10.551931   9.063955   8.503989   8.355043
    14  C    9.138150   8.401196   6.869391   6.516402   6.265123
    15  C    8.328920   7.429578   5.906681   5.720733   5.393910
    16  N    7.043381   6.165137   4.654415   4.613619   4.063387
    17  N    4.618138   3.816545   2.461166   3.067243   1.477721
    18  H    1.096578   2.192469   2.879246   2.933802   3.552742
    19  H    1.098066   2.196672   2.966067   3.731448   2.972358
    20  H    1.095856   2.171775   3.545037   4.169777   4.194259
    21  H    2.154632   1.099490   2.157219   3.497045   2.782852
    22  H    2.154926   1.097969   2.141870   2.763064   3.490665
    23  H    3.512441   2.131715   1.098012   2.100643   2.119323
    24  H    4.254640   3.511653   2.171514   1.094014   2.823911
    25  H    3.031616   2.929390   2.209641   1.096820   2.904337
    26  H    3.515692   2.772762   2.159884   1.095124   3.513497
    27  H    3.304240   2.666183   2.165985   3.499613   1.094453
    28  H    3.789518   4.027714   3.515103   4.150139   2.217473
    29  H    2.866706   3.295267   2.792714   2.883397   2.243752
    30  H    7.328255   7.139737   5.814310   5.438671   4.881453
    31  H   11.113376  10.586895   9.078645   8.397944   8.544508
    32  H   11.630260  11.288425   9.834554   9.225985   9.090234
    33  H   11.436563  10.898058   9.398387   8.987291   8.610394
    34  H   10.178354   9.402182   7.864882   7.469137   7.316424
    35  H    8.848533   7.804764   6.315400   6.194900   5.947794
    36  Ni   6.069566   4.889063   3.534279   3.992197   3.236376
    37  F    7.109149   5.885922   4.795914   5.598938   4.282396
    38  F    5.873415   4.538813   3.301412   3.402593   3.813044
                    6          7          8          9         10
     6  C    0.000000
     7  O    1.469092   0.000000
     8  C    2.228784   1.338555   0.000000
     9  C    3.647236   2.451102   1.464934   0.000000
    10  C    4.378479   2.953944   2.514969   1.379602   0.000000
    11  C    5.759340   4.349352   3.772144   2.390336   1.405903
    12  O    6.623986   5.162231   4.846761   3.588400   2.332752
    13  C    8.000593   6.547023   6.122659   4.764996   3.646185
    14  C    6.366026   5.084846   4.187125   2.728655   2.412504
    15  C    5.801723   4.728814   3.582574   2.302942   2.739824
    16  N    4.535378   3.592444   2.345896   1.363786   2.418802
    17  N    2.347648   2.256153   1.289587   2.384112   3.660491
    18  H    3.450231   4.571300   5.171487   6.478867   7.260123
    19  H    2.853740   4.280121   4.880553   6.327620   7.175415
    20  H    4.421469   5.767508   6.226456   7.618720   8.545850
    21  H    3.837422   5.058456   4.988404   6.296927   7.477882
    22  H    4.403121   5.431504   5.398120   6.580135   7.696957
    23  H    3.516765   4.099482   3.550084   4.534696   5.802045
    24  H    3.335207   3.219342   2.885069   3.521718   4.448221
    25  H    2.857323   3.225809   3.583697   4.584836   5.305208
    26  H    4.146693   4.533430   4.418692   5.244580   6.181753
    27  H    2.195390   3.212422   3.031928   4.379421   5.518922
    28  H    1.094099   2.075729   2.862170   4.213459   4.840705
    29  H    1.087706   2.070223   3.029958   4.359002   4.957520
    30  H    4.161150   2.701715   2.780987   2.151227   1.083642
    31  H    8.300319   6.868997   6.369911   4.985530   4.010108
    32  H    8.583273   7.115609   6.858630   5.584909   4.344206
    33  H    8.364990   6.948005   6.388091   4.988339   4.013616
    34  H    7.447518   6.159669   5.265879   3.810156   3.411736
    35  H    6.568781   5.625851   4.396198   3.269893   3.824948
    36  Ni   4.365222   4.083214   2.815464   2.909297   4.252751
    37  F    5.469294   5.329205   4.093218   4.141381   5.386691
    38  F    5.049108   4.936925   3.879834   4.054877   5.304191
                   11         12         13         14         15
    11  C    0.000000
    12  O    1.340944   0.000000
    13  C    2.374921   1.427222   0.000000
    14  C    1.399368   2.432258   2.821566   0.000000
    15  C    2.400352   3.664448   4.210959   1.391886   0.000000
    16  N    2.802682   4.141301   5.025977   2.402125   1.333607
    17  N    4.772094   5.956375   7.146888   4.888187   3.957500
    18  H    8.536827   9.390087  10.705483   9.006600   8.307353
    19  H    8.529347   9.418483  10.783554   9.018208   8.272951
    20  H    9.841007  10.780181  12.101767  10.210048   9.365940
    21  H    8.664539   9.791778  11.024721   8.763062   7.710463
    22  H    8.811363   9.907474  11.091920   8.884976   7.872440
    23  H    6.797699   8.007960   9.114538   6.698341   5.582394
    24  H    5.383477   6.432173   7.532786   5.498429   4.725072
    25  H    6.444779   7.315317   8.546867   6.856406   6.243418
    26  H    7.132002   8.149783   9.238398   7.211961   6.371394
    27  H    6.746954   7.844742   9.107905   6.959000   6.021563
    28  H    6.229445   7.019423   8.413089   6.904041   6.392400
    29  H    6.328261   7.100123   8.484474   7.005598   6.508502
    30  H    2.167932   2.563926   3.988728   3.402127   3.823101
    31  H    2.700040   2.088193   1.096916   2.807536   4.139918
    32  H    3.240975   2.012367   1.090034   3.884395   5.265331
    33  H    2.700576   2.088148   1.096911   2.807989   4.141150
    34  H    2.176977   2.751632   2.557289   1.082702   2.141268
    35  H    3.395250   4.578348   4.896911   2.160243   1.085891
    36  Ni   4.861594   6.194323   7.087394   4.383241   3.079548
    37  F    5.855393   7.158679   7.933354   5.229921   3.935996
    38  F    5.840905   7.133507   7.952147   5.290475   4.027724
                   16         17         18         19         20
    16  N    0.000000
    17  N    2.624497   0.000000
    18  H    7.076506   4.858723   0.000000
    19  H    6.959729   4.438808   1.775062   0.000000
    20  H    8.079424   5.628397   1.766074   1.760882   0.000000
    21  H    6.430430   3.991868   3.083597   2.500747   2.506812
    22  H    6.679832   4.562702   2.561147   3.083296   2.448044
    23  H    4.397918   2.513960   3.863199   3.910373   4.298122
    24  H    3.710550   2.749507   3.969280   4.628227   5.229889
    25  H    5.146375   3.567590   2.430610   3.437925   3.995297
    26  H    5.361560   4.004745   3.165243   4.265153   4.257091
    27  H    4.697621   2.104170   3.951226   2.926326   4.139763
    28  H    5.144708   2.970793   4.020486   2.984285   4.712530
    29  H    5.282459   3.210315   2.659067   2.442145   3.898074
    30  H    3.395290   4.052715   7.066693   6.961935   8.414624
    31  H    5.073443   7.325338  10.766497  10.997471  12.199754
    32  H    5.997586   7.961520  11.275616  11.366126  12.723012
    33  H    5.074065   7.314573  11.230064  11.177634  12.529535
    34  H    3.361190   5.922099  10.032301  10.085574  11.244984
    35  H    2.051058   4.514164   8.885301   8.867706   9.842533
    36  Ni   2.068373   2.036504   6.344053   6.115867   6.981497
    37  F    3.238801   3.233608   7.595679   7.032911   7.914249
    38  F    3.256052   3.108842   6.029304   6.244268   6.687631
                   21         22         23         24         25
    21  H    0.000000
    22  H    1.753554   0.000000
    23  H    2.407188   2.411613   0.000000
    24  H    4.300527   3.718508   2.395987   0.000000
    25  H    3.938935   3.227735   3.054049   1.783257   0.000000
    26  H    3.728669   2.508150   2.432909   1.756626   1.769407
    27  H    2.437953   3.662770   2.514340   3.835414   3.853135
    28  H    4.206288   5.080041   4.307132   4.412745   3.886211
    29  H    3.922308   4.164118   3.815885   3.339084   2.296571
    30  H    7.627420   7.861145   6.199079   4.759525   5.260214
    31  H   11.111455  11.027249   9.066736   7.377273   8.494162
    32  H   11.795022  11.853409   9.968616   8.295255   9.162573
    33  H   11.275133  11.466377   9.363653   8.007798   9.120773
    34  H    9.759816   9.838149   7.631837   6.421476   7.832530
    35  H    8.017873   8.153492   5.813305   5.206252   6.852316
    36  Ni   4.938604   5.314507   2.903055   3.381355   4.832409
    37  F    5.602879   6.362341   4.077065   5.133023   6.437861
    38  F    4.776164   4.581363   2.434850   2.832912   4.436071
                   26         27         28         29         30
    26  H    0.000000
    27  H    4.310124   0.000000
    28  H    5.169687   2.369883   0.000000
    29  H    3.835271   2.924863   1.784351   0.000000
    30  H    6.405666   5.654229   4.518371   4.624306   0.000000
    31  H    9.026577   9.359010   8.834002   8.724688   4.474564
    32  H    9.977202   9.853623   8.942422   9.003761   4.448461
    33  H    9.742387   9.268536   8.708367   8.961948   4.482622
    34  H    8.096977   7.996029   7.982647   8.073696   4.325037
    35  H    6.719787   6.496214   7.177075   7.287746   4.907802
    36  Ni   4.577973   3.604475   4.986616   5.134000   5.043219
    37  F    6.157212   4.198698   5.802858   6.383954   6.190110
    38  F    3.556537   4.329316   5.892262   5.512264   6.060136
                   31         32         33         34         35
    31  H    0.000000
    32  H    1.789822   0.000000
    33  H    1.794506   1.789738   0.000000
    34  H    2.347064   3.640862   2.350330   0.000000
    35  H    4.694824   5.982318   4.699150   2.478781   0.000000
    36  Ni   7.080366   8.065867   7.085381   5.220350   3.152688
    37  F    8.036437   8.931908   7.690527   5.922625   3.740920
    38  F    7.716304   8.931847   8.096541   6.019200   3.909751
                   36         37         38
    36  Ni   0.000000
    37  F    1.819657   0.000000
    38  F    1.833093   3.206024   0.000000
 Stoichiometry    C13H18F2N2NiO2(3)
 Framework group  C1[X(C13H18F2N2NiO2)]
 Deg. of freedom   108
 Full point group                 C1      NOp   1
 Largest Abelian subgroup         C1      NOp   1
 Largest concise Abelian subgroup C1      NOp   1
                         Standard orientation:                         
 ---------------------------------------------------------------------
 Center     Atomic      Atomic             Coordinates (Angstroms)
 Number     Number       Type             X           Y           Z
 ---------------------------------------------------------------------
      1          6           0        5.051243   -1.954150    0.164089
      2          6           0        4.587929   -0.511561    0.391779
      3          6           0        3.071343   -0.280433    0.531735
      4          6           0        2.459670   -0.911535    1.786840
      5          6           0        2.300025   -0.627714   -0.769689
      6          6           0        1.888272   -2.109836   -1.013325
      7          8           0        0.449809   -2.156540   -0.718580
      8          6           0        0.075055   -0.875425   -0.618419
      9          6           0       -1.305424   -0.495521   -0.308609
     10          6           0       -2.364978   -1.378403   -0.274437
     11          6           0       -3.630435   -0.884261    0.087512
     12          8           0       -4.631788   -1.775918    0.106728
     13          6           0       -5.932711   -1.319250    0.475530
     14          6           0       -3.755289    0.473681    0.401578
     15          6           0       -2.622289    1.279667    0.338007
     16          7           0       -1.415857    0.830693   -0.010495
     17          7           0        0.980558    0.036279   -0.727491
     18          1           0        4.681744   -2.631443    0.943338
     19          1           0        4.724777   -2.346438   -0.808165
     20          1           0        6.145643   -2.009391    0.175829
     21          1           0        4.960676    0.114515   -0.431608
     22          1           0        5.063625   -0.124527    1.302523
     23          1           0        2.929934    0.800379    0.663941
     24          1           0        1.424443   -0.581635    1.914656
     25          1           0        2.486063   -2.008008    1.778909
     26          1           0        3.009923   -0.572486    2.670901
     27          1           0        2.864008   -0.240389   -1.623932
     28          1           0        2.015418   -2.410207   -2.057673
     29          1           0        2.373605   -2.832796   -0.361492
     30          1           0       -2.230398   -2.427035   -0.512217
     31          1           0       -5.933260   -0.918889    1.496772
     32          1           0       -6.573555   -2.199418    0.422653
     33          1           0       -6.292687   -0.554035   -0.223096
     34          1           0       -4.701035    0.911044    0.695726
     35          1           0       -2.676192    2.336351    0.582286
     36         28           0        0.359372    1.884342   -0.139156
     37          9           0        0.347483    3.117388   -1.477292
     38          9           0        1.122884    2.203959    1.496425
 ---------------------------------------------------------------------
 Rotational constants (GHZ):           0.4681888           0.1851678           0.1487420
 Basis read from rwf:  (6D, 7F)
 Pseudo-potential data read from rwf file.
 There are   398 symmetry adapted cartesian basis functions of A   symmetry.
 There are   395 symmetry adapted basis functions of A   symmetry.
   395 basis functions,   758 primitive gaussians,   398 cartesian basis functions
    82 alpha electrons       80 beta electrons
       nuclear repulsion energy      1875.3977502388 Hartrees.
 NAtoms=   38 NActive=   38 NUniq=   38 SFac= 1.00D+00 NAtFMM=   60 NAOKFM=F Big=F
 Integral buffers will be    131072 words long.
 Raffenetti 2 integral format.
 Two-electron integral symmetry is turned on.
 Nuclear repulsion after empirical dispersion term =     1875.3180773838 Hartrees.
 One-electron integrals computed using PRISM.
 PrsmSu:  requested number of processors reduced to:  12 ShMem   1 Linda.
   1 Symmetry operations used in ECPInt.
 ECPInt:  NShTT=    8911 NPrTT=   52776 LenC2=    7776 LenP2D=   27136.
 LDataN:  DoStor=T MaxTD1= 6 Len=  172
 NBasis=   395 RedAO= T EigKep=  1.12D-06  NBF=   395
 NBsUse=   395 1.00D-06 EigRej= -1.00D+00 NBFU=   395
 Initial guess from the checkpoint file:  "Lig2214_xyz_3.chk"
 B after Tr=     0.000000   -0.000000   -0.000000
         Rot=    0.999970    0.000747   -0.001588   -0.007480 Ang=   0.88 deg.
 Initial guess <Sx>= 0.0000 <Sy>= 0.0000 <Sz>= 1.0000 <S**2>= 2.0078 S= 1.0026
 ExpMin= 2.40D-02 ExpMax= 7.14D+04 ExpMxC= 1.07D+04 IAcc=3 IRadAn=         5 AccDes= 0.00D+00
 Harris functional with IExCor=  402 and IRadAn=       5 diagonalized for initial guess.
 HarFok:  IExCor=  402 AccDes= 0.00D+00 IRadAn=         5 IDoV= 1 UseB2=F ITyADJ=14
 ICtDFT=  3500011 ScaDFX=  1.000000  1.000000  1.000000  1.000000
 FoFCou: FMM=F IPFlag=           0 FMFlag=      100000 FMFlg1=           0
         NFxFlg=           0 DoJE=T BraDBF=F KetDBF=T FulRan=T
         wScrn=  0.000000 ICntrl=       500 IOpCl=  0 I1Cent=   200000004 NGrid=           0
         NMat0=    1 NMatS0=      1 NMatT0=    0 NMatD0=    1 NMtDS0=    0 NMtDT0=    0
 Petite list used in FoFCou.
 Requested convergence on RMS density matrix=1.00D-08 within  32 cycles.
 Requested convergence on MAX density matrix=1.00D-06.
 Requested convergence on             energy=1.00D-06.
 No special actions if energy rises.
 Restarting incremental Fock formation.
 >>>>>>>>>> Convergence criterion not met.
 SCF Done:  E(UB3LYP) =  -1135.37768230     A.U. after   33 cycles
            NFock= 32  Conv=0.69D-07     -V/T= 2.0666
 <Sx>= 0.0000 <Sy>= 0.0000 <Sz>= 1.0000 <S**2>= 2.0090 S= 1.0030
 <L.S>=  0.00000000000    
 Annihilation of the first spin contaminant:
 S**2 before annihilation     2.0090,   after     2.0000
 SCF Done:  E(UB3LYP) =  -1135.37768230     a.u. after    1 cycles
            Convg  =    0.4985D-06                     1 Fock formations.
              S**2 =  2.0090                  -V/T =  2.0666
 <Sx>= 0.0000 <Sy>= 0.0000 <Sz>= 1.0000 <S**2>= 2.0090 S= 1.0030
 <L.S>=  0.00000000000    
 Annihilation of the first spin contaminant:
 S**2 before annihilation     2.0090,   after     2.0000
 PrsmSu:  requested number of processors reduced to:  13 ShMem   1 Linda.
   1 Symmetry operations used in ECPInt.
 ECPInt:  NShTT=    8911 NPrTT=   52776 LenC2=    7776 LenP2D=   27136.
 LDataN:  DoStor=T MaxTD1= 7 Len=  274
 Calling FoFJK, ICntrl=      2127 FMM=F ISym2X=0 I1Cent= 0 IOpClX= 1 NMat=1 NMatS=1 NMatT=0.
 ***** Axes restored to original set *****
 -------------------------------------------------------------------
 Center     Atomic                   Forces (Hartrees/Bohr)
 Number     Number              X              Y              Z
 -------------------------------------------------------------------
      1        6          -0.000393534   -0.000618342    0.000403476
      2        6          -0.000120165    0.000388145    0.000422467
      3        6           0.001548659    0.001690483   -0.000413826
      4        6          -0.000453363   -0.000883702    0.001035710
      5        6           0.002418479   -0.001808696   -0.000858716
      6        6          -0.001672735    0.001730822   -0.000462693
      7        8          -0.000748421    0.001207672   -0.000391335
      8        6           0.000253099    0.010511299   -0.002545557
      9        6           0.000647268    0.004202096   -0.003585127
     10        6           0.000099244   -0.000495144    0.000092208
     11        6          -0.001224224    0.001426147   -0.000119212
     12        8           0.000672090   -0.002118002    0.000743113
     13        6           0.000290038   -0.000626999    0.000239768
     14        6           0.000714427   -0.000620170   -0.000103442
     15        6           0.000417557    0.004136746   -0.001463900
     16        7          -0.000703836   -0.004935457    0.002002873
     17        7          -0.002630068   -0.007395589   -0.001575625
     18        1           0.000224891    0.000280898    0.000151645
     19        1           0.000245876   -0.000212542   -0.000487202
     20        1           0.000152181   -0.000291686    0.000165189
     21        1           0.000047173   -0.000472696   -0.000306728
     22        1           0.000197762   -0.000323010    0.000486140
     23        1           0.000747376   -0.000297995    0.001059744
     24        1           0.000106193    0.000548705    0.000034379
     25        1           0.000135149    0.000003278    0.000067586
     26        1          -0.000066507   -0.000101773    0.000455405
     27        1           0.000532988   -0.000199510    0.000050366
     28        1           0.000328204   -0.000433959   -0.000506281
     29        1           0.000034907   -0.000609717   -0.000702530
     30        1           0.000327632    0.000079324   -0.000116667
     31        1          -0.000051865   -0.000184931    0.000668015
     32        1           0.000602173    0.000086751   -0.000336053
     33        1          -0.000409413   -0.000562112   -0.000078631
     34        1          -0.000502089    0.000394831    0.000056128
     35        1           0.000316243   -0.000256874    0.000457542
     36       28           0.001247668    0.005437287    0.000516110
     37        9           0.001145475   -0.003105167    0.003578628
     38        9          -0.004476533   -0.005570412    0.001367033
 -------------------------------------------------------------------
 Cartesian Forces:  Max     0.010511299 RMS     0.001904564

 GradGradGradGradGradGradGradGradGradGradGradGradGradGradGradGradGradGrad
 Berny optimization.
 Using GEDIIS/GDIIS optimizer.
 FormGI is forming the generalized inverse of G from B-inverse, IUseBI=4.
 Internal  Forces:  Max     0.008828375 RMS     0.001456254
 Search for a local minimum.
 Step number   4 out of a maximum of  228
 All quantities printed in internal units (Hartrees-Bohrs-Radians)
 Mixed Optimization -- RFO/linear search
 Update second derivatives using D2CorX and points    2    3    4
 DE= -4.69D-03 DEPred=-4.02D-03 R= 1.17D+00
 TightC=F SS=  1.41D+00  RLast= 3.49D-01 DXNew= 1.4270D+00 1.0459D+00
 Trust test= 1.17D+00 RLast= 3.49D-01 DXMaxT set to 1.05D+00
 ITU=  1  1  1  0
 Use linear search instead of GDIIS.
     Eigenvalues ---    0.00230   0.00230   0.00233   0.00253   0.00704
     Eigenvalues ---    0.01380   0.01738   0.01973   0.01983   0.02007
     Eigenvalues ---    0.02022   0.02045   0.02125   0.02189   0.02225
     Eigenvalues ---    0.02261   0.02922   0.03020   0.03044   0.03100
     Eigenvalues ---    0.03551   0.03753   0.04604   0.04661   0.04791
     Eigenvalues ---    0.04935   0.05146   0.05198   0.05296   0.05476
     Eigenvalues ---    0.05597   0.05664   0.06636   0.06851   0.09018
     Eigenvalues ---    0.10093   0.10159   0.10472   0.10717   0.10783
     Eigenvalues ---    0.11428   0.12692   0.13048   0.13699   0.15895
     Eigenvalues ---    0.15999   0.16000   0.16000   0.16000   0.16000
     Eigenvalues ---    0.16000   0.16000   0.16000   0.16000   0.16019
     Eigenvalues ---    0.16186   0.17922   0.18115   0.18509   0.19795
     Eigenvalues ---    0.19850   0.20389   0.21285   0.21852   0.22301
     Eigenvalues ---    0.22705   0.23571   0.24345   0.24493   0.24917
     Eigenvalues ---    0.25057   0.26521   0.27147   0.27480   0.27761
     Eigenvalues ---    0.28627   0.30291   0.34391   0.34530   0.34592
     Eigenvalues ---    0.34615   0.34626   0.34647   0.34679   0.34699
     Eigenvalues ---    0.34742   0.34747   0.34782   0.34802   0.34820
     Eigenvalues ---    0.34874   0.34903   0.35585   0.35807   0.36073
     Eigenvalues ---    0.36177   0.37427   0.40279   0.41011   0.42122
     Eigenvalues ---    0.42491   0.44976   0.46315   0.48312   0.49456
     Eigenvalues ---    0.50203   0.54199   0.68227
 RFO step:  Lambda=-2.76405511D-03 EMin= 2.29802849D-03
 Quartic linear search produced a step of -0.01664.
 Iteration  1 RMS(Cart)=  0.06429812 RMS(Int)=  0.00118915
 Iteration  2 RMS(Cart)=  0.00211929 RMS(Int)=  0.00003322
 Iteration  3 RMS(Cart)=  0.00000113 RMS(Int)=  0.00003321
 Iteration  4 RMS(Cart)=  0.00000000 RMS(Int)=  0.00003321
 Variable       Old X    -DE/DX   Delta X   Delta X   Delta X     New X
                                 (Linear)    (Quad)   (Total)
    R1        2.89540   0.00031  -0.00007   0.00118   0.00111   2.89650
    R2        2.07223  -0.00036   0.00007  -0.00144  -0.00137   2.07086
    R3        2.07504  -0.00042   0.00009  -0.00163  -0.00154   2.07350
    R4        2.07087  -0.00031   0.00006  -0.00121  -0.00115   2.06972
    R5        2.91106  -0.00093  -0.00016  -0.00206  -0.00223   2.90884
    R6        2.07774  -0.00055   0.00009  -0.00203  -0.00195   2.07579
    R7        2.07486  -0.00057   0.00006  -0.00187  -0.00180   2.07306
    R8        2.89549  -0.00044  -0.00023   0.00041   0.00017   2.89566
    R9        2.93318  -0.00380  -0.00040  -0.00911  -0.00951   2.92367
   R10        2.07494  -0.00018   0.00010  -0.00171  -0.00161   2.07333
   R11        2.06739  -0.00012   0.00005  -0.00090  -0.00085   2.06654
   R12        2.07269  -0.00004   0.00009  -0.00077  -0.00068   2.07201
   R13        2.06948  -0.00043   0.00003  -0.00113  -0.00110   2.06838
   R14        2.94311  -0.00256   0.00016  -0.00884  -0.00869   2.93443
   R15        2.79249  -0.00372   0.00037  -0.00929  -0.00891   2.78358
   R16        2.06822  -0.00021   0.00002  -0.00075  -0.00073   2.06749
   R17        2.77618  -0.00136   0.00019   0.00231   0.00250   2.77868
   R18        2.06755  -0.00063   0.00005  -0.00260  -0.00255   2.06500
   R19        2.05547   0.00048   0.00001   0.00094   0.00095   2.05641
   R20        2.52950   0.00075  -0.00018  -0.00001  -0.00019   2.52932
   R21        2.76832   0.00183  -0.00053   0.00972   0.00918   2.77750
   R22        2.43697  -0.00883   0.00025  -0.01514  -0.01490   2.42206
   R23        2.60707   0.00121  -0.00013   0.00234   0.00221   2.60928
   R24        2.57718  -0.00429   0.00004  -0.01053  -0.01047   2.56672
   R25        2.65677   0.00052   0.00003   0.00210   0.00212   2.65889
   R26        2.04779  -0.00032   0.00004  -0.00111  -0.00107   2.04672
   R27        2.53402   0.00377  -0.00021   0.00619   0.00598   2.54000
   R28        2.64442   0.00155  -0.00006   0.00348   0.00342   2.64784
   R29        2.69706   0.00079   0.00003   0.00265   0.00268   2.69974
   R30        2.07287  -0.00065   0.00007  -0.00235  -0.00228   2.07059
   R31        2.05986  -0.00023   0.00002  -0.00102  -0.00100   2.05886
   R32        2.07286  -0.00065   0.00006  -0.00232  -0.00225   2.07061
   R33        2.63028   0.00159  -0.00006   0.00437   0.00431   2.63459
   R34        2.04601  -0.00060  -0.00000  -0.00115  -0.00116   2.04485
   R35        2.52015  -0.00045  -0.00012  -0.00106  -0.00116   2.51899
   R36        2.05204  -0.00022   0.00002  -0.00047  -0.00045   2.05159
   R37        3.90866  -0.00204   0.00131   0.00950   0.01083   3.91949
   R38        3.84843  -0.00451   0.00139  -0.00926  -0.00788   3.84056
   R39        3.43865  -0.00042  -0.00007  -0.00952  -0.00958   3.42907
   R40        3.46404   0.00021  -0.00000  -0.00505  -0.00505   3.45899
    A1        1.95415  -0.00018  -0.00002  -0.00133  -0.00136   1.95279
    A2        1.95847  -0.00032   0.00000  -0.00205  -0.00205   1.95642
    A3        1.92608   0.00045   0.00003   0.00357   0.00360   1.92968
    A4        1.88427   0.00003  -0.00009  -0.00148  -0.00158   1.88269
    A5        1.87314  -0.00003   0.00005   0.00043   0.00048   1.87362
    A6        1.86334   0.00006   0.00003   0.00099   0.00103   1.86437
    A7        2.04033  -0.00228  -0.00009  -0.00993  -0.01001   2.03031
    A8        1.89898   0.00080   0.00010   0.00259   0.00269   1.90168
    A9        1.90090   0.00068   0.00012   0.00122   0.00135   1.90226
   A10        1.89269   0.00060  -0.00011   0.00272   0.00260   1.89529
   A11        1.87369   0.00064  -0.00032   0.00472   0.00439   1.87808
   A12        1.84791  -0.00028   0.00034  -0.00055  -0.00022   1.84769
   A13        1.98847   0.00051  -0.00000  -0.00287  -0.00301   1.98546
   A14        1.96003  -0.00049  -0.00040  -0.00826  -0.00876   1.95127
   A15        1.86024   0.00072   0.00121   0.01012   0.01136   1.87159
   A16        1.97826  -0.00099  -0.00074  -0.00922  -0.01005   1.96821
   A17        1.82905   0.00025   0.00033   0.00711   0.00748   1.83653
   A18        1.83091   0.00017  -0.00027   0.00701   0.00679   1.83770
   A19        1.92757  -0.00068  -0.00010  -0.00454  -0.00464   1.92293
   A20        1.97820   0.00010   0.00012   0.00009   0.00020   1.97840
   A21        1.91045   0.00010  -0.00028   0.00330   0.00302   1.91347
   A22        1.90188   0.00031   0.00017   0.00117   0.00134   1.90322
   A23        1.86271   0.00023   0.00002   0.00047   0.00049   1.86320
   A24        1.87889  -0.00003   0.00007  -0.00035  -0.00028   1.87862
   A25        2.06628  -0.00115   0.00002  -0.01080  -0.01079   2.05549
   A26        1.89572  -0.00067  -0.00074   0.00154   0.00082   1.89654
   A27        1.89566   0.00083  -0.00011   0.00700   0.00688   1.90254
   A28        1.76808   0.00104   0.00007   0.00437   0.00444   1.77252
   A29        1.92935  -0.00006   0.00022   0.00033   0.00059   1.92994
   A30        1.90011   0.00004   0.00057  -0.00247  -0.00192   1.89819
   A31        1.83147  -0.00233   0.00009  -0.00541  -0.00536   1.82612
   A32        1.96044   0.00049   0.00027   0.00168   0.00194   1.96238
   A33        2.00514   0.00061   0.00003   0.00162   0.00165   2.00678
   A34        1.87189   0.00041  -0.00027  -0.00103  -0.00127   1.87062
   A35        1.87081   0.00076  -0.00048  -0.00141  -0.00189   1.86892
   A36        1.91526  -0.00002   0.00027   0.00370   0.00397   1.91923
   A37        1.83249   0.00038  -0.00011   0.00346   0.00331   1.83580
   A38        2.12687  -0.00128  -0.00025  -0.00072  -0.00094   2.12593
   A39        2.06431  -0.00042   0.00034  -0.00432  -0.00398   2.06033
   A40        2.09005   0.00167  -0.00020   0.00493   0.00474   2.09479
   A41        2.16883  -0.00020  -0.00020   0.00149   0.00128   2.17011
   A42        1.95489   0.00113  -0.00018   0.00535   0.00519   1.96008
   A43        2.15882  -0.00094   0.00038  -0.00688  -0.00651   2.15231
   A44        2.06319   0.00058  -0.00003   0.00224   0.00220   2.06539
   A45        2.11585  -0.00014  -0.00001  -0.00013  -0.00013   2.11572
   A46        2.10412  -0.00045   0.00004  -0.00210  -0.00206   2.10206
   A47        2.02877  -0.00037  -0.00011  -0.00002  -0.00012   2.02865
   A48        2.07049  -0.00084  -0.00014  -0.00135  -0.00150   2.06899
   A49        2.18391   0.00121   0.00025   0.00137   0.00163   2.18554
   A50        2.06191   0.00245   0.00031   0.00377   0.00409   2.06600
   A51        1.93673   0.00004  -0.00001  -0.00051  -0.00053   1.93620
   A52        1.83899   0.00087  -0.00057   0.00927   0.00870   1.84769
   A53        1.93667   0.00005  -0.00002  -0.00044  -0.00046   1.93621
   A54        1.91727  -0.00048   0.00023  -0.00360  -0.00338   1.91389
   A55        1.91578   0.00001   0.00012  -0.00093  -0.00081   1.91497
   A56        1.91714  -0.00048   0.00023  -0.00358  -0.00336   1.91378
   A57        2.07036  -0.00003  -0.00008   0.00151   0.00143   2.07179
   A58        2.13047   0.00025   0.00009   0.00027   0.00037   2.13083
   A59        2.08235  -0.00022  -0.00001  -0.00178  -0.00179   2.08056
   A60        2.15720  -0.00166   0.00047  -0.00980  -0.00932   2.14788
   A61        2.10925   0.00040  -0.00005  -0.00052  -0.00058   2.10867
   A62        2.01673   0.00126  -0.00042   0.01034   0.00991   2.02664
   A63        2.04627   0.00289  -0.00059   0.01428   0.01369   2.05997
   A64        1.99575  -0.00347   0.00073  -0.01257  -0.01181   1.98394
   A65        2.24105   0.00058  -0.00013  -0.00169  -0.00186   2.23919
   A66        1.88779   0.00150  -0.00023   0.00555   0.00533   1.89312
   A67        2.33003  -0.00003  -0.00032  -0.00185  -0.00219   2.32784
   A68        1.98553  -0.00145   0.00068  -0.00541  -0.00471   1.98081
   A69        1.38726   0.00216  -0.00098   0.00732   0.00627   1.39354
   A70        1.96636  -0.00303   0.00010  -0.02301  -0.02291   1.94345
   A71        1.97230  -0.00307  -0.00012  -0.01652  -0.01687   1.95543
   A72        1.98720  -0.00095  -0.00006  -0.00208  -0.00210   1.98509
   A73        1.86392  -0.00598   0.00003  -0.05602  -0.05612   1.80780
   A74        2.14208   0.00795   0.00045   0.06304   0.06356   2.20564
    D1       -0.96216   0.00012   0.00006  -0.00685  -0.00679  -0.96896
    D2       -3.11236   0.00034   0.00019  -0.00532  -0.00513  -3.11748
    D3        1.16419  -0.00012  -0.00034  -0.00671  -0.00704   1.15715
    D4        1.15998  -0.00021  -0.00007  -0.01124  -0.01131   1.14868
    D5       -0.99021   0.00001   0.00006  -0.00970  -0.00964  -0.99985
    D6       -2.99684  -0.00045  -0.00047  -0.01109  -0.01156  -3.00840
    D7       -3.04745  -0.00003  -0.00001  -0.00892  -0.00893  -3.05638
    D8        1.08554   0.00019   0.00013  -0.00739  -0.00726   1.07828
    D9       -0.92109  -0.00027  -0.00040  -0.00878  -0.00918  -0.93027
   D10        1.15546  -0.00079  -0.00083  -0.00377  -0.00460   1.15087
   D11       -1.12374   0.00062   0.00055   0.01979   0.02033  -1.10341
   D12       -3.11940   0.00024   0.00039   0.00972   0.01011  -3.10929
   D13       -2.97430  -0.00090  -0.00086  -0.00533  -0.00618  -2.98048
   D14        1.02968   0.00050   0.00053   0.01823   0.01874   1.04842
   D15       -0.96598   0.00013   0.00036   0.00816   0.00852  -0.95745
   D16       -0.98503  -0.00061  -0.00068  -0.00226  -0.00292  -0.98795
   D17        3.01895   0.00079   0.00071   0.02130   0.02200   3.04096
   D18        1.02330   0.00042   0.00054   0.01123   0.01178   1.03508
   D19        2.98342   0.00067   0.00087  -0.01371  -0.01285   2.97056
   D20       -1.16009   0.00064   0.00110  -0.01553  -0.01443  -1.17453
   D21        0.93751   0.00074   0.00107  -0.01359  -0.01252   0.92499
   D22       -1.02960  -0.00050  -0.00034  -0.03700  -0.03734  -1.06694
   D23        1.11007  -0.00053  -0.00011  -0.03882  -0.03892   1.07115
   D24       -3.07551  -0.00043  -0.00014  -0.03688  -0.03700  -3.11251
   D25        0.95680  -0.00061  -0.00083  -0.02890  -0.02974   0.92706
   D26        3.09647  -0.00065  -0.00060  -0.03072  -0.03132   3.06515
   D27       -1.08910  -0.00055  -0.00063  -0.02878  -0.02941  -1.11851
   D28        1.47588  -0.00093  -0.00066  -0.07969  -0.08032   1.39556
   D29       -2.80619  -0.00080  -0.00110  -0.07956  -0.08063  -2.88682
   D30       -0.74209  -0.00067  -0.00090  -0.07770  -0.07857  -0.82066
   D31       -0.80852  -0.00030   0.00031  -0.05950  -0.05923  -0.86775
   D32        1.19260  -0.00017  -0.00013  -0.05937  -0.05954   1.13306
   D33       -3.02649  -0.00003   0.00007  -0.05752  -0.05748  -3.08396
   D34       -2.79380  -0.00022   0.00041  -0.06766  -0.06724  -2.86104
   D35       -0.79268  -0.00009  -0.00003  -0.06753  -0.06755  -0.86023
   D36        1.27142   0.00005   0.00018  -0.06567  -0.06548   1.20593
   D37        1.81185   0.00003  -0.00036   0.01232   0.01193   1.82378
   D38       -2.44344  -0.00060  -0.00049   0.00874   0.00823  -2.43521
   D39       -0.23798   0.00032   0.00016   0.01675   0.01691  -0.22107
   D40       -0.25742   0.00072   0.00050   0.01286   0.01334  -0.24408
   D41        1.77047   0.00008   0.00037   0.00928   0.00964   1.78011
   D42       -2.30724   0.00100   0.00102   0.01729   0.01831  -2.28893
   D43       -2.26950   0.00017  -0.00028   0.01332   0.01302  -2.25647
   D44       -0.24160  -0.00047  -0.00041   0.00974   0.00932  -0.23228
   D45        1.96387   0.00045   0.00024   0.01775   0.01800   1.98186
   D46       -1.95400   0.00088  -0.00052   0.00238   0.00184  -1.95216
   D47        0.72739   0.00068   0.00004  -0.00316  -0.00313   0.72426
   D48        0.23426  -0.00020  -0.00080  -0.00699  -0.00783   0.22643
   D49        2.91565  -0.00040  -0.00024  -0.01253  -0.01280   2.90285
   D50        2.26791   0.00024  -0.00027  -0.00548  -0.00578   2.26212
   D51       -1.33389   0.00005   0.00029  -0.01103  -0.01075  -1.34464
   D52        0.19748  -0.00048  -0.00010  -0.01255  -0.01264   0.18484
   D53       -1.89057  -0.00005  -0.00032  -0.01123  -0.01155  -1.90212
   D54        2.33683  -0.00064  -0.00026  -0.01429  -0.01455   2.32227
   D55       -3.12642   0.00042   0.00068   0.00949   0.01014  -3.11628
   D56       -0.05221  -0.00014  -0.00046   0.00771   0.00728  -0.04493
   D57       -0.16136  -0.00052  -0.00070  -0.00565  -0.00636  -0.16772
   D58        2.94285  -0.00094  -0.00056  -0.00699  -0.00755   2.93531
   D59        3.04859   0.00013   0.00041  -0.00349  -0.00311   3.04548
   D60       -0.13038  -0.00029   0.00055  -0.00483  -0.00430  -0.13468
   D61       -0.12899   0.00039   0.00085   0.00060   0.00143  -0.12756
   D62       -2.91088   0.00032   0.00065   0.00457   0.00520  -2.90568
   D63        2.94668  -0.00027  -0.00027  -0.00136  -0.00160   2.94508
   D64        0.16479  -0.00035  -0.00047   0.00261   0.00218   0.16697
   D65        3.10032  -0.00036   0.00030  -0.00164  -0.00130   3.09902
   D66       -0.03374  -0.00037   0.00013  -0.00311  -0.00296  -0.03669
   D67        0.00038   0.00006   0.00016  -0.00042  -0.00026   0.00013
   D68       -3.13368   0.00005  -0.00001  -0.00189  -0.00191  -3.13559
   D69       -3.09834   0.00047  -0.00036   0.00190   0.00150  -3.09685
   D70        0.02848   0.00035  -0.00027   0.00328   0.00297   0.03144
   D71        0.00612   0.00008  -0.00024   0.00077   0.00052   0.00664
   D72        3.13294  -0.00004  -0.00015   0.00216   0.00198   3.13493
   D73        3.14063  -0.00010  -0.00010  -0.00210  -0.00221   3.13842
   D74       -0.00537  -0.00011  -0.00001  -0.00041  -0.00042  -0.00579
   D75       -0.00844  -0.00009   0.00007  -0.00064  -0.00056  -0.00900
   D76        3.12875  -0.00010   0.00016   0.00105   0.00123   3.12997
   D77        3.13595   0.00004   0.00008   0.00295   0.00303   3.13898
   D78       -0.00092   0.00005  -0.00002   0.00114   0.00111   0.00020
   D79        0.00388   0.00005  -0.00004   0.00091   0.00087   0.00475
   D80       -3.13200   0.00000  -0.00016  -0.00118  -0.00134  -3.13334
   D81        3.14064   0.00003   0.00006   0.00276   0.00283  -3.13972
   D82        0.00476  -0.00001  -0.00005   0.00067   0.00062   0.00538
   D83       -1.06669  -0.00005  -0.00005  -0.00015  -0.00021  -1.06690
   D84       -3.14093  -0.00001   0.00001  -0.00105  -0.00104   3.14121
   D85        1.06819   0.00002   0.00008  -0.00200  -0.00192   1.06627
   D86        0.00291   0.00007  -0.00005  -0.00069  -0.00074   0.00217
   D87       -3.13250  -0.00017  -0.00034  -0.00478  -0.00511  -3.13760
   D88        3.13895   0.00011   0.00006   0.00136   0.00141   3.14036
   D89        0.00354  -0.00013  -0.00023  -0.00273  -0.00295   0.00059
   D90       -0.00779  -0.00014   0.00018  -0.00019   0.00001  -0.00778
   D91       -3.13221   0.00004   0.00007  -0.00173  -0.00164  -3.13385
   D92        3.12792   0.00009   0.00046   0.00367   0.00415   3.13207
   D93        0.00350   0.00027   0.00035   0.00214   0.00250   0.00600
   D94        0.03901  -0.00054   0.00003  -0.00188  -0.00181   0.03721
   D95        1.98698  -0.00066  -0.00041  -0.00059  -0.00098   1.98600
   D96       -1.77462   0.00487   0.00036   0.05488   0.05515  -1.71947
   D97       -3.11934  -0.00066   0.00013  -0.00016  -0.00001  -3.11935
   D98       -1.17137  -0.00078  -0.00031   0.00113   0.00082  -1.17055
   D99        1.35021   0.00475   0.00046   0.05660   0.05695   1.40716
   D100      -2.77141   0.00000  -0.00015   0.00310   0.00288  -2.76853
   D101       1.58722   0.00242   0.00012   0.02525   0.02533   1.61255
   D102      -0.83324  -0.00217  -0.00051  -0.00773  -0.00810  -0.84135
   D103      -0.10904   0.00038   0.00025  -0.00053  -0.00032  -0.10936
   D104      -2.03360   0.00280   0.00052   0.02162   0.02213  -2.01147
   D105       1.82913  -0.00179  -0.00011  -0.01136  -0.01131   1.81782
         Item               Value     Threshold  Converged?
 Maximum Force            0.008828     0.000450     NO 
 RMS     Force            0.001456     0.000300     NO 
 Maximum Displacement     0.346359     0.001800     NO 
 RMS     Displacement     0.064606     0.001200     NO 
 Predicted change in Energy=-1.480087D-03
 GradGradGradGradGradGradGradGradGradGradGradGradGradGradGradGradGradGrad

                          Input orientation:                          
 ---------------------------------------------------------------------
 Center     Atomic      Atomic             Coordinates (Angstroms)
 Number     Number       Type             X           Y           Z
 ---------------------------------------------------------------------
      1          6           0       -5.990926    1.446199   -2.576071
      2          6           0       -4.859074    2.202056   -3.281023
      3          6           0       -3.479873    1.518530   -3.283878
      4          6           0       -3.437419    0.217311   -4.091977
      5          6           0       -2.917825    1.352765   -1.852001
      6          6           0       -3.450466    0.170243   -0.998057
      7          8           0       -2.361842   -0.818095   -1.012374
      8          6           0       -1.314296   -0.178088   -1.545764
      9          6           0       -0.024255   -0.848773   -1.760855
     10          6           0        0.292393   -2.102140   -1.275739
     11          6           0        1.548181   -2.646741   -1.601507
     12          8           0        1.813754   -3.866866   -1.104119
     13          6           0        3.074933   -4.464638   -1.409253
     14          6           0        2.414707   -1.896398   -2.407368
     15          6           0        2.000067   -0.640368   -2.848009
     16          7           0        0.815142   -0.115091   -2.536715
     17          7           0       -1.483817    1.028625   -1.943085
     18          1           0       -6.119273    0.434921   -2.978238
     19          1           0       -5.819222    1.359665   -1.495800
     20          1           0       -6.943048    1.972062   -2.704532
     21          1           0       -4.756223    3.196387   -2.825674
     22          1           0       -5.144081    2.378579   -4.325557
     23          1           0       -2.782326    2.196098   -3.791907
     24          1           0       -2.404695   -0.125439   -4.201009
     25          1           0       -4.037006   -0.587893   -3.651106
     26          1           0       -3.817815    0.399104   -5.102061
     27          1           0       -3.031314    2.298066   -1.313009
     28          1           0       -3.617824    0.450969    0.044673
     29          1           0       -4.334955   -0.322683   -1.396677
     30          1           0       -0.405647   -2.660134   -0.663826
     31          1           0        3.190020   -4.606047   -2.489686
     32          1           0        3.073678   -5.433475   -0.910887
     33          1           0        3.900407   -3.854307   -1.026256
     34          1           0        3.390248   -2.262747   -2.698964
     35          1           0        2.642396   -0.031567   -3.476830
     36         28           0        0.031819    1.718416   -3.108170
     37          9           0        0.956523    3.092103   -2.366129
     38          9           0       -0.668849    1.669191   -4.798459
 ---------------------------------------------------------------------
                    Distance matrix (angstroms):
                    1          2          3          4          5
     1  C    0.000000
     2  C    1.532764   0.000000
     3  C    2.609906   1.539290   0.000000
     4  C    3.213804   2.572540   1.532318   0.000000
     5  C    3.158632   2.555748   1.547141   2.564513   0.000000
     6  C    3.251481   3.365171   2.654001   3.094306   1.552831
     7  O    4.554386   4.528162   3.445220   3.422410   2.393058
     8  C    5.056749   4.608868   3.254117   3.338741   2.237990
     9  C    6.444582   5.915568   4.457019   4.268530   3.637008
    10  C    7.332235   7.006060   5.601059   5.217523   4.751205
    11  C    8.633659   8.208808   6.742491   6.265895   6.000334
    12  O    9.555540   9.278867   7.859792   7.292641   7.084612
    13  C   10.885277  10.530755   9.070722   8.457445   8.363693
    14  C    9.047435   8.394552   6.868484   6.446166   6.269083
    15  C    8.263394   7.437385   5.905977   5.643520   5.399099
    16  N    6.982960   6.174131   4.655547   4.540220   4.069211
    17  N    4.570456   3.815675   2.453970   3.015382   1.473005
    18  H    1.095853   2.191470   2.869505   2.912063   3.515695
    19  H    1.097249   2.195114   2.948731   3.703795   2.923188
    20  H    1.095249   2.174439   3.540468   4.158556   4.160860
    21  H    2.156374   1.098461   2.157365   3.495377   2.779692
    22  H    2.155732   1.097014   2.143448   2.763754   3.482383
    23  H    3.512224   2.138673   1.097161   2.105893   2.119624
    24  H    4.239283   3.505365   2.167896   1.093565   2.822451
    25  H    3.018449   2.931991   2.209587   1.096461   2.873239
    26  H    3.492770   2.766050   2.161738   1.094540   3.504617
    27  H    3.328709   2.687565   2.166380   3.495300   1.094068
    28  H    3.672927   3.958189   3.498280   4.147169   2.213731
    29  H    2.694839   3.193707   2.771779   2.891679   2.241139
    30  H    7.191244   7.093915   5.811779   5.405881   4.881205
    31  H   10.996677  10.571868   9.090030   8.351950   8.556860
    32  H   11.500861  11.262657   9.844313   9.189402   9.101476
    33  H   11.328538  10.885404   9.403870   8.934227   8.618802
    34  H   10.088499   9.398115   7.863761   7.396500   7.319908
    35  H    8.805078   7.829397   6.318402   6.115921   5.955879
    36  Ni   6.052329   4.917787   3.521762   3.905996   3.226773
    37  F    7.142838   5.954023   4.795832   5.527179   4.277873
    38  F    5.771761   4.488267   3.196640   3.205004   3.720165
                    6          7          8          9         10
     6  C    0.000000
     7  O    1.470415   0.000000
     8  C    2.232608   1.338457   0.000000
     9  C    3.655020   2.454684   1.469792   0.000000
    10  C    4.387462   2.960252   2.521178   1.380772   0.000000
    11  C    5.769404   4.356524   3.780361   2.393875   1.407025
    12  O    6.634871   5.170979   4.856628   3.594227   2.336290
    13  C    8.014489   6.558453   6.136650   4.775256   3.652636
    14  C    6.376317   5.091578   4.195285   2.732039   2.413945
    15  C    5.812720   4.735757   3.590898   2.307210   2.743166
    16  N    4.543599   3.593196   2.349566   1.358247   2.410745
    17  N    2.344697   2.246671   1.281701   2.384985   3.660870
    18  H    3.333722   4.421873   5.051293   6.346584   7.102439
    19  H    2.696939   4.114586   4.760414   6.207181   7.027401
    20  H    4.284476   5.624573   6.135856   7.531091   8.425685
    21  H    3.768651   5.013700   4.987195   6.315749   7.480990
    22  H    4.337895   5.379291   5.378759   6.573136   7.676815
    23  H    3.515124   4.121647   3.582880   4.582943   5.853191
    24  H    3.382302   3.263282   2.870901   3.484833   4.442841
    25  H    2.820899   3.134019   3.466058   4.443341   5.165173
    26  H    4.126762   4.508544   4.387255   5.206913   6.147419
    27  H    2.191463   3.201411   3.022195   4.375564   5.514547
    28  H    1.092749   2.074937   2.869049   4.226464   4.853004
    29  H    1.088208   2.070338   3.027790   4.357927   4.959177
    30  H    4.170571   2.709481   2.786397   2.151734   1.083076
    31  H    8.314683   6.881438   6.386444   4.997986   4.017394
    32  H    8.600797   7.131403   6.875790   5.598136   4.355050
    33  H    8.380521   6.959493   6.401375   4.997584   4.018718
    34  H    7.457070   6.165885   5.273368   3.812899   3.412927
    35  H    6.580882   5.633344   4.405212   3.274664   3.828131
    36  Ni   4.356113   4.068890   2.801761   2.899804   4.245274
    37  F    5.461725   5.304135   4.064944   4.105946   5.348849
    38  F    4.942397   4.836037   3.795927   3.997835   5.249426
                   11         12         13         14         15
    11  C    0.000000
    12  O    1.344109   0.000000
    13  C    2.381739   1.428639   0.000000
    14  C    1.401176   2.437693   2.833371   0.000000
    15  C    2.404891   3.672350   4.224973   1.394167   0.000000
    16  N    2.796643   4.138282   5.029552   2.397581   1.332992
    17  N    4.776820   5.961852   7.158430   4.895898   3.967603
    18  H    8.377462   9.216866  10.535692   8.865086   8.191269
    19  H    8.386960   9.259178  10.631838   8.901151   8.183513
    20  H    9.728873  10.645937  11.977846  10.130196   9.317976
    21  H    8.682525   9.798872  11.046473   8.805321   7.769726
    22  H    8.801174   9.889121  11.085425   8.893265   7.895318
    23  H    6.855963   8.068934   9.184221   6.758300   5.639837
    24  H    5.360933   6.433065   7.526545   5.438757   4.636560
    25  H    6.295556   7.174274   8.404447   6.699528   6.090482
    26  H    7.094009   8.117673   9.208843   7.167637   6.325267
    27  H    6.745822   7.843769   9.112062   6.960625   6.025397
    28  H    6.244463   7.033169   8.430307   6.921999   6.412435
    29  H    6.328862   7.103059   8.488956   7.004000   6.506903
    30  H    2.167226   2.564333   3.990781   3.402592   3.825907
    31  H    2.706173   2.088131   1.095708   2.819589   4.155838
    32  H    3.251151   2.019656   1.089502   3.896743   5.280052
    33  H    2.705937   2.088143   1.095719   2.819252   4.154453
    34  H    2.178319   2.757184   2.571207   1.082090   2.141712
    35  H    3.399012   4.585404   4.910610   2.161756   1.085653
    36  Ni   4.860451   6.195715   7.097677   4.385905   3.083107
    37  F    5.819711   7.124238   7.906176   5.197418   3.905449
    38  F    5.810593   7.103478   7.945218   5.285741   4.032547
                   16         17         18         19         20
    16  N    0.000000
    17  N    2.635469   0.000000
    18  H    6.970191   4.786593   0.000000
    19  H    6.875550   4.370971   1.772795   0.000000
    20  H    8.035787   5.592233   1.765310   1.760411   0.000000
    21  H    6.487641   4.023282   3.083321   2.504412   2.509153
    22  H    6.703035   4.571223   2.558139   3.082454   2.455455
    23  H    4.456329   2.543080   3.859924   3.898008   4.306296
    24  H    3.624545   2.697795   3.950603   4.602465   5.218774
    25  H    5.000875   3.471202   2.415520   3.408023   3.986784
    26  H    5.320684   3.977809   3.131871   4.234787   4.241394
    27  H    4.702765   2.098385   3.972377   2.947277   4.164646
    28  H    5.160927   2.973021   3.923709   2.836360   4.574818
    29  H    5.278852   3.202122   2.501817   2.245700   3.711939
    30  H    3.387519   4.050420   6.897926   6.793950   8.267970
    31  H    5.080447   7.341189  10.597781  10.850989  12.082911
    32  H    6.002459   7.974644  11.100557  11.205916  12.585465
    33  H    5.077607   7.326219  11.072565  11.039799  12.423514
    34  H    3.357071   5.929671   9.888700   9.969143  11.167392
    35  H    2.056611   4.527915   8.788233   8.801078   9.823019
    36  Ni   2.074103   2.032335   6.284916   6.079730   6.991139
    37  F    3.214838   3.223689   7.583019   7.047662   7.985752
    38  F    3.240582   3.037705   5.877392   6.126149   6.621316
                   21         22         23         24         25
    21  H    0.000000
    22  H    1.751825   0.000000
    23  H    2.414633   2.428162   0.000000
    24  H    4.296017   3.713469   2.387363   0.000000
    25  H    3.939465   3.237353   3.056903   1.783451   0.000000
    26  H    3.726572   2.506045   2.453146   1.756117   1.768468
    27  H    2.463828   3.680450   2.493456   3.821854   3.847970
    28  H    4.131847   5.014384   4.296844   4.453060   3.861830
    29  H    3.821433   4.065691   3.806841   3.410145   2.289445
    30  H    7.609201   7.826216   6.246317   4.788793   5.138559
    31  H   11.141528  11.027813   9.145155   7.369214   8.350111
    32  H   11.808822  11.841441  10.040092   8.307390   9.030520
    33  H   11.308733  11.468959   9.429483   7.983597   8.975624
    34  H    9.807303   9.849999   7.692626   6.356539   7.673058
    35  H    8.098349   8.195020   5.872765   5.099644   6.704795
    36  Ni   5.018919   5.357965   2.935147   3.245104   4.708416
    37  F    5.732149   6.447158   4.100568   5.001715   6.334736
    38  F    4.788615   4.555718   2.399492   2.567256   4.213707
                   26         27         28         29         30
    26  H    0.000000
    27  H    4.310632   0.000000
    28  H    5.150878   2.366233   0.000000
    29  H    3.810286   2.928277   1.786142   0.000000
    30  H    6.379636   5.647947   4.527583   4.630357   0.000000
    31  H    8.999210   9.367835   8.851165   8.727377   4.477629
    32  H    9.953773   9.859480   8.961918   9.013547   4.456250
    33  H    9.709513   9.272685   8.729610   8.968320   4.483248
    34  H    8.050869   7.997396   8.000304   8.070846   4.325335
    35  H    6.675415   6.503867   7.198901   7.286646   4.910491
    36  Ni   4.531651   3.597413   4.986655   5.115076   5.033676
    37  F    6.126326   4.200286   5.806221   6.371840   6.151551
    38  F    3.409000   4.257356   5.799693   5.383308   5.992288
                   31         32         33         34         35
    31  H    0.000000
    32  H    1.786275   0.000000
    33  H    1.792035   1.786214   0.000000
    34  H    2.361132   3.653896   2.364588   0.000000
    35  H    4.711710   5.995889   4.711820   2.478411   0.000000
    36  Ni   7.096167   8.076540   7.096167   5.224572   3.164405
    37  F    8.016563   8.904244   7.662528   5.891368   3.719293
    38  F    7.720098   8.920067   8.100410   6.028622   3.950142
                   36         37         38
    36  Ni   0.000000
    37  F    1.814585   0.000000
    38  F    1.830420   3.253113   0.000000
 Stoichiometry    C13H18F2N2NiO2(3)
 Framework group  C1[X(C13H18F2N2NiO2)]
 Deg. of freedom   108
 Full point group                 C1      NOp   1
 Largest Abelian subgroup         C1      NOp   1
 Largest concise Abelian subgroup C1      NOp   1
                         Standard orientation:                         
 ---------------------------------------------------------------------
 Center     Atomic      Atomic             Coordinates (Angstroms)
 Number     Number       Type             X           Y           Z
 ---------------------------------------------------------------------
      1          6           0        4.941265   -2.043938    0.192489
      2          6           0        4.581753   -0.567866    0.395779
      3          6           0        3.082372   -0.240484    0.514489
      4          6           0        2.420869   -0.822112    1.768331
      5          6           0        2.314222   -0.586616   -0.783118
      6          6           0        1.923949   -2.071011   -1.018790
      7          8           0        0.482639   -2.125938   -0.732907
      8          6           0        0.096973   -0.848487   -0.628751
      9          6           0       -1.290651   -0.481554   -0.312291
     10          6           0       -2.344701   -1.372991   -0.283113
     11          6           0       -3.614768   -0.893636    0.086841
     12          8           0       -4.610592   -1.796328    0.097380
     13          6           0       -5.918944   -1.359538    0.469455
     14          6           0       -3.749367    0.461980    0.414688
     15          6           0       -2.622217    1.280346    0.355435
     16          7           0       -1.417824    0.834598   -0.001796
     17          7           0        0.992599    0.062089   -0.735817
     18          1           0        4.521293   -2.678974    0.980681
     19          1           0        4.586070   -2.426080   -0.772787
     20          1           0        6.027836   -2.180759    0.207097
     21          1           0        5.004080    0.019414   -0.430876
     22          1           0        5.074193   -0.202500    1.305422
     23          1           0        2.994746    0.847969    0.621039
     24          1           0        1.412569   -0.415442    1.885955
     25          1           0        2.366628   -1.917217    1.762909
     26          1           0        2.987390   -0.522527    2.655643
     27          1           0        2.868421   -0.193888   -1.640797
     28          1           0        2.058570   -2.377535   -2.058993
     29          1           0        2.408796   -2.784541   -0.355470
     30          1           0       -2.203612   -2.417560   -0.532162
     31          1           0       -5.925248   -0.970295    1.493675
     32          1           0       -6.555870   -2.241372    0.408569
     33          1           0       -6.286180   -0.591399   -0.220255
     34          1           0       -4.697204    0.889592    0.714141
     35          1           0       -2.686675    2.334775    0.605770
     36         28           0        0.358970    1.896552   -0.132785
     37          9           0        0.298259    3.123767   -1.468067
     38          9           0        1.153818    2.109749    1.502207
 ---------------------------------------------------------------------
 Rotational constants (GHZ):           0.4697375           0.1868128           0.1499600
 Basis read from rwf:  (6D, 7F)
 Pseudo-potential data read from rwf file.
 There are   398 symmetry adapted cartesian basis functions of A   symmetry.
 There are   395 symmetry adapted basis functions of A   symmetry.
   395 basis functions,   758 primitive gaussians,   398 cartesian basis functions
    82 alpha electrons       80 beta electrons
       nuclear repulsion energy      1881.7613039084 Hartrees.
 NAtoms=   38 NActive=   38 NUniq=   38 SFac= 1.00D+00 NAtFMM=   60 NAOKFM=F Big=F
 Integral buffers will be    131072 words long.
 Raffenetti 2 integral format.
 Two-electron integral symmetry is turned on.
 Nuclear repulsion after empirical dispersion term =     1881.6809479040 Hartrees.
 One-electron integrals computed using PRISM.
 PrsmSu:  requested number of processors reduced to:  12 ShMem   1 Linda.
   1 Symmetry operations used in ECPInt.
 ECPInt:  NShTT=    8911 NPrTT=   52776 LenC2=    7781 LenP2D=   27203.
 LDataN:  DoStor=T MaxTD1= 6 Len=  172
 NBasis=   395 RedAO= T EigKep=  1.11D-06  NBF=   395
 NBsUse=   395 1.00D-06 EigRej= -1.00D+00 NBFU=   395
 Initial guess from the checkpoint file:  "Lig2214_xyz_3.chk"
 B after Tr=    -0.000000    0.000000    0.000000
         Rot=    0.999997   -0.002275    0.000309   -0.000097 Ang=  -0.26 deg.
 Initial guess <Sx>= 0.0000 <Sy>= 0.0000 <Sz>= 1.0000 <S**2>= 2.0089 S= 1.0030
 ExpMin= 2.40D-02 ExpMax= 7.14D+04 ExpMxC= 1.07D+04 IAcc=3 IRadAn=         5 AccDes= 0.00D+00
 Harris functional with IExCor=  402 and IRadAn=       5 diagonalized for initial guess.
 HarFok:  IExCor=  402 AccDes= 0.00D+00 IRadAn=         5 IDoV= 1 UseB2=F ITyADJ=14
 ICtDFT=  3500011 ScaDFX=  1.000000  1.000000  1.000000  1.000000
 FoFCou: FMM=F IPFlag=           0 FMFlag=      100000 FMFlg1=           0
         NFxFlg=           0 DoJE=T BraDBF=F KetDBF=T FulRan=T
         wScrn=  0.000000 ICntrl=       500 IOpCl=  0 I1Cent=   200000004 NGrid=           0
         NMat0=    1 NMatS0=      1 NMatT0=    0 NMatD0=    1 NMtDS0=    0 NMtDT0=    0
 Petite list used in FoFCou.
 Requested convergence on RMS density matrix=1.00D-08 within  32 cycles.
 Requested convergence on MAX density matrix=1.00D-06.
 Requested convergence on             energy=1.00D-06.
 No special actions if energy rises.
 Restarting incremental Fock formation.
 SCF Done:  E(UB3LYP) =  -1135.37960699     A.U. after   31 cycles
            NFock= 31  Conv=0.60D-08     -V/T= 2.0665
 <Sx>= 0.0000 <Sy>= 0.0000 <Sz>= 1.0000 <S**2>= 2.0082 S= 1.0027
 <L.S>=  0.00000000000    
 Annihilation of the first spin contaminant:
 S**2 before annihilation     2.0082,   after     2.0000
 QCSCF skips out because SCF is already converged.
 PrsmSu:  requested number of processors reduced to:  13 ShMem   1 Linda.
   1 Symmetry operations used in ECPInt.
 ECPInt:  NShTT=    8911 NPrTT=   52776 LenC2=    7781 LenP2D=   27203.
 LDataN:  DoStor=T MaxTD1= 7 Len=  274
 Calling FoFJK, ICntrl=      2127 FMM=F ISym2X=0 I1Cent= 0 IOpClX= 1 NMat=1 NMatS=1 NMatT=0.
 ***** Axes restored to original set *****
 -------------------------------------------------------------------
 Center     Atomic                   Forces (Hartrees/Bohr)
 Number     Number              X              Y              Z
 -------------------------------------------------------------------
      1        6          -0.000921092    0.000519357    0.000116183
      2        6          -0.000319690    0.000018325    0.000519182
      3        6          -0.000332975    0.000851474   -0.000754829
      4        6           0.000689586   -0.001323436    0.000611568
      5        6           0.001929094   -0.000099248   -0.000747798
      6        6           0.000122941   -0.001352208   -0.000163030
      7        8          -0.000861520   -0.001101033    0.000657455
      8        6           0.001875713    0.002351645    0.000093816
      9        6          -0.000528956    0.001002058   -0.001654900
     10        6           0.000277636   -0.000914941    0.000228883
     11        6          -0.000483758    0.001150680   -0.000176604
     12        8           0.000449014   -0.000979185    0.000218207
     13        6          -0.000200898    0.000761149   -0.000276780
     14        6          -0.000055791   -0.000118393    0.000008013
     15        6          -0.000167069   -0.000144619    0.001318907
     16        7          -0.000230947    0.001074891   -0.001054506
     17        7          -0.000600675    0.000088214   -0.003558745
     18        1           0.000085149    0.000012628   -0.000123366
     19        1          -0.000614926    0.000510844   -0.000422594
     20        1          -0.000071933    0.000025684   -0.000058641
     21        1          -0.000071058    0.000100110    0.000250828
     22        1           0.000082212   -0.000338160   -0.000053481
     23        1           0.000649439   -0.000731924    0.000601121
     24        1          -0.000411519    0.001080873   -0.000514373
     25        1          -0.000455145   -0.000007533    0.000209853
     26        1          -0.000152344    0.000109767    0.000088269
     27        1           0.000048556    0.000332490   -0.000147946
     28        1          -0.000201021   -0.000358500    0.000320517
     29        1           0.001298369   -0.000489684   -0.000020781
     30        1           0.000001570   -0.000175556    0.000081948
     31        1          -0.000020428   -0.000111854   -0.000179952
     32        1          -0.000505070   -0.000016161    0.000242611
     33        1           0.000117776    0.000064938    0.000150266
     34        1          -0.000020241   -0.000086500    0.000044724
     35        1          -0.000292561    0.000182442    0.000336017
     36       28           0.001685048    0.004751510    0.000966304
     37        9           0.002136720   -0.001905122    0.003245404
     38        9          -0.003929208   -0.004735023   -0.000401750
 -------------------------------------------------------------------
 Cartesian Forces:  Max     0.004751510 RMS     0.001104752

 GradGradGradGradGradGradGradGradGradGradGradGradGradGradGradGradGradGrad
 Berny optimization.
 Using GEDIIS/GDIIS optimizer.
 FormGI is forming the generalized inverse of G from B-inverse, IUseBI=4.
 Internal  Forces:  Max     0.006500424 RMS     0.000990961
 Search for a local minimum.
 Step number   5 out of a maximum of  228
 All quantities printed in internal units (Hartrees-Bohrs-Radians)
 Mixed Optimization -- En-DIIS/RFO-DIIS
 Update second derivatives using D2CorX and points    3    4    5
 DE= -1.92D-03 DEPred=-1.48D-03 R= 1.30D+00
 TightC=F SS=  1.41D+00  RLast= 2.72D-01 DXNew= 1.7590D+00 8.1707D-01
 Trust test= 1.30D+00 RLast= 2.72D-01 DXMaxT set to 1.05D+00
 ITU=  1  1  1  1  0
 Use linear search instead of GDIIS.
     Eigenvalues ---    0.00218   0.00230   0.00252   0.00392   0.00668
     Eigenvalues ---    0.01380   0.01735   0.01972   0.01982   0.02001
     Eigenvalues ---    0.02022   0.02045   0.02124   0.02189   0.02224
     Eigenvalues ---    0.02276   0.02639   0.02940   0.03092   0.03264
     Eigenvalues ---    0.03413   0.03671   0.03855   0.04650   0.04729
     Eigenvalues ---    0.04768   0.04947   0.05176   0.05223   0.05392
     Eigenvalues ---    0.05457   0.05648   0.05681   0.06867   0.08855
     Eigenvalues ---    0.09432   0.10138   0.10433   0.10672   0.10711
     Eigenvalues ---    0.11434   0.12225   0.12641   0.13718   0.13883
     Eigenvalues ---    0.16000   0.16000   0.16000   0.16000   0.16000
     Eigenvalues ---    0.16000   0.16000   0.16000   0.16013   0.16032
     Eigenvalues ---    0.16049   0.16590   0.17829   0.18059   0.19793
     Eigenvalues ---    0.20135   0.20433   0.21356   0.21998   0.22600
     Eigenvalues ---    0.23327   0.23639   0.24454   0.24740   0.24998
     Eigenvalues ---    0.26095   0.26495   0.27350   0.27658   0.28620
     Eigenvalues ---    0.29867   0.30601   0.34454   0.34532   0.34597
     Eigenvalues ---    0.34616   0.34626   0.34671   0.34679   0.34734
     Eigenvalues ---    0.34740   0.34780   0.34788   0.34804   0.34852
     Eigenvalues ---    0.34865   0.35077   0.35638   0.35994   0.36177
     Eigenvalues ---    0.37279   0.37657   0.40208   0.41245   0.42222
     Eigenvalues ---    0.42855   0.45045   0.46412   0.48201   0.49457
     Eigenvalues ---    0.50838   0.54508   0.70787
 RFO step:  Lambda=-4.65875816D-03 EMin= 2.18134681D-03
 Quartic linear search produced a step of  0.31748.
 Iteration  1 RMS(Cart)=  0.10930157 RMS(Int)=  0.00303075
 Iteration  2 RMS(Cart)=  0.00494918 RMS(Int)=  0.00017272
 Iteration  3 RMS(Cart)=  0.00000930 RMS(Int)=  0.00017263
 Iteration  4 RMS(Cart)=  0.00000000 RMS(Int)=  0.00017263
 Variable       Old X    -DE/DX   Delta X   Delta X   Delta X     New X
                                 (Linear)    (Quad)   (Total)
    R1        2.89650   0.00038   0.00035   0.00395   0.00431   2.90081
    R2        2.07086   0.00002  -0.00044  -0.00272  -0.00315   2.06771
    R3        2.07350  -0.00055  -0.00049  -0.00534  -0.00583   2.06767
    R4        2.06972   0.00008  -0.00036  -0.00200  -0.00236   2.06736
    R5        2.90884   0.00202  -0.00071   0.00828   0.00757   2.91641
    R6        2.07579   0.00019  -0.00062  -0.00305  -0.00367   2.07212
    R7        2.07306  -0.00002  -0.00057  -0.00340  -0.00397   2.06909
    R8        2.89566  -0.00008   0.00005   0.00241   0.00247   2.89813
    R9        2.92367   0.00030  -0.00302  -0.00766  -0.01068   2.91299
   R10        2.07333  -0.00032  -0.00051  -0.00502  -0.00553   2.06780
   R11        2.06654  -0.00068  -0.00027  -0.00468  -0.00495   2.06159
   R12        2.07201   0.00035  -0.00022  -0.00063  -0.00084   2.07117
   R13        2.06838  -0.00001  -0.00035  -0.00190  -0.00225   2.06613
   R14        2.93443   0.00168  -0.00276  -0.00682  -0.00963   2.92480
   R15        2.78358  -0.00049  -0.00283  -0.01688  -0.01974   2.76384
   R16        2.06749   0.00021  -0.00023  -0.00052  -0.00075   2.06674
   R17        2.77868  -0.00094   0.00079   0.00184   0.00266   2.78134
   R18        2.06500   0.00025  -0.00081  -0.00373  -0.00454   2.06046
   R19        2.05641  -0.00083   0.00030  -0.00214  -0.00184   2.05457
   R20        2.52932   0.00063  -0.00006   0.00157   0.00156   2.53088
   R21        2.77750  -0.00118   0.00291   0.01417   0.01702   2.79453
   R22        2.42206  -0.00085  -0.00473  -0.02803  -0.03284   2.38922
   R23        2.60928   0.00040   0.00070   0.00541   0.00610   2.61538
   R24        2.56672  -0.00115  -0.00332  -0.02112  -0.02434   2.54238
   R25        2.65889  -0.00104   0.00067   0.00067   0.00128   2.66017
   R26        2.04672   0.00013  -0.00034  -0.00153  -0.00187   2.04484
   R27        2.54000   0.00028   0.00190   0.01074   0.01263   2.55263
   R28        2.64784  -0.00031   0.00108   0.00460   0.00564   2.65348
   R29        2.69974  -0.00082   0.00085   0.00195   0.00280   2.70254
   R30        2.07059   0.00018  -0.00072  -0.00350  -0.00422   2.06636
   R31        2.05886   0.00013  -0.00032  -0.00136  -0.00168   2.05718
   R32        2.07061   0.00018  -0.00072  -0.00344  -0.00416   2.06645
   R33        2.63459   0.00001   0.00137   0.00756   0.00895   2.64354
   R34        2.04485  -0.00000  -0.00037  -0.00159  -0.00196   2.04290
   R35        2.51899  -0.00068  -0.00037  -0.00281  -0.00312   2.51587
   R36        2.05159  -0.00026  -0.00014  -0.00173  -0.00187   2.04972
   R37        3.91949  -0.00177   0.00344   0.00826   0.01180   3.93129
   R38        3.84056  -0.00212  -0.00250  -0.02584  -0.02838   3.81218
   R39        3.42907   0.00096  -0.00304  -0.01111  -0.01415   3.41492
   R40        3.45899   0.00202  -0.00160   0.00338   0.00178   3.46077
    A1        1.95279  -0.00017  -0.00043  -0.00198  -0.00241   1.95038
    A2        1.95642   0.00039  -0.00065   0.00127   0.00062   1.95704
    A3        1.92968  -0.00014   0.00114   0.00189   0.00303   1.93271
    A4        1.88269   0.00013  -0.00050   0.00295   0.00245   1.88514
    A5        1.87362   0.00007   0.00015  -0.00064  -0.00048   1.87314
    A6        1.86437  -0.00029   0.00033  -0.00362  -0.00330   1.86108
    A7        2.03031   0.00414  -0.00318   0.01338   0.01016   2.04048
    A8        1.90168  -0.00132   0.00086  -0.00040   0.00035   1.90203
    A9        1.90226  -0.00124   0.00043  -0.01081  -0.01037   1.89189
   A10        1.89529  -0.00098   0.00083   0.00580   0.00657   1.90187
   A11        1.87808  -0.00158   0.00139  -0.00434  -0.00291   1.87517
   A12        1.84769   0.00073  -0.00007  -0.00534  -0.00542   1.84227
   A13        1.98546  -0.00038  -0.00096   0.00089  -0.00010   1.98536
   A14        1.95127   0.00168  -0.00278   0.01085   0.00803   1.95930
   A15        1.87159  -0.00046   0.00361  -0.00677  -0.00316   1.86843
   A16        1.96821  -0.00082  -0.00319  -0.00609  -0.00931   1.95890
   A17        1.83653   0.00051   0.00237   0.00320   0.00558   1.84211
   A18        1.83770  -0.00063   0.00216  -0.00318  -0.00100   1.83670
   A19        1.92293  -0.00049  -0.00147  -0.00965  -0.01112   1.91180
   A20        1.97840  -0.00014   0.00006  -0.00034  -0.00027   1.97813
   A21        1.91347  -0.00021   0.00096   0.00345   0.00440   1.91787
   A22        1.90322   0.00071   0.00043   0.01110   0.01153   1.91475
   A23        1.86320   0.00006   0.00016  -0.00255  -0.00239   1.86080
   A24        1.87862   0.00010  -0.00009  -0.00193  -0.00202   1.87660
   A25        2.05549  -0.00007  -0.00343  -0.01439  -0.01790   2.03759
   A26        1.89654   0.00075   0.00026   0.01652   0.01697   1.91350
   A27        1.90254  -0.00061   0.00218   0.00399   0.00620   1.90874
   A28        1.77252  -0.00061   0.00141   0.00358   0.00497   1.77749
   A29        1.92994   0.00076   0.00019   0.00798   0.00830   1.93824
   A30        1.89819  -0.00022  -0.00061  -0.01881  -0.01946   1.87873
   A31        1.82612   0.00044  -0.00170  -0.00643  -0.00835   1.81777
   A32        1.96238   0.00040   0.00062   0.00606   0.00667   1.96905
   A33        2.00678   0.00014   0.00052   0.00550   0.00596   2.01275
   A34        1.87062  -0.00053  -0.00040  -0.00369  -0.00395   1.86667
   A35        1.86892  -0.00052  -0.00060  -0.00897  -0.00952   1.85940
   A36        1.91923  -0.00002   0.00126   0.00521   0.00635   1.92558
   A37        1.83580  -0.00075   0.00105   0.00215   0.00304   1.83885
   A38        2.12593  -0.00157  -0.00030  -0.00805  -0.00819   2.11774
   A39        2.06033   0.00079  -0.00126  -0.00395  -0.00527   2.05506
   A40        2.09479   0.00077   0.00150   0.01195   0.01336   2.10815
   A41        2.17011  -0.00086   0.00041  -0.00041  -0.00007   2.17004
   A42        1.96008   0.00042   0.00165   0.01103   0.01274   1.97283
   A43        2.15231   0.00043  -0.00207  -0.01061  -0.01266   2.13965
   A44        2.06539  -0.00030   0.00070   0.00181   0.00246   2.06785
   A45        2.11572   0.00029  -0.00004   0.00186   0.00184   2.11756
   A46        2.10206   0.00001  -0.00065  -0.00366  -0.00429   2.09777
   A47        2.02865  -0.00037  -0.00004  -0.00059  -0.00059   2.02806
   A48        2.06899   0.00013  -0.00048  -0.00044  -0.00099   2.06800
   A49        2.18554   0.00024   0.00052   0.00103   0.00159   2.18713
   A50        2.06600   0.00004   0.00130   0.00228   0.00357   2.06957
   A51        1.93620   0.00018  -0.00017   0.00070   0.00052   1.93673
   A52        1.84769  -0.00093   0.00276   0.01018   0.01293   1.86061
   A53        1.93621   0.00014  -0.00015   0.00050   0.00034   1.93655
   A54        1.91389   0.00020  -0.00107  -0.00580  -0.00689   1.90701
   A55        1.91497   0.00017  -0.00026   0.00019  -0.00007   1.91491
   A56        1.91378   0.00021  -0.00107  -0.00573  -0.00681   1.90697
   A57        2.07179  -0.00019   0.00046   0.00168   0.00213   2.07392
   A58        2.13083  -0.00001   0.00012  -0.00049  -0.00038   2.13045
   A59        2.08056   0.00020  -0.00057  -0.00117  -0.00174   2.07881
   A60        2.14788   0.00022  -0.00296  -0.01692  -0.01978   2.12810
   A61        2.10867   0.00023  -0.00018   0.00076   0.00051   2.10918
   A62        2.02664  -0.00044   0.00315   0.01617   0.01925   2.04589
   A63        2.05997  -0.00029   0.00435   0.02447   0.02884   2.08881
   A64        1.98394  -0.00100  -0.00375  -0.02648  -0.03006   1.95388
   A65        2.23919   0.00129  -0.00059   0.00205   0.00127   2.24045
   A66        1.89312   0.00017   0.00169   0.01139   0.01307   1.90619
   A67        2.32784   0.00120  -0.00069   0.00547   0.00474   2.33258
   A68        1.98081  -0.00116  -0.00150  -0.01480  -0.01623   1.96458
   A69        1.39354   0.00103   0.00199   0.01843   0.02017   1.41371
   A70        1.94345  -0.00263  -0.00727  -0.06345  -0.07077   1.87268
   A71        1.95543  -0.00285  -0.00536  -0.04560  -0.05203   1.90340
   A72        1.98509  -0.00021  -0.00067   0.00088   0.00059   1.98568
   A73        1.80780  -0.00438  -0.01782  -0.13193  -0.15076   1.65704
   A74        2.20564   0.00650   0.02018   0.15545   0.17615   2.38179
    D1       -0.96896   0.00026  -0.00216   0.03621   0.03406  -0.93490
    D2       -3.11748  -0.00039  -0.00163   0.01899   0.01736  -3.10012
    D3        1.15715   0.00012  -0.00224   0.03138   0.02913   1.18628
    D4        1.14868   0.00059  -0.00359   0.03952   0.03594   1.18462
    D5       -0.99985  -0.00006  -0.00306   0.02230   0.01924  -0.98060
    D6       -3.00840   0.00045  -0.00367   0.03469   0.03101  -2.97739
    D7       -3.05638   0.00039  -0.00284   0.03705   0.03422  -3.02216
    D8        1.07828  -0.00027  -0.00230   0.01982   0.01752   1.09580
    D9       -0.93027   0.00025  -0.00291   0.03222   0.02929  -0.90098
   D10        1.15087  -0.00023  -0.00146  -0.01616  -0.01764   1.13322
   D11       -1.10341  -0.00025   0.00645  -0.01812  -0.01169  -1.11511
   D12       -3.10929  -0.00011   0.00321  -0.01606  -0.01287  -3.12217
   D13       -2.98048   0.00023  -0.00196  -0.00224  -0.00418  -2.98466
   D14        1.04842   0.00021   0.00595  -0.00420   0.00177   1.05020
   D15       -0.95745   0.00035   0.00271  -0.00214   0.00059  -0.95686
   D16       -0.98795  -0.00021  -0.00093  -0.00780  -0.00873  -0.99668
   D17        3.04096  -0.00023   0.00698  -0.00976  -0.00278   3.03818
   D18        1.03508  -0.00009   0.00374  -0.00770  -0.00396   1.03112
   D19        2.97056  -0.00103  -0.00408  -0.04329  -0.04737   2.92319
   D20       -1.17453  -0.00058  -0.00458  -0.03630  -0.04088  -1.21541
   D21        0.92499  -0.00069  -0.00397  -0.03654  -0.04052   0.88447
   D22       -1.06694   0.00026  -0.01185  -0.03269  -0.04452  -1.11146
   D23        1.07115   0.00071  -0.01236  -0.02569  -0.03804   1.03312
   D24       -3.11251   0.00060  -0.01175  -0.02594  -0.03767   3.13300
   D25        0.92706  -0.00060  -0.00944  -0.03757  -0.04702   0.88004
   D26        3.06515  -0.00014  -0.00994  -0.03058  -0.04053   3.02462
   D27       -1.11851  -0.00025  -0.00934  -0.03083  -0.04017  -1.15868
   D28        1.39556   0.00094  -0.02550   0.13290   0.10749   1.50305
   D29       -2.88682   0.00067  -0.02560   0.14082   0.11511  -2.77171
   D30       -0.82066   0.00049  -0.02494   0.12997   0.10505  -0.71560
   D31       -0.86775   0.00071  -0.01881   0.12743   0.10871  -0.75904
   D32        1.13306   0.00043  -0.01890   0.13534   0.11633   1.24939
   D33       -3.08396   0.00026  -0.01825   0.12450   0.10627  -2.97769
   D34       -2.86104   0.00087  -0.02135   0.12844   0.10718  -2.75386
   D35       -0.86023   0.00060  -0.02145   0.13636   0.11480  -0.74543
   D36        1.20593   0.00042  -0.02079   0.12552   0.10474   1.31067
   D37        1.82378   0.00052   0.00379   0.03965   0.04336   1.86714
   D38       -2.43521   0.00034   0.00261   0.03446   0.03701  -2.39820
   D39       -0.22107   0.00079   0.00537   0.05194   0.05735  -0.16372
   D40       -0.24408   0.00006   0.00424   0.02402   0.02817  -0.21591
   D41        1.78011  -0.00012   0.00306   0.01884   0.02182   1.80193
   D42       -2.28893   0.00033   0.00581   0.03631   0.04216  -2.24677
   D43       -2.25647   0.00031   0.00413   0.04044   0.04452  -2.21196
   D44       -0.23228   0.00013   0.00296   0.03526   0.03816  -0.19412
   D45        1.98186   0.00058   0.00571   0.05273   0.05850   2.04037
   D46       -1.95216  -0.00034   0.00059  -0.01003  -0.00964  -1.96180
   D47        0.72426  -0.00017  -0.00099  -0.00797  -0.00907   0.71520
   D48        0.22643  -0.00040  -0.00249  -0.01675  -0.01941   0.20703
   D49        2.90285  -0.00023  -0.00406  -0.01470  -0.01883   2.88402
   D50        2.26212   0.00008  -0.00184  -0.01353  -0.01546   2.24666
   D51       -1.34464   0.00025  -0.00341  -0.01148  -0.01489  -1.35953
   D52        0.18484   0.00012  -0.00401  -0.02097  -0.02497   0.15987
   D53       -1.90212  -0.00031  -0.00367  -0.02294  -0.02659  -1.92872
   D54        2.32227   0.00025  -0.00462  -0.02252  -0.02714   2.29514
   D55       -3.11628  -0.00033   0.00322   0.01002   0.01309  -3.10319
   D56       -0.04493  -0.00041   0.00231   0.00952   0.01195  -0.03298
   D57       -0.16772   0.00011  -0.00202  -0.00473  -0.00673  -0.17445
   D58        2.93531   0.00001  -0.00240  -0.00448  -0.00669   2.92861
   D59        3.04548   0.00019  -0.00099  -0.00358  -0.00479   3.04069
   D60       -0.13468   0.00009  -0.00136  -0.00333  -0.00475  -0.13943
   D61       -0.12756   0.00039   0.00045   0.00591   0.00634  -0.12122
   D62       -2.90568  -0.00036   0.00165  -0.00005   0.00160  -2.90408
   D63        2.94508   0.00022  -0.00051   0.00461   0.00431   2.94940
   D64        0.16697  -0.00053   0.00069  -0.00136  -0.00043   0.16654
   D65        3.09902  -0.00016  -0.00041   0.00080   0.00059   3.09961
   D66       -0.03669  -0.00013  -0.00094  -0.00175  -0.00253  -0.03923
   D67        0.00013  -0.00004  -0.00008   0.00003  -0.00002   0.00010
   D68       -3.13559  -0.00001  -0.00061  -0.00252  -0.00315  -3.13873
   D69       -3.09685   0.00025   0.00048  -0.00041  -0.00019  -3.09704
   D70        0.03144   0.00024   0.00094   0.00326   0.00393   0.03537
   D71        0.00664   0.00012   0.00016   0.00009   0.00016   0.00679
   D72        3.13493   0.00010   0.00063   0.00376   0.00428   3.13920
   D73        3.13842  -0.00001  -0.00070  -0.00243  -0.00312   3.13530
   D74       -0.00579  -0.00005  -0.00013  -0.00093  -0.00103  -0.00681
   D75       -0.00900  -0.00004  -0.00018   0.00012  -0.00001  -0.00901
   D76        3.12997  -0.00008   0.00039   0.00161   0.00208   3.13205
   D77        3.13898   0.00001   0.00096   0.00489   0.00587  -3.13834
   D78        0.00020   0.00006   0.00035   0.00328   0.00362   0.00381
   D79        0.00475   0.00006   0.00028   0.00180   0.00206   0.00680
   D80       -3.13334   0.00002  -0.00043  -0.00132  -0.00176  -3.13511
   D81       -3.13972   0.00002   0.00090   0.00344   0.00435  -3.13536
   D82        0.00538  -0.00003   0.00020   0.00032   0.00053   0.00591
   D83       -1.06690  -0.00023  -0.00007  -0.00219  -0.00225  -1.06914
   D84        3.14121  -0.00001  -0.00033  -0.00166  -0.00199   3.13922
   D85        1.06627   0.00022  -0.00061  -0.00111  -0.00173   1.06454
   D86        0.00217   0.00002  -0.00024  -0.00194  -0.00221  -0.00004
   D87       -3.13760  -0.00015  -0.00162  -0.00803  -0.00960   3.13598
   D88        3.14036   0.00006   0.00045   0.00109   0.00150  -3.14133
   D89        0.00059  -0.00010  -0.00094  -0.00500  -0.00589  -0.00530
   D90       -0.00778  -0.00010   0.00000   0.00090   0.00100  -0.00678
   D91       -3.13385  -0.00006  -0.00052  -0.00318  -0.00366  -3.13751
   D92        3.13207   0.00005   0.00132   0.00671   0.00811   3.14018
   D93        0.00600   0.00009   0.00079   0.00263   0.00345   0.00945
   D94        0.03721  -0.00037  -0.00057  -0.00340  -0.00368   0.03353
   D95        1.98600  -0.00014  -0.00031   0.00637   0.00608   1.99208
   D96       -1.71947   0.00368   0.01751   0.12781   0.14464  -1.57483
   D97       -3.11935  -0.00041  -0.00000   0.00090   0.00111  -3.11824
   D98       -1.17055  -0.00018   0.00026   0.01067   0.01086  -1.15969
   D99        1.40716   0.00364   0.01808   0.13211   0.14942   1.55658
   D100      -2.76853   0.00006   0.00092  -0.00500  -0.00437  -2.77290
   D101       1.61255   0.00251   0.00804   0.05697   0.06479   1.67734
   D102      -0.84135  -0.00225  -0.00257  -0.03525  -0.03701  -0.87836
   D103      -0.10936   0.00053  -0.00010   0.00251   0.00213  -0.10723
   D104      -2.01147   0.00297   0.00702   0.06447   0.07129  -1.94018
   D105       1.81782  -0.00178  -0.00359  -0.02775  -0.03051   1.78731
         Item               Value     Threshold  Converged?
 Maximum Force            0.006500     0.000450     NO 
 RMS     Force            0.000991     0.000300     NO 
 Maximum Displacement     0.513807     0.001800     NO 
 RMS     Displacement     0.109167     0.001200     NO 
 Predicted change in Energy=-3.072178D-03
 GradGradGradGradGradGradGradGradGradGradGradGradGradGradGradGradGradGrad

                          Input orientation:                          
 ---------------------------------------------------------------------
 Center     Atomic      Atomic             Coordinates (Angstroms)
 Number     Number       Type             X           Y           Z
 ---------------------------------------------------------------------
      1          6           0       -6.018298    1.649146   -2.580714
      2          6           0       -4.814877    2.282091   -3.293112
      3          6           0       -3.499602    1.474742   -3.293679
      4          6           0       -3.585172    0.155059   -4.070282
      5          6           0       -2.933342    1.280054   -1.873243
      6          6           0       -3.467908    0.069788   -1.070138
      7          8           0       -2.347022   -0.884083   -1.068093
      8          6           0       -1.306873   -0.210221   -1.575711
      9          6           0        0.005685   -0.860513   -1.778589
     10          6           0        0.338142   -2.114788   -1.297210
     11          6           0        1.607928   -2.637699   -1.606772
     12          8           0        1.886858   -3.861422   -1.107426
     13          6           0        3.164596   -4.439564   -1.387396
     14          6           0        2.475545   -1.866268   -2.396585
     15          6           0        2.048633   -0.608849   -2.836557
     16          7           0        0.847054   -0.125535   -2.528202
     17          7           0       -1.503776    0.981028   -1.950766
     18          1           0       -6.222204    0.639148   -2.948904
     19          1           0       -5.872690    1.591486   -1.497818
     20          1           0       -6.921844    2.243957   -2.743931
     21          1           0       -4.625221    3.272097   -2.861517
     22          1           0       -5.088334    2.464591   -4.337502
     23          1           0       -2.753477    2.077237   -3.820599
     24          1           0       -2.581915   -0.247439   -4.217363
     25          1           0       -4.216766   -0.595908   -3.582031
     26          1           0       -3.998666    0.335732   -5.066170
     27          1           0       -3.047518    2.208701   -1.306940
     28          1           0       -3.679736    0.313647   -0.028734
     29          1           0       -4.313635   -0.447515   -1.516475
     30          1           0       -0.355764   -2.689531   -0.697983
     31          1           0        3.304521   -4.577250   -2.463103
     32          1           0        3.181065   -5.410753   -0.895866
     33          1           0        3.970930   -3.818874   -0.986953
     34          1           0        3.460950   -2.213779   -2.673884
     35          1           0        2.694067    0.016533   -3.443853
     36         28           0        0.009969    1.698939   -3.074485
     37          9           0        0.969910    2.995711   -2.260544
     38          9           0       -0.869012    1.500105   -4.668770
 ---------------------------------------------------------------------
                    Distance matrix (angstroms):
                    1          2          3          4          5
     1  C    0.000000
     2  C    1.535043   0.000000
     3  C    2.623465   1.543295   0.000000
     4  C    3.220437   2.576904   1.533623   0.000000
     5  C    3.186487   2.561305   1.541490   2.552935   0.000000
     6  C    3.358676   3.413243   2.630407   3.003646   1.547736
     7  O    4.709940   4.589736   3.441763   3.409688   2.382337
     8  C    5.163797   4.633268   3.255545   3.398081   2.225948
     9  C    6.574965   5.950425   4.476154   4.379212   3.637151
    10  C    7.497927   7.061853   5.621289   5.313616   4.749671
    11  C    8.802552   8.264412   6.770871   6.390357   6.003576
    12  O    9.748253   9.350574   7.891027   7.406332   7.089117
    13  C   11.082506  10.605866   9.111777   8.594638   8.374660
    14  C    9.194423   8.435811   6.904311   6.604492   6.279275
    15  C    8.380893   7.461484   5.944176   5.817679   5.414425
    16  N    7.091214   6.199937   4.694706   4.701209   4.086080
    17  N    4.606965   3.802374   2.455705   3.083306   1.462561
    18  H    1.094184   2.190505   2.868737   2.906161   3.519151
    19  H    1.094162   2.195219   2.978303   3.730098   2.979547
    20  H    1.094000   2.177698   3.550445   4.154045   4.194682
    21  H    2.157194   1.096519   2.164317   3.501249   2.794168
    22  H    2.148509   1.094913   2.143231   2.768546   3.481335
    23  H    3.518471   2.137657   1.094234   2.109225   2.111882
    24  H    4.252574   3.498412   2.158993   1.090945   2.819865
    25  H    3.047691   2.953657   2.210218   1.096016   2.843654
    26  H    3.461425   2.756492   2.165210   1.093349   3.495918
    27  H    3.280418   2.659667   2.165689   3.484621   1.093673
    28  H    3.710126   3.977372   3.469937   4.045764   2.212072
    29  H    2.904216   3.295215   2.741565   2.723176   2.239864
    30  H    7.377878   7.164873   5.827738   5.467464   4.876756
    31  H   11.211458  10.661337   9.143990   8.511500   8.577114
    32  H   11.717900  11.351728   9.888927   9.318645   9.116367
    33  H   11.498869  10.942146   9.442045   9.077100   8.628647
    34  H   10.236553   9.438517   7.901811   7.563673   7.330407
    35  H    8.905938   7.844725   6.364783   6.311928   5.977543
    36  Ni   6.048660   4.864874   3.523549   4.037352   3.206481
    37  F    7.123960   5.919393   4.832934   5.665089   4.281221
    38  F    5.558538   4.251327   2.968421   3.089476   3.482075
                    6          7          8          9         10
     6  C    0.000000
     7  O    1.471821   0.000000
     8  C    2.236980   1.339283   0.000000
     9  C    3.665135   2.457762   1.478800   0.000000
    10  C    4.394309   2.962640   2.531998   1.384001   0.000000
    11  C    5.777765   4.359699   3.793373   2.398978   1.407701
    12  O    6.642990   5.176084   4.873447   3.604820   2.342066
    13  C    8.026520   6.566684   6.157666   4.789714   3.660814
    14  C    6.390024   5.097719   4.209871   2.737457   2.416377
    15  C    5.832067   4.746052   3.606668   2.314361   2.750131
    16  N    4.558838   3.592971   2.356653   1.345368   2.394047
    17  N    2.337451   2.229084   1.264322   2.387340   3.661130
    18  H    3.382319   4.568886   5.173738   6.511929   7.304135
    19  H    2.877751   4.329369   4.909062   6.375455   7.235408
    20  H    4.411153   5.789824   6.238239   7.652469   8.590638
    21  H    3.847493   5.067583   4.979083   6.300515   7.490031
    22  H    4.363088   5.423785   5.392732   6.599499   7.724036
    23  H    3.479268   4.063362   3.516340   4.518092   5.787803
    24  H    3.284912   3.221552   2.933503   3.608206   4.532220
    25  H    2.704357   3.146247   3.555495   4.599077   5.317385
    26  H    4.039889   4.494496   4.441522   5.317332   6.246440
    27  H    2.192659   3.180103   2.992201   4.354834   5.491388
    28  H    1.090349   2.071461   2.880635   4.245348   4.863093
    29  H    1.087232   2.063783   3.016693   4.346930   4.946403
    30  H    4.175857   2.713252   2.796783   2.154916   1.082085
    31  H    8.330733   6.893873   6.412750   5.016474   4.027708
    32  H    8.618326   7.147038   6.902849   5.618445   4.371118
    33  H    8.394339   6.966786   6.420609   5.010165   4.024589
    34  H    7.469655   6.170834   5.287000   3.817294   3.414229
    35  H    6.603582   5.645168   4.421413   3.281723   3.834186
    36  Ni   4.332109   4.031503   2.761392   2.868825   4.220298
    37  F    5.447231   5.241830   3.991332   4.004057   5.238735
    38  F    4.663713   4.564400   3.561453   3.832852   5.088427
                   11         12         13         14         15
    11  C    0.000000
    12  O    1.350795   0.000000
    13  C    2.391246   1.430121   0.000000
    14  C    1.404162   2.447269   2.848702   0.000000
    15  C    2.413053   3.687180   4.244975   1.398904   0.000000
    16  N    2.781893   4.129970   5.028249   2.387354   1.331340
    17  N    4.784999   5.971344   7.175925   4.913334   3.991484
    18  H    8.593603   9.455319  10.786271   9.068242   8.365217
    19  H    8.594039   9.491954  10.865463   9.080576   8.329528
    20  H    9.893468  10.841911  12.175628  10.262823   9.413636
    21  H    8.680566   9.816879  11.060018   8.777234   7.720278
    22  H    8.850434   9.955157  11.157121   8.929489   7.914239
    23  H    6.793637   8.010099   9.133059   6.702367   5.589602
    24  H    5.484826   6.534716   7.655391   5.613710   4.845536
    25  H    6.480556   7.351291   8.606661   6.914197   6.309605
    26  H    7.227906   8.241793   9.362113   7.341042   6.514080
    27  H    6.726862   7.825233   9.099245   6.949599   6.020720
    28  H    6.257798   7.041431   8.442977   6.945951   6.445858
    29  H    6.314267   7.090007   8.478034   6.991453   6.499777
    30  H    2.164410   2.563265   3.991346   3.402840   3.831952
    31  H    2.715435   2.088071   1.093473   2.835674   4.179106
    32  H    3.266493   2.029817   1.088615   3.913220   5.301600
    33  H    2.713509   2.087985   1.093519   2.834768   4.173790
    34  H    2.179937   2.765191   2.587855   1.081055   2.144039
    35  H    3.405806   4.598806   4.930235   2.165517   1.084664
    36  Ni   4.849132   6.189479   7.104869   4.387404   3.088470
    37  F    5.706995   7.013612   7.801432   5.091589   3.806348
    38  F    5.712485   7.001712   7.894117   5.261307   4.039473
                   16         17         18         19         20
    16  N    0.000000
    17  N    2.661638   0.000000
    18  H    7.122931   4.834948   0.000000
    19  H    7.011762   4.434549   1.770525   0.000000
    20  H    8.125073   5.619569   1.762646   1.754777   0.000000
    21  H    6.449868   3.977673   3.080652   2.498061   2.519003
    22  H    6.723924   4.554835   2.558537   3.072675   2.439243
    23  H    4.414331   2.501939   3.854870   3.919280   4.308399
    24  H    3.824390   2.794455   3.955595   4.648308   5.216612
    25  H    5.193657   3.536674   2.438851   3.445391   4.010573
    26  H    5.489540   4.043095   3.085287   4.221613   4.192742
    27  H    4.701897   2.074809   3.903611   2.898100   4.132384
    28  H    5.189610   2.978994   3.885549   2.932597   4.648619
    29  H    5.268774   3.181925   2.622085   2.566812   3.943783
    30  H    3.372025   4.044799   7.110687   7.028749   8.463960
    31  H    5.085386   7.367270  10.872226  11.099832  12.295783
    32  H    6.003804   7.994712  11.368278  11.461421  12.809321
    33  H    5.076889   7.344413  11.297044  11.244102  12.589576
    34  H    3.348796   5.947957  10.098430  10.147906  11.299501
    35  H    2.066411   4.558667   8.951676   8.925068   9.895305
    36  Ni   2.080346   2.017316   6.322887   6.091231   6.961059
    37  F    3.135109   3.205314   7.599588   7.026718   7.942203
    38  F    3.188984   2.838998   5.688220   5.924532   6.394928
                   21         22         23         24         25
    21  H    0.000000
    22  H    1.745013   0.000000
    23  H    2.418875   2.422559   0.000000
    24  H    4.289587   3.694818   2.364525   0.000000
    25  H    3.955684   3.270631   3.056769   1.788243   0.000000
    26  H    3.724957   2.500075   2.476850   1.751498   1.765840
    27  H    2.456964   3.662611   2.534211   3.836662   3.795921
    28  H    4.203693   5.017589   4.283275   4.366308   3.706968
    29  H    3.967587   4.127799   3.757321   3.214605   2.073144
    30  H    7.645270   7.887224   6.182381   4.827587   5.254362
    31  H   11.164757  11.114896   9.100787   7.514973   8.583288
    32  H   11.840345  11.926813   9.992139   8.420457   9.226381
    33  H   11.299986  11.522951   9.381435   8.132065   9.173892
    34  H    9.773239   9.886609   7.638512   6.539498   7.898706
    35  H    8.031798   8.207153   5.836452   5.338912   6.939293
    36  Ni   4.899507   5.307931   2.887287   3.436920   4.836239
    37  F    5.634097   6.426365   4.140166   5.192555   6.445747
    38  F    4.529373   4.340812   2.145619   2.488316   4.096551
                   26         27         28         29         30
    26  H    0.000000
    27  H    4.306334   0.000000
    28  H    5.047570   2.371654   0.000000
    29  H    3.648701   2.949991   1.787336   0.000000
    30  H    6.442360   5.622192   4.529433   4.621829   0.000000
    31  H    9.178774   9.366656   8.867180   8.717059   4.480716
    32  H   10.097627   9.849889   8.977264   9.010517   4.466919
    33  H    9.869915   9.257033   8.748063   8.959937   4.480982
    34  H    8.238259   7.986678   8.023347   8.056268   4.324098
    35  H    6.893945   6.506749   7.237173   7.282720   4.915695
    36  Ni   4.679134   3.568234   4.980919   5.072298   5.004017
    37  F    6.295536   4.203388   5.813231   6.350220   6.043259
    38  F    3.362801   4.068156   5.553178   5.059211   5.795138
                   31         32         33         34         35
    31  H    0.000000
    32  H    1.779383   0.000000
    33  H    1.788367   1.779400   0.000000
    34  H    2.378002   3.668832   2.383725   0.000000
    35  H    4.736810   6.015384   4.730443   2.480979   0.000000
    36  Ni   7.114662   8.083932   7.105861   5.232505   3.189248
    37  F    7.927243   8.798874   7.554252   5.789207   3.639840
    38  F    7.695297   8.854259   8.079131   6.043267   4.049313
                   36         37         38
    36  Ni   0.000000
    37  F    1.807099   0.000000
    38  F    1.831361   3.379056   0.000000
 Stoichiometry    C13H18F2N2NiO2(3)
 Framework group  C1[X(C13H18F2N2NiO2)]
 Deg. of freedom   108
 Full point group                 C1      NOp   1
 Largest Abelian subgroup         C1      NOp   1
 Largest concise Abelian subgroup C1      NOp   1
                         Standard orientation:                         
 ---------------------------------------------------------------------
 Center     Atomic      Atomic             Coordinates (Angstroms)
 Number     Number       Type             X           Y           Z
 ---------------------------------------------------------------------
      1          6           0        5.112371   -1.839713    0.044455
      2          6           0        4.610823   -0.418501    0.335940
      3          6           0        3.089379   -0.239259    0.522599
      4          6           0        2.528932   -0.960604    1.754492
      5          6           0        2.300429   -0.574132   -0.758655
      6          6           0        1.919321   -2.058680   -0.973968
      7          8           0        0.471199   -2.099735   -0.714129
      8          6           0        0.092975   -0.819157   -0.610475
      9          6           0       -1.305529   -0.453072   -0.298999
     10          6           0       -2.362047   -1.346973   -0.285991
     11          6           0       -3.636991   -0.874069    0.078015
     12          8           0       -4.635692   -1.783541    0.067871
     13          6           0       -5.953061   -1.356977    0.425400
     14          6           0       -3.776496    0.480856    0.419170
     15          6           0       -2.648324    1.306873    0.376101
     16          7           0       -1.450805    0.845344    0.021974
     17          7           0        0.987627    0.068696   -0.709590
     18          1           0        4.760098   -2.555522    0.793293
     19          1           0        4.793615   -2.195509   -0.939919
     20          1           0        6.205833   -1.873460    0.050620
     21          1           0        4.953384    0.251177   -0.461893
     22          1           0        5.097850   -0.060645    1.248945
     23          1           0        2.911101    0.825680    0.699993
     24          1           0        1.512499   -0.615125    1.948581
     25          1           0        2.536287   -2.052433    1.659064
     26          1           0        3.120506   -0.703353    2.637257
     27          1           0        2.832606   -0.175227   -1.626861
     28          1           0        2.067191   -2.388279   -2.002734
     29          1           0        2.377798   -2.761455   -0.282609
     30          1           0       -2.221415   -2.388031   -0.545469
     31          1           0       -5.977149   -0.979528    1.451380
     32          1           0       -6.594946   -2.232964    0.349823
     33          1           0       -6.313801   -0.585203   -0.260178
     34          1           0       -4.727001    0.903784    0.713030
     35          1           0       -2.719753    2.359457    0.628017
     36         28           0        0.347642    1.883408   -0.103945
     37          9           0        0.182917    3.082802   -1.445558
     38          9           0        1.192507    1.814930    1.519446
 ---------------------------------------------------------------------
 Rotational constants (GHZ):           0.4926524           0.1834132           0.1494248
 Basis read from rwf:  (6D, 7F)
 Pseudo-potential data read from rwf file.
 There are   398 symmetry adapted cartesian basis functions of A   symmetry.
 There are   395 symmetry adapted basis functions of A   symmetry.
   395 basis functions,   758 primitive gaussians,   398 cartesian basis functions
    82 alpha electrons       80 beta electrons
       nuclear repulsion energy      1885.6898451691 Hartrees.
 NAtoms=   38 NActive=   38 NUniq=   38 SFac= 1.00D+00 NAtFMM=   60 NAOKFM=F Big=F
 Integral buffers will be    131072 words long.
 Raffenetti 2 integral format.
 Two-electron integral symmetry is turned on.
 Nuclear repulsion after empirical dispersion term =     1885.6095765249 Hartrees.
 One-electron integrals computed using PRISM.
 PrsmSu:  requested number of processors reduced to:  12 ShMem   1 Linda.
   1 Symmetry operations used in ECPInt.
 ECPInt:  NShTT=    8911 NPrTT=   52776 LenC2=    7773 LenP2D=   27180.
 LDataN:  DoStor=T MaxTD1= 6 Len=  172
 NBasis=   395 RedAO= T EigKep=  1.12D-06  NBF=   395
 NBsUse=   395 1.00D-06 EigRej= -1.00D+00 NBFU=   395
 Initial guess from the checkpoint file:  "Lig2214_xyz_3.chk"
 B after Tr=     0.000000   -0.000000    0.000000
         Rot=    0.999933   -0.010654   -0.002766   -0.003683 Ang=  -1.33 deg.
 Initial guess <Sx>= 0.0000 <Sy>= 0.0000 <Sz>= 1.0000 <S**2>= 2.0081 S= 1.0027
 ExpMin= 2.40D-02 ExpMax= 7.14D+04 ExpMxC= 1.07D+04 IAcc=3 IRadAn=         5 AccDes= 0.00D+00
 Harris functional with IExCor=  402 and IRadAn=       5 diagonalized for initial guess.
 HarFok:  IExCor=  402 AccDes= 0.00D+00 IRadAn=         5 IDoV= 1 UseB2=F ITyADJ=14
 ICtDFT=  3500011 ScaDFX=  1.000000  1.000000  1.000000  1.000000
 FoFCou: FMM=F IPFlag=           0 FMFlag=      100000 FMFlg1=           0
         NFxFlg=           0 DoJE=T BraDBF=F KetDBF=T FulRan=T
         wScrn=  0.000000 ICntrl=       500 IOpCl=  0 I1Cent=   200000004 NGrid=           0
         NMat0=    1 NMatS0=      1 NMatT0=    0 NMatD0=    1 NMtDS0=    0 NMtDT0=    0
 Petite list used in FoFCou.
 Requested convergence on RMS density matrix=1.00D-08 within  32 cycles.
 Requested convergence on MAX density matrix=1.00D-06.
 Requested convergence on             energy=1.00D-06.
 No special actions if energy rises.
 Restarting incremental Fock formation.
 >>>>>>>>>> Convergence criterion not met.
 SCF Done:  E(UB3LYP) =  -1135.38020745     A.U. after   33 cycles
            NFock= 32  Conv=0.11D-06     -V/T= 2.0664
 <Sx>= 0.0000 <Sy>= 0.0000 <Sz>= 1.0000 <S**2>= 2.0068 S= 1.0023
 <L.S>=  0.00000000000    
 Annihilation of the first spin contaminant:
 S**2 before annihilation     2.0068,   after     2.0000
 SCF Done:  E(UB3LYP) =  -1135.38020745     a.u. after    1 cycles
            Convg  =    0.4979D-06                     1 Fock formations.
              S**2 =  2.0068                  -V/T =  2.0664
 <Sx>= 0.0000 <Sy>= 0.0000 <Sz>= 1.0000 <S**2>= 2.0068 S= 1.0023
 <L.S>=  0.00000000000    
 Annihilation of the first spin contaminant:
 S**2 before annihilation     2.0068,   after     2.0000
 PrsmSu:  requested number of processors reduced to:  13 ShMem   1 Linda.
   1 Symmetry operations used in ECPInt.
 ECPInt:  NShTT=    8911 NPrTT=   52776 LenC2=    7773 LenP2D=   27180.
 LDataN:  DoStor=T MaxTD1= 7 Len=  274
 Calling FoFJK, ICntrl=      2127 FMM=F ISym2X=0 I1Cent= 0 IOpClX= 1 NMat=1 NMatS=1 NMatT=0.
 ***** Axes restored to original set *****
 -------------------------------------------------------------------
 Center     Atomic                   Forces (Hartrees/Bohr)
 Number     Number              X              Y              Z
 -------------------------------------------------------------------
      1        6           0.001793899    0.000481812   -0.000873314
      2        6          -0.001213323   -0.002421497    0.000965071
      3        6          -0.004356140    0.002556259   -0.002685932
      4        6           0.000434528    0.001334499   -0.000031310
      5        6          -0.003749462    0.003421824    0.001616866
      6        6           0.003209284   -0.002849743    0.003079715
      7        8          -0.001560934   -0.004635573    0.001700641
      8        6           0.005544517   -0.018312761    0.005975518
      9        6          -0.003440758   -0.006881820    0.003589578
     10        6           0.000031694   -0.000894281    0.000436285
     11        6           0.001020107   -0.000196077   -0.000126598
     12        8          -0.000062520    0.002043936   -0.001137890
     13        6          -0.000921100    0.002129194   -0.000698688
     14        6          -0.001191464    0.001456845   -0.000174482
     15        6          -0.001124701   -0.009110748    0.006754683
     16        7           0.001419817    0.013209168   -0.007714052
     17        7           0.002528680    0.015754506   -0.008778662
     18        1          -0.000258684   -0.001106937   -0.000372443
     19        1           0.000821115   -0.000806057    0.002240137
     20        1          -0.000602991    0.000744094   -0.000373407
     21        1           0.000846330    0.000877494    0.001263483
     22        1           0.000415059   -0.000335540   -0.001810343
     23        1           0.000472235   -0.001014085   -0.000644851
     24        1           0.001292877   -0.000379700    0.000378149
     25        1          -0.000123385   -0.000300589   -0.000932574
     26        1          -0.000618237    0.000659198   -0.000674848
     27        1          -0.001826189    0.000678634    0.000216569
     28        1          -0.001030912   -0.000046308    0.001573638
     29        1          -0.000838003    0.001024699    0.000258188
     30        1          -0.000638829   -0.000470598    0.000431323
     31        1           0.000090480    0.000114538   -0.001772805
     32        1          -0.002198304   -0.000366838    0.001164623
     33        1           0.001082082    0.001296990    0.000496880
     34        1           0.000803979   -0.000757287   -0.000006665
     35        1          -0.001140822    0.001135047   -0.000092124
     36       28           0.001905040    0.003997007    0.000663640
     37        9           0.003040133   -0.000179614    0.001508277
     38        9           0.000144903   -0.001849693   -0.005412275
 -------------------------------------------------------------------
 Cartesian Forces:  Max     0.018312761 RMS     0.003542772

 GradGradGradGradGradGradGradGradGradGradGradGradGradGradGradGradGradGrad
 Berny optimization.
 Using GEDIIS/GDIIS optimizer.
 FormGI is forming the generalized inverse of G from B-inverse, IUseBI=4.
 Internal  Forces:  Max     0.018588961 RMS     0.002305985
 Search for a local minimum.
 Step number   6 out of a maximum of  228
 All quantities printed in internal units (Hartrees-Bohrs-Radians)
 Mixed Optimization -- RFO/linear search
 Update second derivatives using D2CorX and points    4    5    6
 DE= -6.00D-04 DEPred=-3.07D-03 R= 1.95D-01
 Trust test= 1.95D-01 RLast= 5.29D-01 DXMaxT set to 1.05D+00
 ITU=  0  1  1  1  1  0
 Use linear search instead of GDIIS.
     Eigenvalues ---    0.00230   0.00231   0.00252   0.00469   0.00743
     Eigenvalues ---    0.01380   0.01731   0.01967   0.01978   0.01988
     Eigenvalues ---    0.02022   0.02042   0.02123   0.02187   0.02210
     Eigenvalues ---    0.02230   0.02517   0.02976   0.03053   0.03133
     Eigenvalues ---    0.03458   0.03735   0.04052   0.04696   0.04709
     Eigenvalues ---    0.04763   0.05039   0.05182   0.05210   0.05357
     Eigenvalues ---    0.05447   0.05619   0.05710   0.06870   0.09005
     Eigenvalues ---    0.09422   0.10138   0.10603   0.10661   0.11105
     Eigenvalues ---    0.11469   0.12543   0.12719   0.13733   0.14146
     Eigenvalues ---    0.16000   0.16000   0.16000   0.16000   0.16000
     Eigenvalues ---    0.16000   0.16001   0.16012   0.16028   0.16036
     Eigenvalues ---    0.16051   0.16582   0.17804   0.18520   0.19802
     Eigenvalues ---    0.20174   0.20585   0.21984   0.22096   0.22690
     Eigenvalues ---    0.23596   0.24177   0.24481   0.24764   0.25006
     Eigenvalues ---    0.26178   0.26504   0.27613   0.28017   0.28641
     Eigenvalues ---    0.29874   0.30525   0.34455   0.34532   0.34600
     Eigenvalues ---    0.34621   0.34632   0.34675   0.34679   0.34735
     Eigenvalues ---    0.34750   0.34781   0.34790   0.34804   0.34859
     Eigenvalues ---    0.34954   0.35126   0.35641   0.35993   0.36175
     Eigenvalues ---    0.37230   0.38437   0.40305   0.41555   0.42260
     Eigenvalues ---    0.43175   0.45135   0.46551   0.48427   0.49509
     Eigenvalues ---    0.51576   0.54543   0.81362
 RFO step:  Lambda=-1.74851472D-03 EMin= 2.29775028D-03
 Quartic linear search produced a step of -0.42514.
 Iteration  1 RMS(Cart)=  0.09787135 RMS(Int)=  0.00238010
 Iteration  2 RMS(Cart)=  0.00499725 RMS(Int)=  0.00008166
 Iteration  3 RMS(Cart)=  0.00000832 RMS(Int)=  0.00008158
 Iteration  4 RMS(Cart)=  0.00000000 RMS(Int)=  0.00008158
 Variable       Old X    -DE/DX   Delta X   Delta X   Delta X     New X
                                 (Linear)    (Quad)   (Total)
    R1        2.90081  -0.00078  -0.00183  -0.00000  -0.00183   2.89898
    R2        2.06771   0.00119   0.00134   0.00064   0.00199   2.06969
    R3        2.06767   0.00238   0.00248   0.00129   0.00377   2.07144
    R4        2.06736   0.00096   0.00100   0.00058   0.00158   2.06894
    R5        2.91641  -0.00287  -0.00322  -0.00183  -0.00504   2.91136
    R6        2.07212   0.00143   0.00156   0.00089   0.00245   2.07457
    R7        2.06909   0.00157   0.00169   0.00101   0.00269   2.07178
    R8        2.89813  -0.00052  -0.00105   0.00040  -0.00065   2.89748
    R9        2.91299   0.00366   0.00454   0.00547   0.01001   2.92301
   R10        2.06780   0.00007   0.00235  -0.00240  -0.00004   2.06776
   R11        2.06159   0.00127   0.00210  -0.00045   0.00165   2.06324
   R12        2.07117  -0.00012   0.00036  -0.00055  -0.00019   2.07098
   R13        2.06613   0.00095   0.00096   0.00076   0.00172   2.06785
   R14        2.92480   0.00630   0.00409   0.00510   0.00923   2.93403
   R15        2.76384   0.00728   0.00839   0.00530   0.01377   2.77761
   R16        2.06674   0.00088   0.00032   0.00114   0.00146   2.06820
   R17        2.78134   0.00040  -0.00113   0.00209   0.00088   2.78221
   R18        2.06046   0.00170   0.00193   0.00060   0.00253   2.06299
   R19        2.05457   0.00004   0.00078  -0.00113  -0.00035   2.05422
   R20        2.53088   0.00129  -0.00066   0.00166   0.00093   2.53181
   R21        2.79453  -0.00669  -0.00724  -0.00281  -0.01006   2.78447
   R22        2.38922   0.01859   0.01396   0.00112   0.01516   2.40438
   R23        2.61538  -0.00152  -0.00259   0.00068  -0.00191   2.61347
   R24        2.54238   0.00680   0.01035  -0.00362   0.00666   2.54904
   R25        2.66017  -0.00287  -0.00054  -0.00205  -0.00258   2.65759
   R26        2.04484   0.00089   0.00080   0.00055   0.00135   2.04620
   R27        2.55263  -0.00588  -0.00537  -0.00229  -0.00766   2.54497
   R28        2.65348  -0.00316  -0.00240  -0.00204  -0.00443   2.64905
   R29        2.70254  -0.00286  -0.00119  -0.00167  -0.00286   2.69968
   R30        2.06636   0.00173   0.00180   0.00096   0.00276   2.06912
   R31        2.05718   0.00082   0.00071   0.00053   0.00124   2.05842
   R32        2.06645   0.00173   0.00177   0.00098   0.00275   2.06920
   R33        2.64354  -0.00327  -0.00381  -0.00037  -0.00418   2.63936
   R34        2.04290   0.00098   0.00083   0.00065   0.00148   2.04438
   R35        2.51587  -0.00063   0.00133  -0.00219  -0.00088   2.51499
   R36        2.04972   0.00003   0.00079  -0.00046   0.00033   2.05005
   R37        3.93129   0.00017  -0.00502   0.01834   0.01329   3.94458
   R38        3.81218   0.00591   0.01207   0.01682   0.02893   3.84111
   R39        3.41492   0.00215   0.00601  -0.00178   0.00424   3.41916
   R40        3.46077   0.00486  -0.00076   0.01383   0.01308   3.47385
    A1        1.95038   0.00011   0.00102  -0.00098   0.00005   1.95043
    A2        1.95704  -0.00020  -0.00026   0.00013  -0.00013   1.95691
    A3        1.93271  -0.00039  -0.00129   0.00020  -0.00109   1.93162
    A4        1.88514  -0.00017  -0.00104  -0.00059  -0.00164   1.88350
    A5        1.87314   0.00015   0.00021   0.00034   0.00054   1.87368
    A6        1.86108   0.00052   0.00140   0.00098   0.00238   1.86346
    A7        2.04048  -0.00260  -0.00432  -0.00161  -0.00593   2.03455
    A8        1.90203   0.00082  -0.00015  -0.00033  -0.00048   1.90155
    A9        1.89189   0.00141   0.00441   0.00185   0.00626   1.89815
   A10        1.90187   0.00026  -0.00279  -0.00167  -0.00446   1.89740
   A11        1.87517   0.00033   0.00124  -0.00120   0.00004   1.87521
   A12        1.84227   0.00001   0.00230   0.00355   0.00585   1.84812
   A13        1.98536   0.00017   0.00004   0.00108   0.00113   1.98649
   A14        1.95930  -0.00345  -0.00341  -0.00480  -0.00822   1.95108
   A15        1.86843   0.00195   0.00134   0.00937   0.01072   1.87915
   A16        1.95890   0.00325   0.00396   0.00551   0.00947   1.96837
   A17        1.84211  -0.00205  -0.00237  -0.00983  -0.01219   1.82992
   A18        1.83670   0.00017   0.00042  -0.00163  -0.00117   1.83553
   A19        1.91180  -0.00060   0.00473  -0.00676  -0.00204   1.90977
   A20        1.97813   0.00145   0.00011   0.00543   0.00555   1.98368
   A21        1.91787  -0.00097  -0.00187  -0.00211  -0.00398   1.91390
   A22        1.91475  -0.00026  -0.00490   0.00645   0.00155   1.91630
   A23        1.86080   0.00068   0.00102  -0.00017   0.00084   1.86164
   A24        1.87660  -0.00034   0.00086  -0.00306  -0.00220   1.87440
   A25        2.03759   0.00045   0.00761  -0.00053   0.00708   2.04467
   A26        1.91350   0.00115  -0.00721   0.01699   0.00965   1.92316
   A27        1.90874  -0.00109  -0.00264  -0.00606  -0.00872   1.90002
   A28        1.77749  -0.00075  -0.00211   0.00084  -0.00126   1.77622
   A29        1.93824  -0.00030  -0.00353  -0.00957  -0.01319   1.92505
   A30        1.87873   0.00070   0.00827  -0.00021   0.00807   1.88680
   A31        1.81777   0.00502   0.00355   0.00172   0.00535   1.82312
   A32        1.96905   0.00001  -0.00284   0.00590   0.00303   1.97208
   A33        2.01275  -0.00207  -0.00254  -0.00233  -0.00482   2.00793
   A34        1.86667  -0.00130   0.00168  -0.00180  -0.00018   1.86649
   A35        1.85940  -0.00151   0.00405  -0.00332   0.00069   1.86009
   A36        1.92558   0.00006  -0.00270  -0.00067  -0.00332   1.92226
   A37        1.83885  -0.00147  -0.00129  -0.00365  -0.00493   1.83392
   A38        2.11774  -0.00066   0.00348  -0.01128  -0.00794   2.10981
   A39        2.05506   0.00224   0.00224   0.00710   0.00942   2.06447
   A40        2.10815  -0.00149  -0.00568   0.00446  -0.00118   2.10697
   A41        2.17004  -0.00175   0.00003  -0.00575  -0.00571   2.16433
   A42        1.97283  -0.00116  -0.00542   0.00354  -0.00196   1.97087
   A43        2.13965   0.00294   0.00538   0.00264   0.00802   2.14768
   A44        2.06785  -0.00163  -0.00105  -0.00220  -0.00323   2.06462
   A45        2.11756   0.00076  -0.00078   0.00203   0.00125   2.11881
   A46        2.09777   0.00087   0.00182   0.00017   0.00199   2.09976
   A47        2.02806  -0.00047   0.00025  -0.00069  -0.00044   2.02762
   A48        2.06800   0.00169   0.00042   0.00156   0.00199   2.06999
   A49        2.18713  -0.00122  -0.00068  -0.00087  -0.00156   2.18557
   A50        2.06957  -0.00282  -0.00152  -0.00352  -0.00504   2.06454
   A51        1.93673   0.00026  -0.00022   0.00074   0.00051   1.93724
   A52        1.86061  -0.00353  -0.00550  -0.00752  -0.01303   1.84759
   A53        1.93655   0.00020  -0.00015   0.00043   0.00027   1.93683
   A54        1.90701   0.00135   0.00293   0.00209   0.00501   1.91202
   A55        1.91491   0.00032   0.00003   0.00197   0.00199   1.91690
   A56        1.90697   0.00136   0.00290   0.00214   0.00503   1.91201
   A57        2.07392  -0.00030  -0.00091  -0.00197  -0.00288   2.07104
   A58        2.13045  -0.00037   0.00016  -0.00008   0.00008   2.13054
   A59        2.07881   0.00067   0.00074   0.00205   0.00279   2.08160
   A60        2.12810   0.00416   0.00841   0.00255   0.01093   2.13903
   A61        2.10918  -0.00043  -0.00022   0.00002  -0.00019   2.10900
   A62        2.04589  -0.00373  -0.00819  -0.00257  -0.01074   2.03516
   A63        2.08881  -0.00685  -0.01226  -0.00255  -0.01481   2.07400
   A64        1.95388   0.00490   0.01278  -0.00075   0.01196   1.96584
   A65        2.24045   0.00196  -0.00054   0.00337   0.00288   2.24334
   A66        1.90619  -0.00509  -0.00556  -0.00408  -0.00969   1.89650
   A67        2.33258   0.00630  -0.00201   0.01509   0.01303   2.34561
   A68        1.96458  -0.00053   0.00690  -0.00204   0.00473   1.96931
   A69        1.41371  -0.00163  -0.00858  -0.00375  -0.01216   1.40154
   A70        1.87268  -0.00165   0.03009  -0.04562  -0.01561   1.85707
   A71        1.90340  -0.00194   0.02212  -0.03429  -0.01178   1.89162
   A72        1.98568   0.00053  -0.00025   0.00294   0.00231   1.98799
   A73        1.65704   0.00324   0.06409  -0.05699   0.00734   1.66438
   A74        2.38179   0.00112  -0.07489   0.09442   0.01919   2.40099
    D1       -0.93490  -0.00030  -0.01448  -0.00617  -0.02065  -0.95555
    D2       -3.10012   0.00063  -0.00738  -0.00241  -0.00979  -3.10991
    D3        1.18628  -0.00056  -0.01238  -0.00740  -0.01979   1.16650
    D4        1.18462  -0.00057  -0.01528  -0.00755  -0.02283   1.16179
    D5       -0.98060   0.00036  -0.00818  -0.00379  -0.01196  -0.99257
    D6       -2.97739  -0.00083  -0.01318  -0.00878  -0.02196  -2.99935
    D7       -3.02216  -0.00031  -0.01455  -0.00608  -0.02063  -3.04279
    D8        1.09580   0.00062  -0.00745  -0.00232  -0.00977   1.08603
    D9       -0.90098  -0.00057  -0.01245  -0.00732  -0.01977  -0.92075
   D10        1.13322   0.00129   0.00750   0.00792   0.01542   1.14865
   D11       -1.11511  -0.00034   0.00497   0.00355   0.00852  -1.10659
   D12       -3.12217   0.00012   0.00547   0.00248   0.00796  -3.11420
   D13       -2.98466   0.00064   0.00178   0.00485   0.00662  -2.97804
   D14        1.05020  -0.00098  -0.00075   0.00047  -0.00029   1.04991
   D15       -0.95686  -0.00052  -0.00025  -0.00060  -0.00084  -0.95770
   D16       -0.99668   0.00096   0.00371   0.00755   0.01125  -0.98543
   D17        3.03818  -0.00067   0.00118   0.00317   0.00435   3.04252
   D18        1.03112  -0.00021   0.00168   0.00210   0.00379   1.03491
   D19        2.92319   0.00101   0.02014  -0.01816   0.00197   2.92516
   D20       -1.21541   0.00125   0.01738  -0.01101   0.00637  -1.20905
   D21        0.88447   0.00109   0.01723  -0.01278   0.00444   0.88891
   D22       -1.11146  -0.00077   0.01893  -0.01902  -0.00008  -1.11155
   D23        1.03312  -0.00053   0.01617  -0.01188   0.00431   1.03742
   D24        3.13300  -0.00068   0.01602  -0.01365   0.00238   3.13538
   D25        0.88004  -0.00016   0.01999  -0.02390  -0.00391   0.87613
   D26        3.02462   0.00008   0.01723  -0.01675   0.00048   3.02511
   D27       -1.15868  -0.00007   0.01708  -0.01852  -0.00145  -1.16013
   D28        1.50305  -0.00148  -0.04570  -0.07441  -0.12021   1.38284
   D29       -2.77171  -0.00133  -0.04894  -0.06137  -0.11020  -2.88191
   D30       -0.71560  -0.00046  -0.04466  -0.05525  -0.09994  -0.81554
   D31       -0.75904  -0.00155  -0.04622  -0.07651  -0.12282  -0.88186
   D32        1.24939  -0.00140  -0.04946  -0.06348  -0.11282   1.13657
   D33       -2.97769  -0.00053  -0.04518  -0.05735  -0.10255  -3.08025
   D34       -2.75386  -0.00079  -0.04557  -0.06661  -0.11227  -2.86613
   D35       -0.74543  -0.00065  -0.04881  -0.05358  -0.10227  -0.84770
   D36        1.31067   0.00023  -0.04453  -0.04745  -0.09200   1.21867
   D37        1.86714   0.00008  -0.01844   0.02710   0.00867   1.87581
   D38       -2.39820   0.00148  -0.01574   0.02881   0.01310  -2.38510
   D39       -0.16372  -0.00029  -0.02438   0.03123   0.00683  -0.15689
   D40       -0.21591  -0.00105  -0.01198   0.00578  -0.00619  -0.22210
   D41        1.80193   0.00035  -0.00928   0.00749  -0.00176   1.80017
   D42       -2.24677  -0.00142  -0.01792   0.00992  -0.00803  -2.25480
   D43       -2.21196  -0.00134  -0.01893   0.00946  -0.00947  -2.22142
   D44       -0.19412   0.00007  -0.01623   0.01117  -0.00503  -0.19915
   D45        2.04037  -0.00171  -0.02487   0.01360  -0.01130   2.02906
   D46       -1.96180  -0.00169   0.00410  -0.01761  -0.01337  -1.97517
   D47        0.71520  -0.00078   0.00385   0.00518   0.00911   0.72431
   D48        0.20703  -0.00102   0.00825  -0.00930  -0.00091   0.20612
   D49        2.88402  -0.00011   0.00800   0.01348   0.02157   2.90560
   D50        2.24666  -0.00143   0.00657  -0.01973  -0.01312   2.23354
   D51       -1.35953  -0.00052   0.00633   0.00305   0.00937  -1.35016
   D52        0.15987   0.00115   0.01061  -0.00179   0.00877   0.16865
   D53       -1.92872  -0.00073   0.01131  -0.00855   0.00272  -1.92600
   D54        2.29514   0.00060   0.01154  -0.00521   0.00630   2.30144
   D55       -3.10319  -0.00234  -0.00557  -0.00894  -0.01434  -3.11752
   D56       -0.03298  -0.00114  -0.00508  -0.00430  -0.00936  -0.04234
   D57       -0.17445   0.00148   0.00286   0.00529   0.00808  -0.16638
   D58        2.92861   0.00264   0.00285   0.01802   0.02062   2.94923
   D59        3.04069   0.00008   0.00204   0.00043   0.00255   3.04324
   D60       -0.13943   0.00124   0.00202   0.01317   0.01510  -0.12433
   D61       -0.12122   0.00112  -0.00270   0.00900   0.00622  -0.11500
   D62       -2.90408  -0.00189  -0.00068  -0.01376  -0.01439  -2.91847
   D63        2.94940   0.00235  -0.00183   0.01293   0.01090   2.96030
   D64        0.16654  -0.00066   0.00018  -0.00983  -0.00971   0.15683
   D65        3.09961   0.00093  -0.00025   0.01354   0.01320   3.11281
   D66       -0.03923   0.00088   0.00108   0.01020   0.01120  -0.02803
   D67        0.00010  -0.00024   0.00001  -0.00037  -0.00034  -0.00024
   D68       -3.13873  -0.00029   0.00134  -0.00370  -0.00233  -3.14107
   D69       -3.09704  -0.00107   0.00008  -0.01620  -0.01600  -3.11304
   D70        0.03537  -0.00064  -0.00167  -0.00958  -0.01117   0.02420
   D71        0.00679  -0.00005  -0.00007  -0.00393  -0.00394   0.00286
   D72        3.13920   0.00038  -0.00182   0.00269   0.00090   3.14010
   D73        3.13530   0.00015   0.00133   0.00036   0.00167   3.13698
   D74       -0.00681   0.00024   0.00044   0.00231   0.00273  -0.00409
   D75       -0.00901   0.00020   0.00000   0.00366   0.00365  -0.00537
   D76        3.13205   0.00029  -0.00089   0.00561   0.00470   3.13675
   D77       -3.13834   0.00005  -0.00249   0.00355   0.00105  -3.13729
   D78        0.00381  -0.00006  -0.00154   0.00145  -0.00009   0.00373
   D79        0.00680  -0.00001  -0.00087  -0.00017  -0.00105   0.00575
   D80       -3.13511  -0.00010   0.00075  -0.00232  -0.00157  -3.13668
   D81       -3.13536   0.00009  -0.00185   0.00197   0.00010  -3.13526
   D82        0.00591   0.00000  -0.00023  -0.00017  -0.00042   0.00549
   D83       -1.06914  -0.00038   0.00095  -0.00317  -0.00221  -1.07135
   D84        3.13922  -0.00002   0.00085  -0.00156  -0.00071   3.13851
   D85        1.06454   0.00035   0.00073   0.00015   0.00088   1.06542
   D86       -0.00004  -0.00022   0.00094  -0.00417  -0.00323  -0.00327
   D87        3.13598  -0.00009   0.00408  -0.00534  -0.00128   3.13471
   D88       -3.14133  -0.00014  -0.00064  -0.00209  -0.00273   3.13913
   D89       -0.00530  -0.00001   0.00250  -0.00326  -0.00077  -0.00607
   D90       -0.00678   0.00028  -0.00042   0.00622   0.00574  -0.00105
   D91       -3.13751  -0.00023   0.00156  -0.00158   0.00001  -3.13751
   D92        3.14018   0.00015  -0.00345   0.00734   0.00383  -3.13917
   D93        0.00945  -0.00037  -0.00147  -0.00046  -0.00190   0.00755
   D94        0.03353   0.00065   0.00156   0.00399   0.00543   0.03896
   D95        1.99208   0.00084  -0.00258   0.00806   0.00553   1.99761
   D96       -1.57483  -0.00254  -0.06149   0.06113  -0.00013  -1.57496
   D97       -3.11824   0.00107  -0.00047   0.01128   0.01074  -3.10750
   D98       -1.15969   0.00126  -0.00462   0.01535   0.01084  -1.14885
   D99        1.55658  -0.00212  -0.06353   0.06843   0.00518   1.56176
   D100      -2.77290   0.00021   0.00186  -0.01955  -0.01777  -2.79066
   D101       1.67734   0.00271  -0.02754   0.03203   0.00449   1.68182
   D102      -0.87836  -0.00226   0.01573  -0.04657  -0.03127  -0.90963
   D103      -0.10723   0.00034  -0.00091   0.00358   0.00276  -0.10447
   D104      -1.94018   0.00284  -0.03031   0.05516   0.02501  -1.91517
   D105       1.78731  -0.00213   0.01297  -0.02344  -0.01074   1.77657
         Item               Value     Threshold  Converged?
 Maximum Force            0.018589     0.000450     NO 
 RMS     Force            0.002306     0.000300     NO 
 Maximum Displacement     0.482837     0.001800     NO 
 RMS     Displacement     0.098668     0.001200     NO 
 Predicted change in Energy=-1.808624D-03
 GradGradGradGradGradGradGradGradGradGradGradGradGradGradGradGradGradGrad

                          Input orientation:                          
 ---------------------------------------------------------------------
 Center     Atomic      Atomic             Coordinates (Angstroms)
 Number     Number       Type             X           Y           Z
 ---------------------------------------------------------------------
      1          6           0       -6.007307    1.462599   -2.524651
      2          6           0       -4.889088    2.230119   -3.241503
      3          6           0       -3.511400    1.543264   -3.302594
      4          6           0       -3.495509    0.261103   -4.143283
      5          6           0       -2.906830    1.342728   -1.893043
      6          6           0       -3.439496    0.147706   -1.057087
      7          8           0       -2.336972   -0.827983   -1.066664
      8          6           0       -1.296828   -0.173219   -1.599943
      9          6           0       -0.002003   -0.846907   -1.801707
     10          6           0        0.304224   -2.099698   -1.302303
     11          6           0        1.566620   -2.644671   -1.597500
     12          8           0        1.821862   -3.863797   -1.085356
     13          6           0        3.093270   -4.457873   -1.352780
     14          6           0        2.452341   -1.897432   -2.386307
     15          6           0        2.047482   -0.640230   -2.840481
     16          7           0        0.853019   -0.126611   -2.556441
     17          7           0       -1.475922    1.022690   -1.995651
     18          1           0       -6.142095    0.458681   -2.941209
     19          1           0       -5.813964    1.358901   -1.450675
     20          1           0       -6.962406    1.988450   -2.624318
     21          1           0       -4.771618    3.213658   -2.768165
     22          1           0       -5.203160    2.428968   -4.272899
     23          1           0       -2.823863    2.223023   -3.814958
     24          1           0       -2.462250   -0.042958   -4.322159
     25          1           0       -4.053422   -0.567379   -3.692305
     26          1           0       -3.938796    0.458476   -5.124068
     27          1           0       -3.007190    2.275267   -1.329031
     28          1           0       -3.625773    0.407000   -0.013127
     29          1           0       -4.305031   -0.358278   -1.477205
     30          1           0       -0.403171   -2.654949   -0.699191
     31          1           0        3.237693   -4.608330   -2.427668
     32          1           0        3.083025   -5.422944   -0.847761
     33          1           0        3.905429   -3.842868   -0.951362
     34          1           0        3.435045   -2.264219   -2.651147
     35          1           0        2.707034   -0.029450   -3.447782
     36         28           0        0.057517    1.713889   -3.136870
     37          9           0        1.060799    2.982666   -2.326104
     38          9           0       -0.809065    1.490408   -4.742601
 ---------------------------------------------------------------------
                    Distance matrix (angstroms):
                    1          2          3          4          5
     1  C    0.000000
     2  C    1.534072   0.000000
     3  C    2.615579   1.540626   0.000000
     4  C    3.220666   2.575325   1.533280   0.000000
     5  C    3.166427   2.556395   1.546788   2.565158   0.000000
     6  C    3.236718   3.348050   2.644816   3.088787   1.552621
     7  O    4.565507   4.538195   3.464314   3.463221   2.391574
     8  C    5.071449   4.623320   3.278667   3.389898   2.230719
     9  C    6.474576   5.951866   4.503492   4.349166   3.638799
    10  C    7.349797   7.034082   5.641925   5.299294   4.744484
    11  C    8.665659   8.254846   6.799442   6.367863   5.999870
    12  O    9.577993   9.317813   7.911772   7.391898   7.079604
    13  C   10.919971  10.583693   9.134389   8.571326   8.363016
    14  C    9.103549   8.465496   6.945802   6.566822   6.281931
    15  C    8.330742   7.517695   5.990189   5.764933   5.419868
    16  N    7.042065   6.244621   4.732164   4.645222   4.090907
    17  N    4.583319   3.828803   2.474321   3.044843   1.469847
    18  H    1.095234   2.190478   2.868358   2.913493   3.513849
    19  H    1.096156   2.195787   2.960641   3.718942   2.940643
    20  H    1.094837   2.176687   3.545094   4.160572   4.171261
    21  H    2.156950   1.097815   2.159625   3.498141   2.782742
    22  H    2.153344   1.096339   2.141966   2.762700   3.480914
    23  H    3.518160   2.143375   1.094210   2.099532   2.115553
    24  H    4.250313   3.496318   2.157852   1.091821   2.831674
    25  H    3.049900   2.954244   2.213702   1.095915   2.863656
    26  H    3.470442   2.754238   2.162684   1.094258   3.505194
    27  H    3.330261   2.683492   2.164487   3.495043   1.094445
    28  H    3.618529   3.916905   3.482063   4.134785   2.219583
    29  H    2.703790   3.186483   2.752772   2.854283   2.240827
    30  H    7.189774   7.102865   5.836418   5.470620   4.865697
    31  H   11.060542  10.652290   9.173758   8.484734   8.570651
    32  H   11.526352  11.307253   9.901550   9.297632   9.096444
    33  H   11.352777  10.930209   9.462983   9.044602   8.613016
    34  H   10.152004   9.478333   7.948232   7.525709   7.335132
    35  H    8.889214   7.927754   6.415873   6.248175   5.984610
    36  Ni   6.100824   4.974570   3.576834   3.968306   3.236081
    37  F    7.232438   6.066749   4.891872   5.609723   4.314976
    38  F    5.651707   4.409882   3.062520   3.014524   3.541526
                    6          7          8          9         10
     6  C    0.000000
     7  O    1.472285   0.000000
     8  C    2.233542   1.339777   0.000000
     9  C    3.655143   2.448004   1.473478   0.000000
    10  C    4.373373   2.940867   2.522554   1.382991   0.000000
    11  C    5.757657   4.338221   3.782514   2.394626   1.406336
    12  O    6.616256   5.149021   4.859156   3.597398   2.337165
    13  C    7.998489   6.538003   6.139406   4.777167   3.652713
    14  C    6.376768   5.081604   4.200899   2.732978   2.414619
    15  C    5.823081   4.733404   3.597422   2.306980   2.744993
    16  N    4.555107   3.589902   2.353488   1.348893   2.401481
    17  N    2.345660   2.242636   1.272344   2.388608   3.660459
    18  H    3.309179   4.432650   5.067041   6.379950   7.126454
    19  H    2.694439   4.125458   4.772231   6.226372   7.029662
    20  H    4.272640   5.635000   6.149872   7.560631   8.441836
    21  H    3.755316   5.015722   4.990976   6.338095   7.492975
    22  H    4.319272   5.394692   5.401434   6.624966   7.724281
    23  H    3.505966   4.135072   3.602791   4.630394   5.897820
    24  H    3.413511   3.351150   2.964057   3.612731   4.582912
    25  H    2.798683   3.147714   3.483123   4.479564   5.200883
    26  H    4.109285   4.547895   4.449550   5.314174   6.257265
    27  H    2.188003   3.185622   2.998969   4.359190   5.486938
    28  H    1.091689   2.072711   2.877260   4.231195   4.836360
    29  H    1.087046   2.064564   3.016388   4.342823   4.930351
    30  H    4.147558   2.685596   2.787286   2.155341   1.082800
    31  H    8.311632   6.871698   6.396657   5.003574   4.020562
    32  H    8.580166   7.109005   6.878118   5.600672   4.355722
    33  H    8.359652   6.933281   6.399255   4.996689   4.016277
    34  H    7.457729   6.155447   5.279009   3.813610   3.412988
    35  H    6.597473   5.634658   4.412040   3.273635   3.829166
    36  Ni   4.359762   4.059611   2.785241   2.888577   4.239097
    37  F    5.468095   5.258525   4.005662   4.008762   5.239370
    38  F    4.722820   4.606729   3.589131   3.842297   5.095481
                   11         12         13         14         15
    11  C    0.000000
    12  O    1.346740   0.000000
    13  C    2.382908   1.428607   0.000000
    14  C    1.401815   2.440608   2.834576   0.000000
    15  C    2.407075   3.677329   4.228631   1.396689   0.000000
    16  N    2.787368   4.131502   5.022684   2.392192   1.330874
    17  N    4.781749   5.965046   7.164312   4.910294   3.986656
    18  H    8.417876   9.249466  10.582418   8.928803   8.263591
    19  H    8.397807   9.258287  10.638762   8.933695   8.229849
    20  H    9.760351  10.666798  12.012015  10.187944   9.388012
    21  H    8.709979   9.818156  11.077552   8.857463   7.833123
    22  H    8.872963   9.955413  11.170783   8.993534   8.002725
    23  H    6.920109   8.129137   9.257924   6.845256   5.733920
    24  H    5.515838   6.590093   7.692365   5.598196   4.784328
    25  H    6.347300   7.223678   8.466671   6.767542   6.160515
    26  H    7.237113   8.257023   9.372462   7.341136   6.500574
    27  H    6.722915   7.814552   9.085777   6.952390   6.027795
    28  H    6.227670   7.004720   8.402808   6.919961   6.424674
    29  H    6.302249   7.069726   8.459138   6.989817   6.503264
    30  H    2.164981   2.561486   3.987833   3.402079   3.827521
    31  H    2.708804   2.088231   1.094934   2.822668   4.163271
    32  H    3.252752   2.019387   1.089271   3.897964   5.283714
    33  H    2.706141   2.087976   1.094975   2.820506   4.156636
    34  H    2.178515   2.759114   2.571903   1.081841   2.144415
    35  H    3.400510   4.589859   4.914178   2.163552   1.084840
    36  Ni   4.862519   6.199371   7.105590   4.397746   3.096722
    37  F    5.696809   6.999481   7.774311   5.074975   3.789921
    38  F    5.712654   6.997481   7.880428   5.259882   4.039498
                   16         17         18         19         20
    16  N    0.000000
    17  N    2.656943   0.000000
    18  H    7.030095   4.794305   0.000000
    19  H    6.919402   4.385047   1.771936   0.000000
    20  H    8.096849   5.606195   1.764517   1.758604   0.000000
    21  H    6.545133   4.032211   3.081890   2.502476   2.514235
    22  H    6.793711   4.588657   2.556761   3.079459   2.450882
    23  H    4.541377   2.562737   3.858368   3.908611   4.312793
    24  H    3.757095   2.742460   3.962313   4.630832   5.221176
    25  H    5.055455   3.471377   2.445302   3.440198   4.016845
    26  H    5.467772   4.021328   3.101516   4.221473   4.210913
    27  H    4.709222   2.087609   3.965694   2.955081   4.171782
    28  H    5.178104   2.988533   3.861116   2.785829   4.522436
    29  H    5.274837   3.190567   2.487074   2.286107   3.726211
    30  H    3.379332   4.044334   6.903375   6.778820   8.263827
    31  H    5.078292   7.356167  10.673273  10.885534  12.149000
    32  H    5.995303   7.977961  11.139070  11.203274  12.609346
    33  H    5.069917   7.329607  11.109256  11.035140  12.446401
    34  H    3.353385   5.945674   9.960920  10.005613  11.233561
    35  H    2.059442   4.551133   8.877048   8.861341   9.912018
    36  Ni   2.087381   2.032627   6.328430   6.119114   7.043963
    37  F    3.124713   3.222679   7.657058   7.117960   8.090069
    38  F    3.186937   2.865169   5.722821   5.991918   6.526773
                   21         22         23         24         25
    21  H    0.000000
    22  H    1.751055   0.000000
    23  H    2.422990   2.431702   0.000000
    24  H    4.284113   3.691263   2.350039   0.000000
    25  H    3.958040   3.261453   3.051753   1.789849   0.000000
    26  H    3.719530   2.491173   2.463832   1.753478   1.765068
    27  H    2.462700   3.675904   2.493226   3.824910   3.841913
    28  H    4.096404   4.972138   4.288930   4.485978   3.829967
    29  H    3.826618   4.048614   3.784450   3.404266   2.239129
    30  H    7.602929   7.852228   6.273943   4.918150   5.161493
    31  H   11.200379  11.143447   9.237663   7.544605   8.431426
    32  H   11.831072  11.918261  10.107245   8.471468   9.088279
    33  H   11.330776  11.547074   9.501505   8.145485   9.032436
    34  H    9.867631   9.963667   7.788692   6.519537   7.748575
    35  H    8.179845   8.324410   5.983250   5.242730   6.786231
    36  Ni   5.070088   5.429237   3.003560   3.292514   4.734185
    37  F    5.853705   6.582839   4.228989   5.054751   6.373742
    38  F    4.750770   4.517696   2.335949   2.293688   3.982896
                   26         27         28         29         30
    26  H    0.000000
    27  H    4.309400   0.000000
    28  H    5.120777   2.367418   0.000000
    29  H    3.755107   2.939711   1.786216   0.000000
    30  H    6.463250   5.611118   4.497930   4.593965   0.000000
    31  H    9.189401   9.358924   8.836894   8.709707   4.478752
    32  H   10.108605   9.827756   8.927084   8.979444   4.453923
    33  H    9.871419   9.238967   8.698314   8.934793   4.476469
    34  H    8.240263   7.991077   7.996856   8.057265   4.323738
    35  H    6.871323   6.515611   7.217464   7.291115   4.911352
    36  Ni   4.636328   3.602201   5.003234   5.106876   5.024068
    37  F    6.260678   4.247718   5.826480   6.377670   6.047542
    38  F    3.317472   4.135241   5.610306   5.128570   5.804989
                   31         32         33         34         35
    31  H    0.000000
    32  H    1.784272   0.000000
    33  H    1.792006   1.784298   0.000000
    34  H    2.362995   3.654267   2.366995   0.000000
    35  H    4.721056   5.999272   4.712794   2.481697   0.000000
    36  Ni   7.112449   8.082580   7.103550   5.241084   3.186823
    37  F    7.897619   8.770928   7.521287   5.768231   3.611245
    38  F    7.676573   8.838133   8.064973   6.040188   4.043449
                   36         37         38
    36  Ni   0.000000
    37  F    1.809340   0.000000
    38  F    1.838282   3.400394   0.000000
 Stoichiometry    C13H18F2N2NiO2(3)
 Framework group  C1[X(C13H18F2N2NiO2)]
 Deg. of freedom   108
 Full point group                 C1      NOp   1
 Largest Abelian subgroup         C1      NOp   1
 Largest concise Abelian subgroup C1      NOp   1
                         Standard orientation:                         
 ---------------------------------------------------------------------
 Center     Atomic      Atomic             Coordinates (Angstroms)
 Number     Number       Type             X           Y           Z
 ---------------------------------------------------------------------
      1          6           0        4.988495   -2.011144    0.087654
      2          6           0        4.634975   -0.535013    0.310003
      3          6           0        3.141595   -0.204229    0.494192
      4          6           0        2.530936   -0.789478    1.773070
      5          6           0        2.318500   -0.541549   -0.771226
      6          6           0        1.937408   -2.030312   -0.992551
      7          8           0        0.493709   -2.086195   -0.709295
      8          6           0        0.110273   -0.807120   -0.600007
      9          6           0       -1.286673   -0.460654   -0.284351
     10          6           0       -2.325054   -1.373952   -0.266603
     11          6           0       -3.607931   -0.917942    0.085621
     12          8           0       -4.587997   -1.841618    0.083707
     13          6           0       -5.910444   -1.426307    0.429496
     14          6           0       -3.774036    0.436502    0.406520
     15          6           0       -2.660617    1.278247    0.356475
     16          7           0       -1.448670    0.843497    0.019724
     17          7           0        0.997406    0.099134   -0.702759
     18          1           0        4.591316   -2.648192    0.885122
     19          1           0        4.605061   -2.388096   -0.867566
     20          1           0        6.074332   -2.149992    0.069044
     21          1           0        5.025635    0.055443   -0.529010
     22          1           0        5.163334   -0.176363    1.201163
     23          1           0        3.053736    0.880037    0.612278
     24          1           0        1.551881   -0.338675    1.947141
     25          1           0        2.439152   -1.881421    1.756760
     26          1           0        3.154828   -0.526429    2.632700
     27          1           0        2.841762   -0.149105   -1.648719
     28          1           0        2.071677   -2.355768   -2.025912
     29          1           0        2.414012   -2.733133   -0.313905
     30          1           0       -2.164539   -2.415535   -0.515191
     31          1           0       -5.944146   -1.035171    1.451629
     32          1           0       -6.530516   -2.319183    0.360249
     33          1           0       -6.278993   -0.669084   -0.270330
     34          1           0       -4.734501    0.846198    0.689425
     35          1           0       -2.750257    2.333489    0.591645
     36         28           0        0.331803    1.925452   -0.108532
     37          9           0        0.116838    3.104183   -1.464295
     38          9           0        1.155866    1.882497    1.534136
 ---------------------------------------------------------------------
 Rotational constants (GHZ):           0.4790604           0.1853137           0.1495944
 Basis read from rwf:  (6D, 7F)
 Pseudo-potential data read from rwf file.
 There are   398 symmetry adapted cartesian basis functions of A   symmetry.
 There are   395 symmetry adapted basis functions of A   symmetry.
   395 basis functions,   758 primitive gaussians,   398 cartesian basis functions
    82 alpha electrons       80 beta electrons
       nuclear repulsion energy      1883.7748442295 Hartrees.
 NAtoms=   38 NActive=   38 NUniq=   38 SFac= 1.00D+00 NAtFMM=   60 NAOKFM=F Big=F
 Integral buffers will be    131072 words long.
 Raffenetti 2 integral format.
 Two-electron integral symmetry is turned on.
 Nuclear repulsion after empirical dispersion term =     1883.6945322463 Hartrees.
 One-electron integrals computed using PRISM.
 PrsmSu:  requested number of processors reduced to:  12 ShMem   1 Linda.
   1 Symmetry operations used in ECPInt.
 ECPInt:  NShTT=    8911 NPrTT=   52776 LenC2=    7779 LenP2D=   27179.
 LDataN:  DoStor=T MaxTD1= 6 Len=  172
 NBasis=   395 RedAO= T EigKep=  1.11D-06  NBF=   395
 NBsUse=   395 1.00D-06 EigRej= -1.00D+00 NBFU=   395
 Initial guess from the checkpoint file:  "Lig2214_xyz_3.chk"
 B after Tr=     0.000000    0.000000    0.000000
         Rot=    0.999989    0.004243   -0.000213   -0.001870 Ang=   0.53 deg.
 Initial guess <Sx>= 0.0000 <Sy>= 0.0000 <Sz>= 1.0000 <S**2>= 2.0068 S= 1.0023
 ExpMin= 2.40D-02 ExpMax= 7.14D+04 ExpMxC= 1.07D+04 IAcc=3 IRadAn=         5 AccDes= 0.00D+00
 Harris functional with IExCor=  402 and IRadAn=       5 diagonalized for initial guess.
 HarFok:  IExCor=  402 AccDes= 0.00D+00 IRadAn=         5 IDoV= 1 UseB2=F ITyADJ=14
 ICtDFT=  3500011 ScaDFX=  1.000000  1.000000  1.000000  1.000000
 FoFCou: FMM=F IPFlag=           0 FMFlag=      100000 FMFlg1=           0
         NFxFlg=           0 DoJE=T BraDBF=F KetDBF=T FulRan=T
         wScrn=  0.000000 ICntrl=       500 IOpCl=  0 I1Cent=   200000004 NGrid=           0
         NMat0=    1 NMatS0=      1 NMatT0=    0 NMatD0=    1 NMtDS0=    0 NMtDT0=    0
 Petite list used in FoFCou.
 Requested convergence on RMS density matrix=1.00D-08 within  32 cycles.
 Requested convergence on MAX density matrix=1.00D-06.
 Requested convergence on             energy=1.00D-06.
 No special actions if energy rises.
 Restarting incremental Fock formation.
 SCF Done:  E(UB3LYP) =  -1135.38210244     A.U. after   32 cycles
            NFock= 32  Conv=0.40D-08     -V/T= 2.0664
 <Sx>= 0.0000 <Sy>= 0.0000 <Sz>= 1.0000 <S**2>= 2.0066 S= 1.0022
 <L.S>=  0.00000000000    
 Annihilation of the first spin contaminant:
 S**2 before annihilation     2.0066,   after     2.0000
 QCSCF skips out because SCF is already converged.
 PrsmSu:  requested number of processors reduced to:  13 ShMem   1 Linda.
   1 Symmetry operations used in ECPInt.
 ECPInt:  NShTT=    8911 NPrTT=   52776 LenC2=    7779 LenP2D=   27179.
 LDataN:  DoStor=T MaxTD1= 7 Len=  274
 Calling FoFJK, ICntrl=      2127 FMM=F ISym2X=0 I1Cent= 0 IOpClX= 1 NMat=1 NMatS=1 NMatT=0.
 ***** Axes restored to original set *****
 -------------------------------------------------------------------
 Center     Atomic                   Forces (Hartrees/Bohr)
 Number     Number              X              Y              Z
 -------------------------------------------------------------------
      1        6           0.000019968    0.000602701   -0.000315984
      2        6          -0.000140546   -0.000398800    0.000863188
      3        6          -0.000361781   -0.001008477   -0.000775138
      4        6           0.000456767   -0.001200351    0.000827080
      5        6          -0.001815979    0.001917890    0.001542251
      6        6           0.002314715   -0.003654839    0.000082833
      7        8          -0.001072070   -0.000161814    0.000590556
      8        6           0.003466040   -0.009665649    0.002775682
      9        6          -0.002468481   -0.003663457    0.002600141
     10        6          -0.000114628   -0.000225533    0.000165332
     11        6           0.000039892    0.000208594   -0.000048878
     12        8           0.000398375    0.000616995   -0.000615227
     13        6          -0.000727287    0.000415168    0.000119549
     14        6          -0.000368804    0.001161613   -0.000324682
     15        6           0.000173276   -0.004674058    0.003342914
     16        7           0.001107523    0.007992894   -0.004697388
     17        7          -0.001386795    0.007869350   -0.005730221
     18        1           0.000020346   -0.000358620   -0.000233952
     19        1          -0.000177756    0.000224381    0.000297977
     20        1          -0.000192659    0.000361443   -0.000226636
     21        1          -0.000039827    0.000555428    0.000535123
     22        1           0.000126359   -0.000173973   -0.000519096
     23        1           0.000772282    0.000658979   -0.000001548
     24        1           0.000107731    0.000610538    0.000126475
     25        1          -0.000640280   -0.000289410    0.000648333
     26        1          -0.000573770    0.000465477   -0.000254422
     27        1          -0.000496022    0.000603228   -0.000315955
     28        1          -0.000619976    0.000319149    0.000636162
     29        1           0.000027939    0.000107875   -0.000167786
     30        1          -0.000294830   -0.000072732    0.000056241
     31        1           0.000099943    0.000028975   -0.000699471
     32        1          -0.000600417   -0.000225172    0.000369385
     33        1           0.000475632    0.000476274    0.000152482
     34        1           0.000206856   -0.000167045    0.000042804
     35        1          -0.000495870    0.000615514   -0.000187369
     36       28          -0.000192457    0.001976113    0.000117508
     37        9           0.001979543   -0.000891477    0.000943060
     38        9           0.000987048   -0.000957172   -0.001721321
 -------------------------------------------------------------------
 Cartesian Forces:  Max     0.009665649 RMS     0.001913970

 GradGradGradGradGradGradGradGradGradGradGradGradGradGradGradGradGradGrad
 Berny optimization.
 Using GEDIIS/GDIIS optimizer.
 FormGI is forming the generalized inverse of G from B-inverse, IUseBI=4.
 Internal  Forces:  Max     0.008981111 RMS     0.001102745
 Search for a local minimum.
 Step number   7 out of a maximum of  228
 All quantities printed in internal units (Hartrees-Bohrs-Radians)
 Mixed Optimization -- RFO/linear search
 Update second derivatives using D2CorX and points    5    6    7
 DE= -1.89D-03 DEPred=-1.81D-03 R= 1.05D+00
 TightC=F SS=  1.41D+00  RLast= 3.50D-01 DXNew= 1.7590D+00 1.0490D+00
 Trust test= 1.05D+00 RLast= 3.50D-01 DXMaxT set to 1.05D+00
 ITU=  1  0  1  1  1  1  0
 Use linear search instead of GDIIS.
     Eigenvalues ---    0.00228   0.00230   0.00253   0.00695   0.00863
     Eigenvalues ---    0.01379   0.01538   0.01795   0.01974   0.01983
     Eigenvalues ---    0.02022   0.02038   0.02125   0.02159   0.02195
     Eigenvalues ---    0.02229   0.02413   0.03054   0.03089   0.03222
     Eigenvalues ---    0.03414   0.03888   0.04117   0.04693   0.04717
     Eigenvalues ---    0.04761   0.05091   0.05163   0.05201   0.05403
     Eigenvalues ---    0.05454   0.05584   0.05736   0.06836   0.08931
     Eigenvalues ---    0.08970   0.10138   0.10558   0.10674   0.10747
     Eigenvalues ---    0.11488   0.12440   0.12670   0.13889   0.14177
     Eigenvalues ---    0.15988   0.16000   0.16000   0.16000   0.16000
     Eigenvalues ---    0.16000   0.16002   0.16009   0.16030   0.16049
     Eigenvalues ---    0.16078   0.16574   0.17815   0.19060   0.19812
     Eigenvalues ---    0.20305   0.20611   0.21123   0.22234   0.22570
     Eigenvalues ---    0.23569   0.24394   0.24732   0.24849   0.25083
     Eigenvalues ---    0.25797   0.26528   0.27619   0.28223   0.28626
     Eigenvalues ---    0.29668   0.30493   0.34500   0.34534   0.34602
     Eigenvalues ---    0.34621   0.34635   0.34678   0.34681   0.34732
     Eigenvalues ---    0.34739   0.34778   0.34791   0.34801   0.34850
     Eigenvalues ---    0.35040   0.35108   0.35628   0.35961   0.36179
     Eigenvalues ---    0.36396   0.37470   0.40397   0.41093   0.42170
     Eigenvalues ---    0.42614   0.44962   0.46339   0.48299   0.49421
     Eigenvalues ---    0.50787   0.54508   0.68296
 RFO step:  Lambda=-1.78498971D-03 EMin= 2.28088862D-03
 Quartic linear search produced a step of  0.04759.
 Iteration  1 RMS(Cart)=  0.06954995 RMS(Int)=  0.00107099
 Iteration  2 RMS(Cart)=  0.00204590 RMS(Int)=  0.00015449
 Iteration  3 RMS(Cart)=  0.00000117 RMS(Int)=  0.00015449
 Iteration  4 RMS(Cart)=  0.00000000 RMS(Int)=  0.00015449
 Variable       Old X    -DE/DX   Delta X   Delta X   Delta X     New X
                                 (Linear)    (Quad)   (Total)
    R1        2.89898  -0.00038  -0.00009  -0.00209  -0.00218   2.89680
    R2        2.06969   0.00041   0.00009   0.00133   0.00143   2.07112
    R3        2.07144   0.00025   0.00018   0.00240   0.00258   2.07402
    R4        2.06894   0.00036   0.00008   0.00106   0.00113   2.07008
    R5        2.91136   0.00073  -0.00024  -0.00381  -0.00405   2.90731
    R6        2.07457   0.00072   0.00012   0.00203   0.00215   2.07672
    R7        2.07178   0.00042   0.00013   0.00173   0.00186   2.07364
    R8        2.89748  -0.00038  -0.00003  -0.00017  -0.00021   2.89727
    R9        2.92301  -0.00069   0.00048   0.00048   0.00095   2.92396
   R10        2.06776   0.00089  -0.00000   0.00128   0.00128   2.06904
   R11        2.06324  -0.00010   0.00008   0.00048   0.00056   2.06380
   R12        2.07098   0.00083  -0.00001   0.00095   0.00094   2.07192
   R13        2.06785   0.00054   0.00008   0.00197   0.00205   2.06990
   R14        2.93403   0.00271   0.00044   0.00674   0.00716   2.94119
   R15        2.77761   0.00236   0.00066   0.01002   0.01083   2.78844
   R16        2.06820   0.00040   0.00007   0.00155   0.00162   2.06982
   R17        2.78221  -0.00070   0.00004  -0.00259  -0.00277   2.77945
   R18        2.06299   0.00080   0.00012   0.00210   0.00222   2.06521
   R19        2.05422  -0.00002  -0.00002   0.00094   0.00093   2.05515
   R20        2.53181   0.00012   0.00004   0.00210   0.00209   2.53391
   R21        2.78447  -0.00302  -0.00048  -0.00709  -0.00757   2.77690
   R22        2.40438   0.00898   0.00072   0.01307   0.01408   2.41846
   R23        2.61347  -0.00081  -0.00009  -0.00066  -0.00074   2.61273
   R24        2.54904   0.00417   0.00032   0.00724   0.00745   2.55649
   R25        2.65759  -0.00095  -0.00012  -0.00217  -0.00231   2.65528
   R26        2.04620   0.00026   0.00006   0.00062   0.00068   2.04688
   R27        2.54497  -0.00151  -0.00036  -0.00270  -0.00306   2.54191
   R28        2.64905  -0.00087  -0.00021  -0.00244  -0.00267   2.64638
   R29        2.69968  -0.00095  -0.00014  -0.00203  -0.00217   2.69751
   R30        2.06912   0.00069   0.00013   0.00202   0.00215   2.07127
   R31        2.05842   0.00038   0.00006   0.00128   0.00134   2.05976
   R32        2.06920   0.00068   0.00013   0.00202   0.00215   2.07136
   R33        2.63936  -0.00164  -0.00020  -0.00375  -0.00396   2.63540
   R34        2.04438   0.00024   0.00007   0.00071   0.00078   2.04517
   R35        2.51499   0.00037  -0.00004   0.00085   0.00081   2.51580
   R36        2.05005   0.00015   0.00002   0.00050   0.00052   2.05057
   R37        3.94458  -0.00100   0.00063   0.00381   0.00434   3.94892
   R38        3.84111   0.00310   0.00138   0.02531   0.02679   3.86790
   R39        3.41916   0.00088   0.00020   0.00304   0.00325   3.42240
   R40        3.47385   0.00118   0.00062   0.01309   0.01372   3.48757
    A1        1.95043  -0.00004   0.00000  -0.00045  -0.00045   1.94998
    A2        1.95691   0.00020  -0.00001  -0.00076  -0.00077   1.95614
    A3        1.93162  -0.00047  -0.00005  -0.00184  -0.00189   1.92973
    A4        1.88350   0.00009  -0.00008  -0.00057  -0.00065   1.88285
    A5        1.87368   0.00020   0.00003   0.00134   0.00136   1.87504
    A6        1.86346   0.00004   0.00011   0.00253   0.00264   1.86610
    A7        2.03455   0.00245  -0.00028  -0.00465  -0.00494   2.02961
    A8        1.90155  -0.00089  -0.00002  -0.00018  -0.00021   1.90134
    A9        1.89815  -0.00058   0.00030   0.00342   0.00371   1.90186
   A10        1.89740  -0.00051  -0.00021  -0.00057  -0.00079   1.89661
   A11        1.87521  -0.00110   0.00000  -0.00127  -0.00126   1.87395
   A12        1.84812   0.00048   0.00028   0.00409   0.00437   1.85249
   A13        1.98649   0.00019   0.00005  -0.00069  -0.00072   1.98577
   A14        1.95108   0.00114  -0.00039  -0.00986  -0.01028   1.94080
   A15        1.87915  -0.00079   0.00051   0.00726   0.00778   1.88693
   A16        1.96837  -0.00133   0.00045  -0.00407  -0.00367   1.96470
   A17        1.82992   0.00088  -0.00058   0.00634   0.00575   1.83567
   A18        1.83553  -0.00013  -0.00006   0.00339   0.00337   1.83891
   A19        1.90977  -0.00054  -0.00010  -0.00654  -0.00664   1.90313
   A20        1.98368  -0.00047   0.00026   0.00076   0.00103   1.98471
   A21        1.91390  -0.00048  -0.00019  -0.00252  -0.00271   1.91119
   A22        1.91630   0.00067   0.00007   0.00510   0.00518   1.92147
   A23        1.86164   0.00053   0.00004   0.00486   0.00489   1.86653
   A24        1.87440   0.00037  -0.00010  -0.00125  -0.00136   1.87304
   A25        2.04467  -0.00112   0.00034  -0.00959  -0.00917   2.03551
   A26        1.92316   0.00066   0.00046   0.01249   0.01290   1.93605
   A27        1.90002  -0.00016  -0.00041  -0.00157  -0.00202   1.89800
   A28        1.77622  -0.00002  -0.00006   0.00122   0.00131   1.77754
   A29        1.92505   0.00100  -0.00063  -0.00278  -0.00364   1.92141
   A30        1.88680  -0.00030   0.00038   0.00150   0.00182   1.88862
   A31        1.82312   0.00189   0.00025   0.00244   0.00267   1.82579
   A32        1.97208  -0.00026   0.00014   0.00228   0.00236   1.97444
   A33        2.00793  -0.00069  -0.00023  -0.00770  -0.00788   2.00005
   A34        1.86649  -0.00043  -0.00001   0.00535   0.00536   1.87185
   A35        1.86009  -0.00060   0.00003   0.00186   0.00188   1.86197
   A36        1.92226   0.00017  -0.00016  -0.00282  -0.00299   1.91927
   A37        1.83392   0.00011  -0.00023  -0.00042  -0.00063   1.83328
   A38        2.10981   0.00011  -0.00038  -0.00698  -0.00781   2.10200
   A39        2.06447   0.00023   0.00045   0.00453   0.00510   2.06958
   A40        2.10697  -0.00031  -0.00006   0.00358   0.00367   2.11064
   A41        2.16433  -0.00070  -0.00027  -0.00589  -0.00625   2.15808
   A42        1.97087  -0.00053  -0.00009   0.00084   0.00070   1.97157
   A43        2.14768   0.00124   0.00038   0.00550   0.00584   2.15352
   A44        2.06462  -0.00052  -0.00015  -0.00220  -0.00234   2.06227
   A45        2.11881   0.00012   0.00006   0.00038   0.00044   2.11924
   A46        2.09976   0.00040   0.00009   0.00182   0.00191   2.10167
   A47        2.02762  -0.00033  -0.00002  -0.00072  -0.00073   2.02688
   A48        2.06999   0.00058   0.00009   0.00171   0.00178   2.07177
   A49        2.18557  -0.00025  -0.00007  -0.00099  -0.00105   2.18452
   A50        2.06454   0.00001  -0.00024   0.00043   0.00019   2.06473
   A51        1.93724   0.00008   0.00002   0.00032   0.00034   1.93758
   A52        1.84759  -0.00094  -0.00062  -0.00539  -0.00602   1.84157
   A53        1.93683   0.00008   0.00001   0.00022   0.00023   1.93706
   A54        1.91202   0.00037   0.00024   0.00219   0.00243   1.91445
   A55        1.91690   0.00002   0.00009   0.00028   0.00038   1.91727
   A56        1.91201   0.00038   0.00024   0.00230   0.00254   1.91454
   A57        2.07104   0.00008  -0.00014  -0.00180  -0.00196   2.06908
   A58        2.13054  -0.00017   0.00000   0.00001   0.00003   2.13056
   A59        2.08160   0.00009   0.00013   0.00179   0.00194   2.08354
   A60        2.13903   0.00188   0.00052   0.00811   0.00863   2.14766
   A61        2.10900  -0.00013  -0.00001   0.00040   0.00039   2.10939
   A62        2.03516  -0.00175  -0.00051  -0.00850  -0.00902   2.02614
   A63        2.07400  -0.00326  -0.00070  -0.01129  -0.01195   2.06205
   A64        1.96584   0.00196   0.00057   0.00509   0.00556   1.97140
   A65        2.24334   0.00131   0.00014   0.00625   0.00637   2.24971
   A66        1.89650  -0.00214  -0.00046  -0.00788  -0.00867   1.88783
   A67        2.34561   0.00360   0.00062   0.02774   0.02811   2.37371
   A68        1.96931  -0.00101   0.00023  -0.00402  -0.00423   1.96507
   A69        1.40154  -0.00008  -0.00058  -0.00316  -0.00353   1.39801
   A70        1.85707  -0.00197  -0.00074  -0.04495  -0.04610   1.81096
   A71        1.89162  -0.00093  -0.00056  -0.02629  -0.02692   1.86470
   A72        1.98799   0.00022   0.00011   0.00526   0.00467   1.99266
   A73        1.66438   0.00187   0.00035  -0.00649  -0.00650   1.65788
   A74        2.40099   0.00096   0.00091   0.05540   0.05530   2.45628
    D1       -0.95555   0.00017  -0.00098  -0.00279  -0.00377  -0.95931
    D2       -3.10991  -0.00024  -0.00047   0.00157   0.00110  -3.10880
    D3        1.16650  -0.00002  -0.00094  -0.00502  -0.00597   1.16053
    D4        1.16179   0.00040  -0.00109  -0.00439  -0.00547   1.15632
    D5       -0.99257  -0.00001  -0.00057  -0.00004  -0.00060  -0.99317
    D6       -2.99935   0.00021  -0.00105  -0.00663  -0.00768  -3.00703
    D7       -3.04279   0.00026  -0.00098  -0.00294  -0.00392  -3.04671
    D8        1.08603  -0.00015  -0.00047   0.00142   0.00095   1.08698
    D9       -0.92075   0.00008  -0.00094  -0.00518  -0.00612  -0.92687
   D10        1.14865  -0.00054   0.00073  -0.00581  -0.00507   1.14357
   D11       -1.10659   0.00014   0.00041   0.00933   0.00972  -1.09687
   D12       -3.11420   0.00014   0.00038   0.00627   0.00666  -3.10754
   D13       -2.97804  -0.00034   0.00031  -0.00995  -0.00963  -2.98766
   D14        1.04991   0.00034  -0.00001   0.00519   0.00516   1.05507
   D15       -0.95770   0.00035  -0.00004   0.00213   0.00211  -0.95560
   D16       -0.98543  -0.00060   0.00054  -0.00610  -0.00557  -0.99099
   D17        3.04252   0.00008   0.00021   0.00903   0.00922   3.05174
   D18        1.03491   0.00009   0.00018   0.00598   0.00617   1.04107
   D19        2.92516  -0.00041   0.00009  -0.01936  -0.01925   2.90591
   D20       -1.20905  -0.00028   0.00030  -0.01711  -0.01680  -1.22585
   D21        0.88891  -0.00046   0.00021  -0.02000  -0.01979   0.86912
   D22       -1.11155   0.00017  -0.00000  -0.03756  -0.03756  -1.14911
   D23        1.03742   0.00030   0.00020  -0.03531  -0.03511   1.00231
   D24        3.13538   0.00012   0.00011  -0.03820  -0.03810   3.09728
   D25        0.87613  -0.00011  -0.00019  -0.03182  -0.03201   0.84412
   D26        3.02511   0.00002   0.00002  -0.02958  -0.02956   2.99555
   D27       -1.16013  -0.00016  -0.00007  -0.03247  -0.03254  -1.19267
   D28        1.38284   0.00110  -0.00572   0.04995   0.04416   1.42701
   D29       -2.88191   0.00083  -0.00524   0.05456   0.04941  -2.83250
   D30       -0.81554   0.00075  -0.00476   0.06277   0.05804  -0.75750
   D31       -0.88186   0.00099  -0.00585   0.06311   0.05716  -0.82470
   D32        1.13657   0.00072  -0.00537   0.06772   0.06241   1.19898
   D33       -3.08025   0.00064  -0.00488   0.07593   0.07104  -3.00921
   D34       -2.86613   0.00066  -0.00534   0.05559   0.05016  -2.81596
   D35       -0.84770   0.00039  -0.00487   0.06020   0.05541  -0.79229
   D36        1.21867   0.00031  -0.00438   0.06841   0.06404   1.28271
   D37        1.87581   0.00012   0.00041   0.00951   0.00990   1.88571
   D38       -2.38510   0.00061   0.00062   0.01847   0.01908  -2.36601
   D39       -0.15689  -0.00002   0.00033   0.00966   0.00998  -0.14691
   D40       -0.22210  -0.00007  -0.00029  -0.00175  -0.00213  -0.22423
   D41        1.80017   0.00041  -0.00008   0.00721   0.00706   1.80723
   D42       -2.25480  -0.00022  -0.00038  -0.00160  -0.00204  -2.25685
   D43       -2.22142  -0.00012  -0.00045  -0.00296  -0.00341  -2.22483
   D44       -0.19915   0.00036  -0.00024   0.00600   0.00578  -0.19337
   D45        2.02906  -0.00026  -0.00054  -0.00282  -0.00333   2.02574
   D46       -1.97517   0.00013  -0.00064   0.00161   0.00097  -1.97421
   D47        0.72431   0.00081   0.00043   0.04444   0.04509   0.76940
   D48        0.20612  -0.00087  -0.00004  -0.00262  -0.00246   0.20366
   D49        2.90560  -0.00019   0.00103   0.04022   0.04166   2.94726
   D50        2.23354   0.00013  -0.00062  -0.00458  -0.00521   2.22833
   D51       -1.35016   0.00081   0.00045   0.03825   0.03891  -1.31125
   D52        0.16865   0.00028   0.00042   0.00373   0.00404   0.17269
   D53       -1.92600  -0.00016   0.00013  -0.00265  -0.00259  -1.92859
   D54        2.30144   0.00016   0.00030  -0.00298  -0.00275   2.29869
   D55       -3.11752  -0.00128  -0.00068  -0.02485  -0.02500   3.14066
   D56       -0.04234  -0.00060  -0.00045  -0.00539  -0.00558  -0.04792
   D57       -0.16638   0.00072   0.00038   0.02269   0.02281  -0.14357
   D58        2.94923   0.00131   0.00098   0.04176   0.04223   2.99147
   D59        3.04324   0.00001   0.00012   0.00273   0.00289   3.04613
   D60       -0.12433   0.00059   0.00072   0.02181   0.02231  -0.10202
   D61       -0.11500   0.00085   0.00030   0.00506   0.00505  -0.10995
   D62       -2.91847  -0.00104  -0.00069  -0.03690  -0.03719  -2.95566
   D63        2.96030   0.00154   0.00052   0.02407   0.02412   2.98441
   D64        0.15683  -0.00035  -0.00046  -0.01790  -0.01812   0.13870
   D65        3.11281   0.00057   0.00063   0.02101   0.02150   3.13431
   D66       -0.02803   0.00052   0.00053   0.01795   0.01836  -0.00967
   D67       -0.00024  -0.00005  -0.00002   0.00014   0.00018  -0.00006
   D68       -3.14107  -0.00010  -0.00011  -0.00292  -0.00296   3.13915
   D69       -3.11304  -0.00066  -0.00076  -0.02577  -0.02641  -3.13945
   D70        0.02420  -0.00040  -0.00053  -0.01404  -0.01456   0.00964
   D71        0.00286  -0.00011  -0.00019  -0.00710  -0.00725  -0.00440
   D72        3.14010   0.00015   0.00004   0.00463   0.00460  -3.13849
   D73        3.13698   0.00006   0.00008   0.00183   0.00188   3.13886
   D74       -0.00409   0.00013   0.00013   0.00501   0.00511   0.00102
   D75       -0.00537   0.00011   0.00017   0.00484   0.00499  -0.00038
   D76        3.13675   0.00018   0.00022   0.00803   0.00822  -3.13821
   D77       -3.13729   0.00003   0.00005   0.00300   0.00305  -3.13425
   D78        0.00373  -0.00004  -0.00000  -0.00042  -0.00042   0.00331
   D79        0.00575  -0.00007  -0.00005  -0.00337  -0.00344   0.00231
   D80       -3.13668  -0.00008  -0.00007  -0.00408  -0.00416  -3.14084
   D81       -3.13526   0.00001   0.00000   0.00013   0.00011  -3.13515
   D82        0.00549  -0.00001  -0.00002  -0.00058  -0.00061   0.00488
   D83       -1.07135  -0.00008  -0.00011  -0.00249  -0.00259  -1.07395
   D84        3.13851  -0.00001  -0.00003  -0.00209  -0.00212   3.13639
   D85        1.06542   0.00005   0.00004  -0.00175  -0.00171   1.06371
   D86       -0.00327  -0.00008  -0.00015  -0.00369  -0.00384  -0.00712
   D87        3.13471   0.00002  -0.00006  -0.00094  -0.00100   3.13371
   D88        3.13913  -0.00007  -0.00013  -0.00300  -0.00314   3.13599
   D89       -0.00607   0.00003  -0.00004  -0.00025  -0.00029  -0.00636
   D90       -0.00105   0.00017   0.00027   0.00889   0.00910   0.00805
   D91       -3.13751  -0.00012   0.00000  -0.00494  -0.00491   3.14077
   D92       -3.13917   0.00007   0.00018   0.00623   0.00636  -3.13281
   D93        0.00755  -0.00022  -0.00009  -0.00760  -0.00765  -0.00009
   D94        0.03896   0.00037   0.00026   0.00480   0.00510   0.04406
   D95        1.99761   0.00070   0.00026   0.01240   0.01266   2.01027
   D96       -1.57496  -0.00175  -0.00001   0.00862   0.00879  -1.56617
   D97       -3.10750   0.00064   0.00051   0.01788   0.01846  -3.08904
   D98       -1.14885   0.00097   0.00052   0.02548   0.02602  -1.12283
   D99        1.56176  -0.00148   0.00025   0.02170   0.02216   1.58392
   D100      -2.79066  -0.00040  -0.00085  -0.03628  -0.03762  -2.82828
   D101       1.68182   0.00181   0.00021   0.01465   0.01485   1.69667
   D102      -0.90963  -0.00162  -0.00149  -0.06214  -0.06412  -0.97374
   D103      -0.10447   0.00016   0.00013   0.00757   0.00751  -0.09696
   D104      -1.91517   0.00236   0.00119   0.05849   0.05998  -1.85519
   D105       1.77657  -0.00107  -0.00051  -0.01830  -0.01899   1.75758
         Item               Value     Threshold  Converged?
 Maximum Force            0.008981     0.000450     NO 
 RMS     Force            0.001103     0.000300     NO 
 Maximum Displacement     0.321272     0.001800     NO 
 RMS     Displacement     0.069136     0.001200     NO 
 Predicted change in Energy=-9.570637D-04
 GradGradGradGradGradGradGradGradGradGradGradGradGradGradGradGradGradGrad

                          Input orientation:                          
 ---------------------------------------------------------------------
 Center     Atomic      Atomic             Coordinates (Angstroms)
 Number     Number       Type             X           Y           Z
 ---------------------------------------------------------------------
      1          6           0       -6.004862    1.532505   -2.459327
      2          6           0       -4.896137    2.257191   -3.230951
      3          6           0       -3.548091    1.523364   -3.336794
      4          6           0       -3.612117    0.227721   -4.154000
      5          6           0       -2.913672    1.314418   -1.941098
      6          6           0       -3.432518    0.102787   -1.113355
      7          8           0       -2.326043   -0.865876   -1.140106
      8          6           0       -1.290859   -0.197135   -1.668455
      9          6           0        0.008274   -0.859327   -1.850407
     10          6           0        0.303001   -2.116773   -1.356906
     11          6           0        1.581223   -2.644234   -1.606470
     12          8           0        1.825216   -3.868371   -1.105167
     13          6           0        3.112712   -4.444824   -1.323566
     14          6           0        2.494621   -1.875904   -2.338935
     15          6           0        2.097284   -0.616766   -2.787921
     16          7           0        0.886225   -0.113264   -2.559459
     17          7           0       -1.474804    1.008414   -2.056645
     18          1           0       -6.189384    0.529431   -2.860558
     19          1           0       -5.766237    1.430227   -1.392954
     20          1           0       -6.945763    2.089797   -2.523443
     21          1           0       -4.726050    3.240815   -2.771330
     22          1           0       -5.243097    2.454055   -4.253194
     23          1           0       -2.850216    2.169900   -3.878775
     24          1           0       -2.595732   -0.099080   -4.383960
     25          1           0       -4.164218   -0.579475   -3.658284
     26          1           0       -4.108806    0.422869   -5.110554
     27          1           0       -3.021735    2.238657   -1.363347
     28          1           0       -3.622741    0.348623   -0.065627
     29          1           0       -4.297631   -0.399578   -1.539905
     30          1           0       -0.424120   -2.685897   -0.790664
     31          1           0        3.307638   -4.577255   -2.394002
     32          1           0        3.083772   -5.417467   -0.832463
     33          1           0        3.900150   -3.827969   -0.875348
     34          1           0        3.492820   -2.228898   -2.563147
     35          1           0        2.777207    0.012985   -3.352360
     36         28           0        0.102811    1.735163   -3.139407
     37          9           0        1.124502    2.935145   -2.247152
     38          9           0       -0.700424    1.483827   -4.781864
 ---------------------------------------------------------------------
                    Distance matrix (angstroms):
                    1          2          3          4          5
     1  C    0.000000
     2  C    1.532920   0.000000
     3  C    2.608784   1.538485   0.000000
     4  C    3.209299   2.572835   1.533171   0.000000
     5  C    3.141906   2.546117   1.547293   2.562357   0.000000
     6  C    3.236153   3.356763   2.641038   3.048506   1.556410
     7  O    4.585442   4.553083   3.468041   3.454490   2.395951
     8  C    5.083203   4.632834   3.292199   3.427343   2.234424
     9  C    6.499957   5.972591   4.531478   4.426674   3.642961
    10  C    7.370325   7.048025   5.656984   5.352433   4.739340
    11  C    8.701793   8.283665   6.831746   6.458237   5.998916
    12  O    9.607982   9.339061   7.932426   7.459084   7.072280
    13  C   10.961230  10.615875   9.167259   8.664142   8.358679
    14  C    9.158218   8.514780   7.004650   6.709095   6.291746
    15  C    8.388808   7.573893   6.062316   5.930986   5.436567
    16  N    7.085596   6.285355   4.790194   4.784759   4.106077
    17  N    4.578018   3.826743   2.490477   3.094590   1.475579
    18  H    1.095989   2.189711   2.862015   2.899366   3.491690
    19  H    1.097522   2.195262   2.950824   3.702652   2.907060
    20  H    1.095437   2.174754   3.539289   4.152016   4.147059
    21  H    2.156625   1.098953   2.158003   3.497336   2.772184
    22  H    2.155806   1.097322   2.139864   2.761611   3.474302
    23  H    3.517512   2.147810   1.094888   2.104353   2.119073
    24  H    4.241279   3.489027   2.153107   1.092117   2.840183
    25  H    3.047282   2.960574   2.214701   1.096411   2.845949
    26  H    3.443156   2.741812   2.161415   1.095344   3.502664
    27  H    3.255591   2.646068   2.164068   3.490009   1.095304
    28  H    3.578529   3.909405   3.476510   4.090174   2.225518
    29  H    2.737320   3.205663   2.736481   2.774334   2.239215
    30  H    7.191942   7.098455   5.827508   5.473987   4.850144
    31  H   11.138047  10.710372   9.225369   8.606300   8.580305
    32  H   11.556473  11.328375   9.921110   9.366733   9.083870
    33  H   11.373343  10.952293   9.495882   9.145072   8.602799
    34  H   10.215914   9.536539   8.015761   7.684135   7.347461
    35  H    8.957186   7.995713   6.503144   6.442997   6.005955
    36  Ni   6.148759   5.026965   3.662363   4.135513   3.272941
    37  F    7.269130   6.138044   5.001357   5.779427   4.362027
    38  F    5.790820   4.539541   3.193586   3.232641   3.605151
                    6          7          8          9         10
     6  C    0.000000
     7  O    1.470819   0.000000
     8  C    2.232665   1.340885   0.000000
     9  C    3.648008   2.440002   1.469473   0.000000
    10  C    4.351995   2.919524   2.514450   1.382599   0.000000
    11  C    5.738195   4.318192   3.773723   2.391562   1.405116
    12  O    6.588924   5.123392   4.848214   3.593189   2.334225
    13  C    7.972765   6.513262   6.128070   4.771885   3.649028
    14  C    6.367750   5.069137   4.194957   2.730203   2.413628
    15  C    5.822425   4.726856   3.592883   2.302548   2.741765
    16  N    4.559544   3.591609   2.353852   1.352835   2.408388
    17  N    2.354273   2.253356   1.279796   2.393848   3.662925
    18  H    3.291664   4.453340   5.093580   6.431175   7.170385
    19  H    2.699355   4.143785   4.770034   6.228668   7.029805
    20  H    4.275448   5.656097   6.159465   7.583465   8.461715
    21  H    3.777477   5.028503   4.983611   6.330331   7.483028
    22  H    4.320330   5.405780   5.415706   6.657986   7.748558
    23  H    3.501369   4.122014   3.594436   4.632651   5.888818
    24  H    3.381984   3.344143   3.014345   3.711834   4.651536
    25  H    2.734507   3.130835   3.515934   4.555922   5.255061
    26  H    4.066623   4.539115   4.491468   5.405824   6.324848
    27  H    2.189334   3.189350   3.003683   4.360698   5.479387
    28  H    1.092865   2.076280   2.881767   4.222423   4.812175
    29  H    1.087537   2.065050   3.016320   4.341498   4.914068
    30  H    4.114772   2.655541   2.777712   2.155546   1.083160
    31  H    8.304971   6.861848   6.392029   5.000429   4.019625
    32  H    8.544831   7.076562   6.862080   5.592096   4.347679
    33  H    8.323191   6.899969   6.384242   4.991020   4.012427
    34  H    7.449762   6.143455   5.273720   3.811271   3.412116
    35  H    6.601659   5.631130   4.407817   3.268605   3.826147
    36  Ni   4.389543   4.081904   2.799963   2.898592   4.249094
    37  F    5.483993   5.251626   3.997504   3.975096   5.195121
    38  F    4.778030   4.628838   3.587139   3.819170   5.069667
                   11         12         13         14         15
    11  C    0.000000
    12  O    1.345121   0.000000
    13  C    2.380676   1.427460   0.000000
    14  C    1.400404   2.437255   2.830611   0.000000
    15  C    2.402658   3.671323   4.222494   1.394594   0.000000
    16  N    2.792314   4.134911   5.024647   2.396344   1.331304
    17  N    4.783701   5.964769   7.163833   4.914805   3.991965
    18  H    8.486885   9.308913  10.659950   9.026055   8.365877
    19  H    8.404285   9.262188  10.646914   8.948026   8.244457
    20  H    9.795988  10.697726  12.054621  10.241176   9.443100
    21  H    8.704734   9.809980  11.072997   8.860354   7.838310
    22  H    8.920148   9.992206  11.224829   9.071119   8.090621
    23  H    6.926537   8.124856   9.264998   6.878003   5.782148
    24  H    5.624874   6.671043   7.799861   5.766361   4.983948
    25  H    6.440750   7.294419   8.564201   6.910973   6.321813
    26  H    7.352698   8.346885   9.496633   7.521402   6.707535
    27  H    6.714831   7.800986   9.072041   6.950653   6.032181
    28  H    6.197793   6.967346   8.362169   6.894822   6.407928
    29  H    6.293158   7.050586   8.445353   6.996619   6.519175
    30  H    2.165335   2.560599   3.985848   3.401806   3.824632
    31  H    2.708742   2.088346   1.096070   2.821582   4.160000
    32  H    3.247701   2.014456   1.089979   3.893485   5.276713
    33  H    2.704291   2.088014   1.096115   2.815699   4.149709
    34  H    2.177599   2.755809   2.567366   1.082255   2.144065
    35  H    3.396957   4.584876   4.909239   2.162125   1.085115
    36  Ni   4.869776   6.205192   7.109783   4.404693   3.103714
    37  F    5.634584   6.934188   7.698697   5.003184   3.722206
    38  F    5.685941   6.967279   7.851670   5.240611   4.026844
                   16         17         18         19         20
    16  N    0.000000
    17  N    2.661850   0.000000
    18  H    7.111115   4.806554   0.000000
    19  H    6.928085   4.362890   1.773231   0.000000
    20  H    8.136020   5.596310   1.766494   1.761908   0.000000
    21  H    6.541588   4.008116   3.082355   2.502026   2.512651
    22  H    6.857729   4.595077   2.557161   3.082673   2.454342
    23  H    4.573230   2.561439   3.857194   3.902512   4.314724
    24  H    3.931034   2.810590   3.953494   4.619199   5.213011
    25  H    5.189580   3.509927   2.442813   3.425943   4.018690
    26  H    5.634347   4.075192   3.066372   4.193137   4.185704
    27  H    4.715334   2.094554   3.898345   2.861246   4.094628
    28  H    5.173328   3.002184   3.798945   2.743399   4.484977
    29  H    5.290920   3.196532   2.487149   2.350870   3.765228
    30  H    3.385865   4.044079   6.918169   6.770779   8.266898
    31  H    5.081124   7.361063  10.793023  10.928273  12.231050
    32  H    5.995523   7.973154  11.201347  11.203916  12.641598
    33  H    5.071391   7.326404  11.168110  11.016151  12.464751
    34  H    3.357120   5.950968  10.071837  10.024405  11.296757
    35  H    2.054371   4.555146   8.994906   8.879093   9.976793
    36  Ni   2.089680   2.046804   6.412742   6.130971   7.084319
    37  F    3.073616   3.241138   7.723772   7.104697   8.119121
    38  F    3.163422   2.872716   5.893298   6.095083   6.668727
                   21         22         23         24         25
    21  H    0.000000
    22  H    1.755634   0.000000
    23  H    2.427354   2.438608   0.000000
    24  H    4.277118   3.680236   2.338428   0.000000
    25  H    3.961939   3.274172   3.055206   1.793748   0.000000
    26  H    3.713998   2.479394   2.480614   1.757773   1.765462
    27  H    2.427226   3.651310   2.522206   3.843254   3.809708
    28  H    4.111313   4.959245   4.295805   4.461298   3.749899
    29  H    3.866835   4.049576   3.763979   3.327973   2.130185
    30  H    7.586538   7.850526   6.245089   4.931460   5.162227
    31  H   11.216271  11.225461   9.254611   7.672272   8.567922
    32  H   11.820253  11.958219  10.102494   8.553077   9.161047
    33  H   11.312550  11.596233   9.516431   8.271122   9.128607
    34  H    9.874762  10.054976   7.830352   6.702384   7.908865
    35  H    8.188733   8.431820   6.049570   5.472224   6.973377
    36  Ni   5.071525   5.507817   3.075066   3.492204   4.882040
    37  F    5.881935   6.693427   4.364193   5.254771   6.504953
    38  F    4.830623   4.675115   2.430611   2.501223   4.185393
                   26         27         28         29         30
    26  H    0.000000
    27  H    4.303530   0.000000
    28  H    5.068832   2.370130   0.000000
    29  H    3.669007   2.935877   1.785715   0.000000
    30  H    6.473237   5.597035   4.468240   4.559902   0.000000
    31  H    9.347970   9.358412   8.815654   8.719093   4.480396
    32  H   10.205135   9.806900   8.877677   8.953479   4.446181
    33  H   10.007496   9.217082   8.642538   8.910618   4.473344
    34  H    8.444281   7.989868   7.969469   8.067500   4.323536
    35  H    7.118738   6.522079   7.202403   7.314953   4.908640
    36  Ni   4.831692   3.629143   5.024973   5.145815   5.033887
    37  F    6.472876   4.296217   5.829705   6.404694   6.009634
    38  F    3.584792   4.200537   5.663171   5.195903   5.778635
                   31         32         33         34         35
    31  H    0.000000
    32  H    1.787310   0.000000
    33  H    1.794104   1.787405   0.000000
    34  H    2.361712   3.650967   2.360426   0.000000
    35  H    4.719122   5.994470   4.706328   2.482136   0.000000
    36  Ni   7.118509   8.085063   7.105927   5.247668   3.188047
    37  F    7.824564   8.695184   7.438131   5.690003   3.534394
    38  F    7.648736   8.806008   8.039983   6.024146   4.037422
                   36         37         38
    36  Ni   0.000000
    37  F    1.811058   0.000000
    38  F    1.845541   3.444045   0.000000
 Stoichiometry    C13H18F2N2NiO2(3)
 Framework group  C1[X(C13H18F2N2NiO2)]
 Deg. of freedom   108
 Full point group                 C1      NOp   1
 Largest Abelian subgroup         C1      NOp   1
 Largest concise Abelian subgroup C1      NOp   1
                         Standard orientation:                         
 ---------------------------------------------------------------------
 Center     Atomic      Atomic             Coordinates (Angstroms)
 Number     Number       Type             X           Y           Z
 ---------------------------------------------------------------------
      1          6           0        5.046454   -1.951005   -0.053798
      2          6           0        4.672848   -0.497841    0.260169
      3          6           0        3.181962   -0.217783    0.516607
      4          6           0        2.634658   -0.892482    1.779879
      5          6           0        2.330718   -0.526838   -0.737977
      6          6           0        1.942837   -2.016469   -0.968107
      7          8           0        0.504100   -2.075774   -0.668394
      8          6           0        0.120797   -0.796516   -0.547776
      9          6           0       -1.278222   -0.463974   -0.245264
     10          6           0       -2.300723   -1.394474   -0.229739
     11          6           0       -3.596549   -0.950595    0.083558
     12          8           0       -4.560343   -1.888918    0.083701
     13          6           0       -5.896080   -1.487024    0.386901
     14          6           0       -3.793043    0.407450    0.363263
     15          6           0       -2.693164    1.263572    0.316206
     16          7           0       -1.462068    0.848738    0.025197
     17          7           0        1.007660    0.120517   -0.649772
     18          1           0        4.696204   -2.637399    0.725548
     19          1           0        4.628272   -2.286813   -1.011353
     20          1           0        6.133957   -2.062078   -0.124377
     21          1           0        5.014777    0.144277   -0.563522
     22          1           0        5.225258   -0.171925    1.150528
     23          1           0        3.062466    0.856543    0.690753
     24          1           0        1.661185   -0.460327    2.021360
     25          1           0        2.552747   -1.982706    1.697300
     26          1           0        3.297515   -0.678416    2.625204
     27          1           0        2.846890   -0.131959   -1.619640
     28          1           0        2.071487   -2.338339   -2.004545
     29          1           0        2.430704   -2.720021   -0.297483
     30          1           0       -2.117805   -2.438314   -0.453735
     31          1           0       -5.961349   -1.071401    1.399010
     32          1           0       -6.495308   -2.395300    0.323531
     33          1           0       -6.259951   -0.752858   -0.341155
     34          1           0       -4.767335    0.807935    0.611542
     35          1           0       -2.803978    2.323753    0.519212
     36         28           0        0.302818    1.960936   -0.097087
     37          9           0        0.006382    3.088344   -1.483091
     38          9           0        1.071529    1.930075    1.580456
 ---------------------------------------------------------------------
 Rotational constants (GHZ):           0.4743019           0.1842900           0.1482859
 Basis read from rwf:  (6D, 7F)
 Pseudo-potential data read from rwf file.
 There are   398 symmetry adapted cartesian basis functions of A   symmetry.
 There are   395 symmetry adapted basis functions of A   symmetry.
   395 basis functions,   758 primitive gaussians,   398 cartesian basis functions
    82 alpha electrons       80 beta electrons
       nuclear repulsion energy      1877.8042629826 Hartrees.
 NAtoms=   38 NActive=   38 NUniq=   38 SFac= 1.00D+00 NAtFMM=   60 NAOKFM=F Big=F
 Integral buffers will be    131072 words long.
 Raffenetti 2 integral format.
 Two-electron integral symmetry is turned on.
 Nuclear repulsion after empirical dispersion term =     1877.7243806383 Hartrees.
 One-electron integrals computed using PRISM.
 PrsmSu:  requested number of processors reduced to:  12 ShMem   1 Linda.
   1 Symmetry operations used in ECPInt.
 ECPInt:  NShTT=    8911 NPrTT=   52776 LenC2=    7768 LenP2D=   27109.
 LDataN:  DoStor=T MaxTD1= 6 Len=  172
 NBasis=   395 RedAO= T EigKep=  1.12D-06  NBF=   395
 NBsUse=   395 1.00D-06 EigRej= -1.00D+00 NBFU=   395
 Initial guess from the checkpoint file:  "Lig2214_xyz_3.chk"
 B after Tr=    -0.000000    0.000000   -0.000000
         Rot=    0.999978   -0.003570   -0.001402   -0.005435 Ang=  -0.76 deg.
 Initial guess <Sx>= 0.0000 <Sy>= 0.0000 <Sz>= 1.0000 <S**2>= 2.0066 S= 1.0022
 ExpMin= 2.40D-02 ExpMax= 7.14D+04 ExpMxC= 1.07D+04 IAcc=3 IRadAn=         5 AccDes= 0.00D+00
 Harris functional with IExCor=  402 and IRadAn=       5 diagonalized for initial guess.
 HarFok:  IExCor=  402 AccDes= 0.00D+00 IRadAn=         5 IDoV= 1 UseB2=F ITyADJ=14
 ICtDFT=  3500011 ScaDFX=  1.000000  1.000000  1.000000  1.000000
 FoFCou: FMM=F IPFlag=           0 FMFlag=      100000 FMFlg1=           0
         NFxFlg=           0 DoJE=T BraDBF=F KetDBF=T FulRan=T
         wScrn=  0.000000 ICntrl=       500 IOpCl=  0 I1Cent=   200000004 NGrid=           0
         NMat0=    1 NMatS0=      1 NMatT0=    0 NMatD0=    1 NMtDS0=    0 NMtDT0=    0
 Petite list used in FoFCou.
 Requested convergence on RMS density matrix=1.00D-08 within  32 cycles.
 Requested convergence on MAX density matrix=1.00D-06.
 Requested convergence on             energy=1.00D-06.
 No special actions if energy rises.
 Restarting incremental Fock formation.
 >>>>>>>>>> Convergence criterion not met.
 SCF Done:  E(UB3LYP) =  -1135.38247256     A.U. after   33 cycles
            NFock= 32  Conv=0.14D-07     -V/T= 2.0665
 <Sx>= 0.0000 <Sy>= 0.0000 <Sz>= 1.0000 <S**2>= 2.0064 S= 1.0021
 <L.S>=  0.00000000000    
 Annihilation of the first spin contaminant:
 S**2 before annihilation     2.0064,   after     2.0000
 SCF Done:  E(UB3LYP) =  -1135.38247256     a.u. after    1 cycles
            Convg  =    0.1139D-06                     1 Fock formations.
              S**2 =  2.0064                  -V/T =  2.0665
 <Sx>= 0.0000 <Sy>= 0.0000 <Sz>= 1.0000 <S**2>= 2.0064 S= 1.0021
 <L.S>=  0.00000000000    
 Annihilation of the first spin contaminant:
 S**2 before annihilation     2.0064,   after     2.0000
 PrsmSu:  requested number of processors reduced to:  13 ShMem   1 Linda.
   1 Symmetry operations used in ECPInt.
 ECPInt:  NShTT=    8911 NPrTT=   52776 LenC2=    7768 LenP2D=   27109.
 LDataN:  DoStor=T MaxTD1= 7 Len=  274
 Calling FoFJK, ICntrl=      2127 FMM=F ISym2X=0 I1Cent= 0 IOpClX= 1 NMat=1 NMatS=1 NMatT=0.
 ***** Axes restored to original set *****
 -------------------------------------------------------------------
 Center     Atomic                   Forces (Hartrees/Bohr)
 Number     Number              X              Y              Z
 -------------------------------------------------------------------
      1        6          -0.000502673    0.000170428    0.000132099
      2        6          -0.000083865    0.000630980   -0.000261873
      3        6           0.001395881   -0.001789097    0.000664889
      4        6           0.000804818    0.000934457   -0.001198548
      5        6          -0.000139184    0.000578936    0.003382693
      6        6           0.001492237   -0.001924622   -0.000314883
      7        8          -0.001072558    0.002374820   -0.000270113
      8        6           0.001452828   -0.001725057    0.000229209
      9        6          -0.000576403   -0.000818079    0.001283173
     10        6          -0.000259324    0.000453859   -0.000205455
     11        6           0.000176993   -0.000256361    0.000148694
     12        8           0.000210837   -0.000097944   -0.000171899
     13        6          -0.000314607   -0.000262977    0.000267591
     14        6          -0.000002075    0.000348923   -0.000055589
     15        6           0.000194914   -0.000532812    0.000335197
     16        7           0.000235980    0.002427578   -0.000957284
     17        7          -0.003812240   -0.000431955   -0.002665721
     18        1          -0.000171871    0.000152522   -0.000026702
     19        1          -0.000172022    0.000274514   -0.000494320
     20        1           0.000084211   -0.000090201    0.000097273
     21        1          -0.000257603    0.000006843   -0.000199636
     22        1          -0.000235519    0.000119298    0.000248096
     23        1           0.000783500    0.000795505    0.000071642
     24        1           0.000893935   -0.000453284    0.000326713
     25        1           0.000633740   -0.000023621   -0.000309877
     26        1          -0.000054715   -0.000059544    0.000035028
     27        1           0.000413616    0.000153502   -0.000614223
     28        1           0.000185227    0.000105755   -0.000005866
     29        1           0.000135412    0.000096697    0.000500479
     30        1          -0.000055600    0.000122822   -0.000146554
     31        1           0.000067319    0.000022698    0.000058440
     32        1           0.000182914    0.000047507   -0.000111991
     33        1           0.000004249   -0.000073770   -0.000083173
     34        1          -0.000087650    0.000142395    0.000079943
     35        1          -0.000059736    0.000148498   -0.000170731
     36       28          -0.001942672   -0.000466456   -0.001730656
     37        9           0.000513453   -0.000836882   -0.000207832
     38        9          -0.000061749   -0.000265877    0.002341767
 -------------------------------------------------------------------
 Cartesian Forces:  Max     0.003812240 RMS     0.000888460

 GradGradGradGradGradGradGradGradGradGradGradGradGradGradGradGradGradGrad
 Berny optimization.
 Using GEDIIS/GDIIS optimizer.
 FormGI is forming the generalized inverse of G from B-inverse, IUseBI=4.
 Internal  Forces:  Max     0.004761033 RMS     0.000876388
 Search for a local minimum.
 Step number   8 out of a maximum of  228
 All quantities printed in internal units (Hartrees-Bohrs-Radians)
 Mixed Optimization -- En-DIIS/RFO-DIIS
 Update second derivatives using D2CorX and points    5    6    7    8
 DE= -3.70D-04 DEPred=-9.57D-04 R= 3.87D-01
 Trust test= 3.87D-01 RLast= 2.72D-01 DXMaxT set to 1.05D+00
 ITU=  0  1  0  1  1  1  1  0
 Use linear search instead of GDIIS.
     Eigenvalues ---    0.00226   0.00230   0.00255   0.00666   0.00916
     Eigenvalues ---    0.01360   0.01390   0.01772   0.01974   0.01985
     Eigenvalues ---    0.02022   0.02037   0.02114   0.02125   0.02192
     Eigenvalues ---    0.02229   0.02337   0.03067   0.03146   0.03218
     Eigenvalues ---    0.03596   0.03923   0.04132   0.04705   0.04726
     Eigenvalues ---    0.04914   0.05077   0.05179   0.05221   0.05413
     Eigenvalues ---    0.05466   0.05733   0.05825   0.06768   0.08540
     Eigenvalues ---    0.08928   0.10130   0.10490   0.10705   0.10828
     Eigenvalues ---    0.11476   0.12532   0.12629   0.13974   0.15900
     Eigenvalues ---    0.15969   0.16000   0.16000   0.16000   0.16000
     Eigenvalues ---    0.16002   0.16005   0.16011   0.16034   0.16056
     Eigenvalues ---    0.16465   0.16708   0.17627   0.18953   0.19822
     Eigenvalues ---    0.20526   0.21006   0.21579   0.22541   0.23565
     Eigenvalues ---    0.23758   0.24354   0.24805   0.25020   0.25220
     Eigenvalues ---    0.25784   0.26612   0.27628   0.28606   0.28983
     Eigenvalues ---    0.29394   0.30478   0.34499   0.34539   0.34600
     Eigenvalues ---    0.34623   0.34643   0.34670   0.34679   0.34720
     Eigenvalues ---    0.34743   0.34774   0.34797   0.34829   0.34848
     Eigenvalues ---    0.35020   0.35153   0.35611   0.35943   0.36175
     Eigenvalues ---    0.36408   0.38144   0.40810   0.41678   0.42175
     Eigenvalues ---    0.42631   0.44952   0.46262   0.48245   0.49503
     Eigenvalues ---    0.51028   0.54497   0.66608
 RFO step:  Lambda=-7.96395401D-04 EMin= 2.26361444D-03
 Quartic linear search produced a step of -0.37397.
 Iteration  1 RMS(Cart)=  0.04611532 RMS(Int)=  0.00065673
 Iteration  2 RMS(Cart)=  0.00105793 RMS(Int)=  0.00005944
 Iteration  3 RMS(Cart)=  0.00000028 RMS(Int)=  0.00005944
 Variable       Old X    -DE/DX   Delta X   Delta X   Delta X     New X
                                 (Linear)    (Quad)   (Total)
    R1        2.89680   0.00017   0.00081  -0.00095  -0.00013   2.89667
    R2        2.07112  -0.00011  -0.00053   0.00069   0.00016   2.07128
    R3        2.07402  -0.00053  -0.00096   0.00016  -0.00080   2.07321
    R4        2.07008  -0.00012  -0.00042   0.00053   0.00011   2.07018
    R5        2.90731   0.00175   0.00151   0.00372   0.00523   2.91255
    R6        2.07672  -0.00012  -0.00080   0.00139   0.00058   2.07730
    R7        2.07364  -0.00014  -0.00070   0.00092   0.00023   2.07387
    R8        2.89727   0.00018   0.00008   0.00071   0.00079   2.89806
    R9        2.92396  -0.00042  -0.00036  -0.00011  -0.00047   2.92349
   R10        2.06904   0.00093  -0.00048   0.00240   0.00192   2.07096
   R11        2.06380   0.00089  -0.00021   0.00116   0.00095   2.06476
   R12        2.07192  -0.00043  -0.00035   0.00022  -0.00013   2.07178
   R13        2.06990  -0.00002  -0.00077   0.00156   0.00079   2.07069
   R14        2.94119   0.00022  -0.00268   0.00733   0.00463   2.94581
   R15        2.78844  -0.00412  -0.00405   0.00176  -0.00238   2.78606
   R16        2.06982  -0.00023  -0.00061   0.00091   0.00031   2.07013
   R17        2.77945  -0.00104   0.00104  -0.00417  -0.00303   2.77641
   R18        2.06521  -0.00001  -0.00083   0.00154   0.00071   2.06592
   R19        2.05515  -0.00036  -0.00035  -0.00061  -0.00096   2.05419
   R20        2.53391  -0.00048  -0.00078   0.00049  -0.00023   2.53367
   R21        2.77690  -0.00036   0.00283  -0.00591  -0.00308   2.77382
   R22        2.41846  -0.00012  -0.00527   0.00929   0.00392   2.42238
   R23        2.61273  -0.00045   0.00028  -0.00079  -0.00052   2.61221
   R24        2.55649   0.00122  -0.00279   0.00563   0.00289   2.55938
   R25        2.65528   0.00041   0.00086  -0.00127  -0.00040   2.65488
   R26        2.04688  -0.00010  -0.00025   0.00024  -0.00001   2.04686
   R27        2.54191   0.00035   0.00114  -0.00132  -0.00017   2.54174
   R28        2.64638   0.00031   0.00100  -0.00147  -0.00046   2.64592
   R29        2.69751   0.00003   0.00081  -0.00155  -0.00074   2.69677
   R30        2.07127  -0.00005  -0.00080   0.00140   0.00060   2.07187
   R31        2.05976  -0.00010  -0.00050   0.00082   0.00032   2.06008
   R32        2.07136  -0.00007  -0.00081   0.00137   0.00056   2.07192
   R33        2.63540  -0.00006   0.00148  -0.00277  -0.00128   2.63412
   R34        2.04517  -0.00014  -0.00029   0.00027  -0.00003   2.04514
   R35        2.51580   0.00008  -0.00030   0.00051   0.00020   2.51600
   R36        2.05057   0.00014  -0.00019   0.00055   0.00036   2.05093
   R37        3.94892  -0.00103  -0.00162   0.00241   0.00083   3.94975
   R38        3.86790  -0.00168  -0.01002   0.01717   0.00711   3.87501
   R39        3.42240  -0.00038  -0.00121   0.00057  -0.00064   3.42176
   R40        3.48757  -0.00201  -0.00513   0.00507  -0.00006   3.48751
    A1        1.94998   0.00018   0.00017   0.00080   0.00097   1.95095
    A2        1.95614  -0.00012   0.00029  -0.00007   0.00021   1.95636
    A3        1.92973   0.00005   0.00071  -0.00253  -0.00182   1.92791
    A4        1.88285   0.00010   0.00024   0.00192   0.00216   1.88501
    A5        1.87504  -0.00013  -0.00051   0.00029  -0.00022   1.87482
    A6        1.86610  -0.00009  -0.00099  -0.00035  -0.00134   1.86475
    A7        2.02961   0.00171   0.00185   0.00869   0.01053   2.04014
    A8        1.90134  -0.00057   0.00008  -0.00253  -0.00247   1.89886
    A9        1.90186  -0.00070  -0.00139  -0.00335  -0.00474   1.89712
   A10        1.89661  -0.00040   0.00029   0.00051   0.00080   1.89741
   A11        1.87395  -0.00030   0.00047  -0.00358  -0.00309   1.87085
   A12        1.85249   0.00015  -0.00163  -0.00047  -0.00211   1.85037
   A13        1.98577   0.00100   0.00027   0.01219   0.01236   1.99812
   A14        1.94080   0.00111   0.00384   0.00912   0.01284   1.95364
   A15        1.88693  -0.00053  -0.00291  -0.00608  -0.00888   1.87805
   A16        1.96470  -0.00089   0.00137   0.00024   0.00136   1.96606
   A17        1.83567  -0.00036  -0.00215  -0.00614  -0.00826   1.82741
   A18        1.83891  -0.00055  -0.00126  -0.01290  -0.01414   1.82476
   A19        1.90313  -0.00035   0.00248  -0.00846  -0.00598   1.89715
   A20        1.98471   0.00048  -0.00038   0.00158   0.00120   1.98591
   A21        1.91119   0.00013   0.00101  -0.00049   0.00053   1.91172
   A22        1.92147  -0.00036  -0.00194   0.00320   0.00127   1.92274
   A23        1.86653   0.00023  -0.00183   0.00505   0.00322   1.86975
   A24        1.87304  -0.00013   0.00051  -0.00045   0.00006   1.87310
   A25        2.03551   0.00398   0.00343   0.00790   0.01123   2.04674
   A26        1.93605  -0.00476  -0.00482  -0.01891  -0.02364   1.91241
   A27        1.89800  -0.00030   0.00075   0.00064   0.00124   1.89924
   A28        1.77754   0.00013  -0.00049   0.00031  -0.00026   1.77728
   A29        1.92141  -0.00078   0.00136   0.00627   0.00766   1.92908
   A30        1.88862   0.00163  -0.00068   0.00339   0.00270   1.89132
   A31        1.82579  -0.00054  -0.00100   0.00354   0.00245   1.82824
   A32        1.97444  -0.00058  -0.00088  -0.00128  -0.00212   1.97232
   A33        2.00005   0.00091   0.00295  -0.00156   0.00138   2.00143
   A34        1.87185   0.00084  -0.00200   0.00118  -0.00079   1.87106
   A35        1.86197  -0.00050  -0.00070   0.00135   0.00068   1.86265
   A36        1.91927  -0.00012   0.00112  -0.00247  -0.00136   1.91792
   A37        1.83328   0.00064   0.00024   0.00134   0.00153   1.83482
   A38        2.10200   0.00164   0.00292  -0.00456  -0.00145   2.10055
   A39        2.06958  -0.00152  -0.00191   0.00091  -0.00107   2.06851
   A40        2.11064  -0.00012  -0.00137   0.00398   0.00255   2.11319
   A41        2.15808   0.00043   0.00234  -0.00453  -0.00215   2.15593
   A42        1.97157  -0.00061  -0.00026   0.00001  -0.00024   1.97133
   A43        2.15352   0.00017  -0.00219   0.00456   0.00238   2.15590
   A44        2.06227   0.00008   0.00088  -0.00155  -0.00068   2.06159
   A45        2.11924  -0.00019  -0.00016  -0.00021  -0.00037   2.11887
   A46        2.10167   0.00011  -0.00071   0.00176   0.00105   2.10272
   A47        2.02688   0.00003   0.00027  -0.00049  -0.00022   2.02666
   A48        2.07177  -0.00023  -0.00066   0.00065  -0.00001   2.07176
   A49        2.18452   0.00021   0.00039  -0.00015   0.00024   2.18476
   A50        2.06473   0.00053  -0.00007   0.00175   0.00168   2.06641
   A51        1.93758   0.00001  -0.00013   0.00029   0.00016   1.93774
   A52        1.84157   0.00029   0.00225  -0.00291  -0.00066   1.84091
   A53        1.93706   0.00005  -0.00009   0.00034   0.00025   1.93731
   A54        1.91445  -0.00011  -0.00091   0.00123   0.00032   1.91477
   A55        1.91727  -0.00013  -0.00014  -0.00035  -0.00049   1.91679
   A56        1.91454  -0.00010  -0.00095   0.00138   0.00043   1.91498
   A57        2.06908   0.00025   0.00073  -0.00098  -0.00024   2.06884
   A58        2.13056  -0.00006  -0.00001  -0.00000  -0.00002   2.13055
   A59        2.08354  -0.00019  -0.00072   0.00098   0.00025   2.08379
   A60        2.14766   0.00012  -0.00323   0.00619   0.00296   2.15062
   A61        2.10939   0.00010  -0.00015   0.00081   0.00067   2.11005
   A62        2.02614  -0.00022   0.00337  -0.00700  -0.00362   2.02252
   A63        2.06205  -0.00039   0.00447  -0.00889  -0.00443   2.05761
   A64        1.97140   0.00011  -0.00208   0.00267   0.00062   1.97202
   A65        2.24971   0.00029  -0.00238   0.00616   0.00378   2.25349
   A66        1.88783   0.00152   0.00324  -0.00065   0.00262   1.89046
   A67        2.37371  -0.00209  -0.01051   0.01409   0.00371   2.37742
   A68        1.96507   0.00051   0.00158  -0.00498  -0.00323   1.96185
   A69        1.39801   0.00008   0.00132  -0.00125  -0.00000   1.39801
   A70        1.81096  -0.00078   0.01724  -0.04902  -0.03161   1.77936
   A71        1.86470  -0.00001   0.01007  -0.02719  -0.01721   1.84749
   A72        1.99266   0.00077  -0.00175   0.00862   0.00697   1.99963
   A73        1.65788  -0.00128   0.00243  -0.02680  -0.02436   1.63352
   A74        2.45628   0.00089  -0.02068   0.06556   0.04506   2.50134
    D1       -0.95931  -0.00006   0.00141   0.01106   0.01247  -0.94684
    D2       -3.10880  -0.00032  -0.00041   0.00607   0.00566  -3.10314
    D3        1.16053   0.00020   0.00223   0.00982   0.01205   1.17257
    D4        1.15632   0.00010   0.00205   0.01407   0.01612   1.17243
    D5       -0.99317  -0.00016   0.00023   0.00907   0.00930  -0.98387
    D6       -3.00703   0.00036   0.00287   0.01282   0.01569  -2.99134
    D7       -3.04671  -0.00005   0.00147   0.01187   0.01333  -3.03338
    D8        1.08698  -0.00031  -0.00036   0.00687   0.00652   1.09351
    D9       -0.92687   0.00020   0.00229   0.01062   0.01291  -0.91396
   D10        1.14357   0.00022   0.00190   0.00280   0.00476   1.14834
   D11       -1.09687  -0.00036  -0.00363  -0.01574  -0.01945  -1.11632
   D12       -3.10754   0.00001  -0.00249  -0.00165  -0.00416  -3.11170
   D13       -2.98766   0.00038   0.00360   0.00619   0.00986  -2.97780
   D14        1.05507  -0.00019  -0.00193  -0.01236  -0.01435   1.04073
   D15       -0.95560   0.00017  -0.00079   0.00173   0.00094  -0.95465
   D16       -0.99099   0.00020   0.00208   0.00406   0.00621  -0.98478
   D17        3.05174  -0.00038  -0.00345  -0.01449  -0.01800   3.03375
   D18        1.04107  -0.00001  -0.00231  -0.00039  -0.00271   1.03837
   D19        2.90591  -0.00046   0.00720  -0.01834  -0.01115   2.89476
   D20       -1.22585  -0.00086   0.00628  -0.01943  -0.01316  -1.23901
   D21        0.86912  -0.00061   0.00740  -0.01930  -0.01191   0.85721
   D22       -1.14911   0.00117   0.01405   0.00514   0.01918  -1.12993
   D23        1.00231   0.00077   0.01313   0.00404   0.01717   1.01949
   D24        3.09728   0.00102   0.01425   0.00417   0.01842   3.11570
   D25        0.84412  -0.00012   0.01197  -0.01359  -0.00161   0.84251
   D26        2.99555  -0.00052   0.01105  -0.01469  -0.00362   2.99193
   D27       -1.19267  -0.00028   0.01217  -0.01456  -0.00238  -1.19504
   D28        1.42701   0.00094  -0.01652  -0.00798  -0.02440   1.40260
   D29       -2.83250   0.00023  -0.01848  -0.01635  -0.03492  -2.86742
   D30       -0.75750  -0.00080  -0.02171  -0.02311  -0.04479  -0.80230
   D31       -0.82470  -0.00062  -0.02138  -0.03261  -0.05389  -0.87859
   D32        1.19898  -0.00133  -0.02334  -0.04098  -0.06440   1.13458
   D33       -3.00921  -0.00237  -0.02657  -0.04774  -0.07428  -3.08348
   D34       -2.81596   0.00056  -0.01876  -0.01799  -0.03669  -2.85265
   D35       -0.79229  -0.00015  -0.02072  -0.02636  -0.04720  -0.83949
   D36        1.28271  -0.00119  -0.02395  -0.03311  -0.05708   1.22564
   D37        1.88571  -0.00272  -0.00370   0.00014  -0.00359   1.88212
   D38       -2.36601  -0.00234  -0.00714   0.00306  -0.00412  -2.37014
   D39       -0.14691  -0.00224  -0.00373  -0.00296  -0.00672  -0.15362
   D40       -0.22423   0.00095   0.00080   0.01914   0.01996  -0.20427
   D41        1.80723   0.00133  -0.00264   0.02206   0.01943   1.82666
   D42       -2.25685   0.00143   0.00076   0.01604   0.01683  -2.24002
   D43       -2.22483  -0.00067   0.00128   0.01263   0.01394  -2.21089
   D44       -0.19337  -0.00029  -0.00216   0.01555   0.01340  -0.17997
   D45        2.02574  -0.00019   0.00124   0.00953   0.01080   2.03654
   D46       -1.97421  -0.00273  -0.00036  -0.01929  -0.01971  -1.99391
   D47        0.76940  -0.00256  -0.01686   0.00712  -0.00984   0.75955
   D48        0.20366  -0.00039   0.00092  -0.01955  -0.01868   0.18498
   D49        2.94726  -0.00022  -0.01558   0.00686  -0.00882   2.93844
   D50        2.22833  -0.00056   0.00195  -0.01102  -0.00910   2.21923
   D51       -1.31125  -0.00039  -0.01455   0.01539   0.00076  -1.31049
   D52        0.17269  -0.00109  -0.00151  -0.01351  -0.01499   0.15770
   D53       -1.92859  -0.00054   0.00097  -0.01442  -0.01341  -1.94200
   D54        2.29869  -0.00056   0.00103  -0.01283  -0.01179   2.28690
   D55        3.14066   0.00076   0.00935  -0.00654   0.00262  -3.13991
   D56       -0.04792   0.00071   0.00209   0.00145   0.00346  -0.04447
   D57       -0.14357  -0.00005  -0.00853   0.00935   0.00092  -0.14265
   D58        2.99147  -0.00050  -0.01579   0.01531  -0.00029   2.99118
   D59        3.04613   0.00004  -0.00108   0.00126   0.00016   3.04629
   D60       -0.10202  -0.00042  -0.00834   0.00723  -0.00105  -0.10307
   D61       -0.10995  -0.00025  -0.00189   0.01212   0.01036  -0.09959
   D62       -2.95566   0.00035   0.01391  -0.01211   0.00166  -2.95400
   D63        2.98441  -0.00024  -0.00902   0.01991   0.01109   2.99550
   D64        0.13870   0.00036   0.00678  -0.00432   0.00239   0.14109
   D65        3.13431  -0.00042  -0.00804   0.01056   0.00258   3.13688
   D66       -0.00967  -0.00030  -0.00686   0.01005   0.00323  -0.00644
   D67       -0.00006   0.00008  -0.00007   0.00401   0.00392   0.00386
   D68        3.13915   0.00020   0.00111   0.00349   0.00458  -3.13946
   D69       -3.13945   0.00048   0.00988  -0.01445  -0.00461   3.13913
   D70        0.00964   0.00033   0.00545  -0.00658  -0.00115   0.00849
   D71       -0.00440   0.00003   0.00271  -0.00854  -0.00583  -0.01023
   D72       -3.13849  -0.00012  -0.00172  -0.00067  -0.00238  -3.14087
   D73        3.13886   0.00006  -0.00070   0.00328   0.00259   3.14145
   D74        0.00102  -0.00007  -0.00191   0.00296   0.00106   0.00208
   D75       -0.00038  -0.00006  -0.00187   0.00380   0.00194   0.00157
   D76       -3.13821  -0.00019  -0.00307   0.00347   0.00041  -3.13780
   D77       -3.13425  -0.00011  -0.00114  -0.00012  -0.00126  -3.13550
   D78        0.00331   0.00003   0.00016   0.00023   0.00039   0.00370
   D79        0.00231  -0.00004   0.00129  -0.00511  -0.00382  -0.00151
   D80       -3.14084   0.00005   0.00156  -0.00294  -0.00139   3.14096
   D81       -3.13515  -0.00019  -0.00004  -0.00547  -0.00550  -3.14065
   D82        0.00488  -0.00009   0.00023  -0.00330  -0.00307   0.00181
   D83       -1.07395   0.00006   0.00097  -0.00129  -0.00032  -1.07427
   D84        3.13639   0.00002   0.00079  -0.00119  -0.00040   3.13599
   D85        1.06371  -0.00006   0.00064  -0.00130  -0.00066   1.06305
   D86       -0.00712   0.00016   0.00144   0.00050   0.00194  -0.00518
   D87        3.13371   0.00012   0.00037   0.00299   0.00336   3.13707
   D88        3.13599   0.00007   0.00118  -0.00161  -0.00043   3.13556
   D89       -0.00636   0.00003   0.00011   0.00088   0.00099  -0.00537
   D90        0.00805  -0.00015  -0.00340   0.00618   0.00279   0.01084
   D91        3.14077   0.00002   0.00183  -0.00316  -0.00133   3.13944
   D92       -3.13281  -0.00012  -0.00238   0.00380   0.00143  -3.13138
   D93       -0.00009   0.00006   0.00286  -0.00554  -0.00269  -0.00278
   D94        0.04406  -0.00014  -0.00191   0.00375   0.00185   0.04590
   D95        2.01027   0.00073  -0.00473   0.01668   0.01196   2.02223
   D96       -1.56617   0.00119  -0.00329   0.02804   0.02469  -1.54148
   D97       -3.08904  -0.00031  -0.00690   0.01274   0.00582  -3.08321
   D98       -1.12283   0.00057  -0.00973   0.02567   0.01594  -1.10688
   D99        1.58392   0.00102  -0.00829   0.03703   0.02867   1.61259
   D100      -2.82828  -0.00043   0.01407  -0.02737  -0.01312  -2.84141
   D101       1.69667   0.00047  -0.00555   0.02789   0.02241   1.71909
   D102      -0.97374  -0.00023   0.02398  -0.05085  -0.02670  -1.00044
   D103      -0.09696  -0.00013  -0.00281   0.00076  -0.00199  -0.09895
   D104      -1.85519   0.00077  -0.02243   0.05601   0.03355  -1.82164
   D105       1.75758   0.00007   0.00710  -0.02272  -0.01557   1.74202
         Item               Value     Threshold  Converged?
 Maximum Force            0.004761     0.000450     NO 
 RMS     Force            0.000876     0.000300     NO 
 Maximum Displacement     0.182152     0.001800     NO 
 RMS     Displacement     0.046230     0.001200     NO 
 Predicted change in Energy=-5.694465D-04
 GradGradGradGradGradGradGradGradGradGradGradGradGradGradGradGradGradGrad

                          Input orientation:                          
 ---------------------------------------------------------------------
 Center     Atomic      Atomic             Coordinates (Angstroms)
 Number     Number       Type             X           Y           Z
 ---------------------------------------------------------------------
      1          6           0       -6.035064    1.489979   -2.495077
      2          6           0       -4.913324    2.246803   -3.215178
      3          6           0       -3.544079    1.544837   -3.303914
      4          6           0       -3.537117    0.270839   -4.157598
      5          6           0       -2.913325    1.329818   -1.907754
      6          6           0       -3.423285    0.116174   -1.072861
      7          8           0       -2.316803   -0.849944   -1.102960
      8          6           0       -1.290050   -0.188871   -1.656493
      9          6           0        0.003290   -0.855452   -1.850160
     10          6           0        0.300221   -2.107356   -1.344801
     11          6           0        1.573742   -2.641015   -1.603846
     12          8           0        1.819666   -3.860828   -1.093276
     13          6           0        3.101231   -4.445976   -1.320685
     14          6           0        2.480017   -1.883579   -2.355778
     15          6           0        2.078819   -0.631076   -2.817594
     16          7           0        0.871949   -0.119693   -2.583911
     17          7           0       -1.480898    1.014031   -2.056234
     18          1           0       -6.185542    0.489067   -2.915679
     19          1           0       -5.835906    1.380341   -1.421792
     20          1           0       -6.983152    2.030842   -2.588353
     21          1           0       -4.777826    3.224240   -2.730788
     22          1           0       -5.235751    2.459932   -4.242310
     23          1           0       -2.854831    2.226204   -3.815462
     24          1           0       -2.500769   -0.005401   -4.366159
     25          1           0       -4.067827   -0.571693   -3.698852
     26          1           0       -4.017439    0.473075   -5.121489
     27          1           0       -3.004399    2.257439   -1.332191
     28          1           0       -3.606316    0.365609   -0.024312
     29          1           0       -4.290914   -0.388881   -1.489725
     30          1           0       -0.422072   -2.667078   -0.763231
     31          1           0        3.282794   -4.591222   -2.392135
     32          1           0        3.072776   -5.413009   -0.818230
     33          1           0        3.897473   -3.828074   -0.889041
     34          1           0        3.474919   -2.241276   -2.587007
     35          1           0        2.751764   -0.010116   -3.400209
     36         28           0        0.082628    1.722154   -3.178185
     37          9           0        1.162500    2.889696   -2.312495
     38          9           0       -0.774899    1.409262   -4.782134
 ---------------------------------------------------------------------
                    Distance matrix (angstroms):
                    1          2          3          4          5
     1  C    0.000000
     2  C    1.532850   0.000000
     3  C    2.619587   1.541253   0.000000
     4  C    3.238830   2.585834   1.533590   0.000000
     5  C    3.180543   2.559339   1.547045   2.563660   0.000000
     6  C    3.275886   3.368875   2.652031   3.090709   1.558858
     7  O    4.608546   4.559959   3.476404   3.475074   2.398936
     8  C    5.102638   4.635744   3.286394   3.393548   2.237089
     9  C    6.509891   5.971629   4.523120   4.373475   3.644909
    10  C    7.375621   7.045428   5.652900   5.319098   4.738983
    11  C    8.703638   8.280650   6.826688   6.412598   5.999470
    12  O    9.606923   9.334816   7.929559   7.426699   7.071590
    13  C   10.958405  10.612044   9.164234   8.623461   8.359386
    14  C    9.160071   8.512350   6.995908   6.640329   6.294027
    15  C    8.392734   7.571679   6.048809   5.843612   5.440075
    16  N    7.092655   6.282371   4.773926   4.697751   4.109327
    17  N    4.599950   3.826804   2.468841   3.032508   1.474318
    18  H    1.096073   2.190406   2.871011   2.933282   3.525646
    19  H    1.097098   2.195028   2.970171   3.741666   2.963139
    20  H    1.095493   2.173417   3.546189   4.175560   4.185469
    21  H    2.154963   1.099262   2.161250   3.506811   2.782550
    22  H    2.152332   1.097444   2.140033   2.772123   3.481519
    23  H    3.521267   2.144331   1.095903   2.099054   2.108620
    24  H    4.269467   3.495368   2.149441   1.092622   2.827856
    25  H    3.093475   2.982068   2.215850   1.096340   2.855986
    26  H    3.464527   2.753678   2.162481   1.095762   3.504450
    27  H    3.335599   2.681370   2.164890   3.494752   1.095467
    28  H    3.642486   3.927950   3.485720   4.134951   2.226498
    29  H    2.753708   3.211139   2.754689   2.849735   2.241970
    30  H    7.196255   7.094337   5.825996   5.464118   4.846798
    31  H   11.127177  10.705714   9.224356   8.559654   8.584009
    32  H   11.550576  11.322362   9.918318   9.335320   9.082191
    33  H   11.380524  10.951949   9.490863   9.097125   8.603987
    34  H   10.216188   9.534153   8.007181   7.612235   7.350085
    35  H    8.959793   7.992589   6.485737   6.340551   6.009665
    36  Ni   6.160088   5.023560   3.633215   4.020960   3.277751
    37  F    7.334675   6.176065   4.994341   5.687637   4.382850
    38  F    5.736417   4.503708   3.141953   3.052196   3.583467
                    6          7          8          9         10
     6  C    0.000000
     7  O    1.469215   0.000000
     8  C    2.232570   1.340761   0.000000
     9  C    3.645499   2.437451   1.467844   0.000000
    10  C    4.345404   2.913484   2.511314   1.382323   0.000000
    11  C    5.731868   4.312211   3.770555   2.390653   1.404902
    12  O    6.580691   5.116239   4.844669   3.592267   2.333805
    13  C    7.965170   6.506454   6.125280   4.771734   3.649025
    14  C    6.363478   5.064330   4.192188   2.728896   2.413226
    15  C    5.820277   4.723279   3.590680   2.300890   2.740790
    16  N    4.559379   3.590908   2.353535   1.354364   2.411030
    17  N    2.355002   2.254301   1.281869   2.395881   3.663547
    18  H    3.341421   4.477281   5.100097   6.422204   7.160600
    19  H    2.746018   4.178506   4.814802   6.267254   7.058471
    20  H    4.316865   5.681561   6.181173   7.595130   8.468685
    21  H    3.774066   5.030451   4.996801   6.346532   7.492225
    22  H    4.338622   5.415815   5.410283   6.645427   7.739681
    23  H    3.506740   4.136403   3.597537   4.639814   5.902395
    24  H    3.422226   3.375732   2.973515   3.650089   4.625188
    25  H    2.790058   3.143591   3.468981   4.480198   5.194195
    26  H    4.107528   4.559728   4.459038   5.350966   6.290007
    27  H    2.197210   3.190793   3.004762   4.359424   5.474679
    28  H    1.093240   2.074582   2.887308   4.225395   4.808355
    29  H    1.087031   2.063802   3.012142   4.334488   4.904353
    30  H    4.104832   2.647149   2.773592   2.155072   1.083153
    31  H    8.298888   6.856720   6.390052   5.000486   4.020228
    32  H    8.534372   7.067545   6.857737   5.590881   4.346456
    33  H    8.317715   6.894364   6.383039   4.992484   4.013578
    34  H    7.445497   6.138587   5.270973   3.809943   3.411703
    35  H    6.600282   5.627880   4.405537   3.266704   3.825333
    36  Ni   4.393516   4.084056   2.802107   2.900689   4.251328
    37  F    5.500776   5.249136   3.990352   3.947614   5.162410
    38  F    4.737587   4.584518   3.548104   3.785629   5.033661
                   11         12         13         14         15
    11  C    0.000000
    12  O    1.345030   0.000000
    13  C    2.381447   1.427067   0.000000
    14  C    1.400158   2.437106   2.832526   0.000000
    15  C    2.401695   3.670386   4.223686   1.393914   0.000000
    16  N    2.794656   4.137179   5.028137   2.397753   1.331411
    17  N    4.784855   5.965339   7.165795   4.916779   3.994700
    18  H    8.469050   9.291184  10.636861   9.001936   8.340504
    19  H    8.432516   9.283618  10.669049   8.982209   8.284741
    20  H    9.798772  10.697507  12.052010  10.243454   9.447629
    21  H    8.718579   9.818683  11.086034   8.882946   7.866675
    22  H    8.907881   9.982351  11.213061   9.053075   8.067656
    23  H    6.942141   8.143291   9.285288   6.890689   5.787979
    24  H    5.583769   6.651484   7.770201   5.690115   4.874643
    25  H    6.363838   7.229800   8.488883   6.811692   6.209782
    26  H    7.302922   8.311499   9.450854   7.444455   6.609950
    27  H    6.710292   7.794991   9.067228   6.947991   6.032334
    28  H    6.194167   6.960369   8.356023   6.894782   6.412220
    29  H    6.283257   7.039231   8.434002   6.987823   6.511174
    30  H    2.165776   2.561125   3.986088   3.401793   3.823633
    31  H    2.710270   2.088361   1.096388   2.824376   4.160928
    32  H    3.247807   2.013753   1.090149   3.895163   5.277527
    33  H    2.705510   2.088077   1.096413   2.818078   4.153025
    34  H    2.177354   2.755729   2.569808   1.082241   2.143597
    35  H    3.396510   4.584618   4.911558   2.162070   1.085304
    36  Ni   4.872289   6.207563   7.113937   4.407396   3.106847
    37  F    5.591070   6.891150   7.652088   4.951958   3.672956
    38  F    5.658831   6.936375   7.828782   5.227283   4.020710
                   16         17         18         19         20
    16  N    0.000000
    17  N    2.664519   0.000000
    18  H    7.091462   4.811228   0.000000
    19  H    6.971079   4.416197   1.774349   0.000000
    20  H    8.144166   5.620664   1.766464   1.760736   0.000000
    21  H    6.566842   4.026137   3.081724   2.496591   2.511563
    22  H    6.834380   4.579135   2.558586   3.079127   2.443993
    23  H    4.572619   2.540067   3.862757   3.915603   4.311264
    24  H    3.816372   2.723074   3.990732   4.659691   5.234371
    25  H    5.084170   3.450351   2.494652   3.481601   4.062699
    26  H    5.540468   4.015279   3.092980   4.221103   4.199866
    27  H    4.716316   2.095556   3.969161   2.965596   4.178488
    28  H    5.180919   3.011073   3.876552   2.820231   4.555253
    29  H    5.284397   3.191439   2.528588   2.349843   3.782882
    30  H    3.387999   4.042714   6.914613   6.791532   8.273409
    31  H    5.083652   7.363725  10.757918  10.943117  12.218014
    32  H    5.998372   7.973422  11.178115  11.219559  12.635899
    33  H    5.077251   7.330430  11.154020  11.052153  12.474076
    34  H    3.358062   5.953055  10.044267  10.058096  11.297002
    35  H    2.052329   4.557474   8.964340   8.921635   9.979640
    36  Ni   2.090117   2.050567   6.393697   6.183106   7.097073
    37  F    3.035541   3.251359   7.753745   7.214512   8.195448
    38  F    3.143565   2.843444   5.797023   6.075074   6.613732
                   21         22         23         24         25
    21  H    0.000000
    22  H    1.754583   0.000000
    23  H    2.422912   2.430146   0.000000
    24  H    4.276682   3.684200   2.325659   0.000000
    25  H    3.981251   3.293956   3.051752   1.794897   0.000000
    26  H    3.723244   2.490952   2.476051   1.760611   1.765779
    27  H    2.456791   3.672700   2.487967   3.818252   3.838743
    28  H    4.107216   4.983248   4.289448   4.495722   3.820180
    29  H    3.851229   4.072491   3.782864   3.409626   2.227876
    30  H    7.586271   7.846128   6.259285   4.938279   5.128356
    31  H   11.232529  11.211936   9.282973   7.640427   8.479136
    32  H   11.827591  11.947349  10.123118   8.537824   9.095303
    33  H   11.330842  11.584439   9.529525   8.224396   9.052351
    34  H    9.899512  10.035794   7.844311   6.623698   7.804917
    35  H    8.222160   8.403015   6.050411   5.340616   6.849188
    36  Ni   5.106901   5.473740   3.047762   3.327111   4.770650
    37  F    5.964425   6.696753   4.340285   5.100849   6.423357
    38  F    4.850319   4.614598   2.434742   2.270008   3.992626
                   26         27         28         29         30
    26  H    0.000000
    27  H    4.309174   0.000000
    28  H    5.114859   2.377366   0.000000
    29  H    3.742655   2.946684   1.784759   0.000000
    30  H    6.463872   5.589543   4.458991   4.548177   0.000000
    31  H    9.294615   9.357159   8.811162   8.708332   4.481259
    32  H   10.170308   9.799591   8.867525   8.939614   4.444899
    33  H    9.952856   9.212258   8.639536   8.901604   4.474619
    34  H    8.362220   7.987150   7.969137   8.058756   4.323656
    35  H    7.001313   6.523183   7.208538   7.307032   4.907783
    36  Ni   4.706079   3.636476   5.039388   5.141520   5.035085
    37  F    6.368852   4.327100   5.860751   6.416053   5.982376
    38  F    3.392002   4.194304   5.634093   5.141560   5.735209
                   31         32         33         34         35
    31  H    0.000000
    32  H    1.787909   0.000000
    33  H    1.794301   1.788060   0.000000
    34  H    2.365825   3.653790   2.362111   0.000000
    35  H    4.720671   5.996742   4.711201   2.482403   0.000000
    36  Ni   7.121632   8.088321   7.113246   5.250325   3.189724
    37  F    7.775997   8.649677   7.391532   5.634671   3.481062
    38  F    7.627764   8.778413   8.026016   6.017140   4.044960
                   36         37         38
    36  Ni   0.000000
    37  F    1.810717   0.000000
    38  F    1.845510   3.470492   0.000000
 Stoichiometry    C13H18F2N2NiO2(3)
 Framework group  C1[X(C13H18F2N2NiO2)]
 Deg. of freedom   108
 Full point group                 C1      NOp   1
 Largest Abelian subgroup         C1      NOp   1
 Largest concise Abelian subgroup C1      NOp   1
                         Standard orientation:                         
 ---------------------------------------------------------------------
 Center     Atomic      Atomic             Coordinates (Angstroms)
 Number     Number       Type             X           Y           Z
 ---------------------------------------------------------------------
      1          6           0        5.050542   -1.979288    0.030373
      2          6           0        4.675862   -0.509977    0.254802
      3          6           0        3.182793   -0.197010    0.474481
      4          6           0        2.595357   -0.776759    1.767040
      5          6           0        2.331571   -0.537180   -0.771734
      6          6           0        1.934693   -2.030252   -0.979733
      7          8           0        0.497810   -2.080982   -0.677431
      8          6           0        0.120611   -0.800226   -0.554867
      9          6           0       -1.274529   -0.464161   -0.246303
     10          6           0       -2.297324   -1.393844   -0.226371
     11          6           0       -3.591554   -0.947778    0.089451
     12          8           0       -4.555693   -1.885586    0.097052
     13          6           0       -5.890294   -1.484390    0.404299
     14          6           0       -3.785788    0.411067    0.365600
     15          6           0       -2.684700    1.264444    0.317114
     16          7           0       -1.453189    0.850416    0.026222
     17          7           0        1.013197    0.113559   -0.661995
     18          1           0        4.676760   -2.621929    0.835778
     19          1           0        4.659656   -2.364289   -0.919683
     20          1           0        6.139270   -2.095955   -0.003752
     21          1           0        5.038692    0.082210   -0.597280
     22          1           0        5.217823   -0.139059    1.134052
     23          1           0        3.084765    0.888697    0.586887
     24          1           0        1.630497   -0.300789    1.957622
     25          1           0        2.482311   -1.867140    1.751189
     26          1           0        3.249678   -0.528841    2.610304
     27          1           0        2.836382   -0.146288   -1.661911
     28          1           0        2.059838   -2.365704   -2.012682
     29          1           0        2.421530   -2.727727   -0.302863
     30          1           0       -2.115094   -2.438238   -0.448301
     31          1           0       -5.952200   -1.065754    1.415723
     32          1           0       -6.488280   -2.394006    0.345683
     33          1           0       -6.258082   -0.752273   -0.324301
     34          1           0       -4.759137    0.813493    0.614373
     35          1           0       -2.792288    2.325110    0.520331
     36         28           0        0.314793    1.957996   -0.100649
     37          9           0       -0.042800    3.078616   -1.477252
     38          9           0        1.086495    1.869323    1.573423
 ---------------------------------------------------------------------
 Rotational constants (GHZ):           0.4772191           0.1846731           0.1487954
 Basis read from rwf:  (6D, 7F)
 Pseudo-potential data read from rwf file.
 There are   398 symmetry adapted cartesian basis functions of A   symmetry.
 There are   395 symmetry adapted basis functions of A   symmetry.
   395 basis functions,   758 primitive gaussians,   398 cartesian basis functions
    82 alpha electrons       80 beta electrons
       nuclear repulsion energy      1880.4489875045 Hartrees.
 NAtoms=   38 NActive=   38 NUniq=   38 SFac= 1.00D+00 NAtFMM=   60 NAOKFM=F Big=F
 Integral buffers will be    131072 words long.
 Raffenetti 2 integral format.
 Two-electron integral symmetry is turned on.
 Nuclear repulsion after empirical dispersion term =     1880.3689609309 Hartrees.
 One-electron integrals computed using PRISM.
 PrsmSu:  requested number of processors reduced to:  12 ShMem   1 Linda.
   1 Symmetry operations used in ECPInt.
 ECPInt:  NShTT=    8911 NPrTT=   52776 LenC2=    7768 LenP2D=   27138.
 LDataN:  DoStor=T MaxTD1= 6 Len=  172
 NBasis=   395 RedAO= T EigKep=  1.11D-06  NBF=   395
 NBsUse=   395 1.00D-06 EigRej= -1.00D+00 NBFU=   395
 Initial guess from the checkpoint file:  "Lig2214_xyz_3.chk"
 B after Tr=     0.000000   -0.000000   -0.000000
         Rot=    0.999994    0.003490   -0.000146    0.000031 Ang=   0.40 deg.
 Initial guess <Sx>= 0.0000 <Sy>= 0.0000 <Sz>= 1.0000 <S**2>= 2.0064 S= 1.0021
 ExpMin= 2.40D-02 ExpMax= 7.14D+04 ExpMxC= 1.07D+04 IAcc=3 IRadAn=         5 AccDes= 0.00D+00
 Harris functional with IExCor=  402 and IRadAn=       5 diagonalized for initial guess.
 HarFok:  IExCor=  402 AccDes= 0.00D+00 IRadAn=         5 IDoV= 1 UseB2=F ITyADJ=14
 ICtDFT=  3500011 ScaDFX=  1.000000  1.000000  1.000000  1.000000
 FoFCou: FMM=F IPFlag=           0 FMFlag=      100000 FMFlg1=           0
         NFxFlg=           0 DoJE=T BraDBF=F KetDBF=T FulRan=T
         wScrn=  0.000000 ICntrl=       500 IOpCl=  0 I1Cent=   200000004 NGrid=           0
         NMat0=    1 NMatS0=      1 NMatT0=    0 NMatD0=    1 NMtDS0=    0 NMtDT0=    0
 Petite list used in FoFCou.
 Requested convergence on RMS density matrix=1.00D-08 within  32 cycles.
 Requested convergence on MAX density matrix=1.00D-06.
 Requested convergence on             energy=1.00D-06.
 No special actions if energy rises.
 Restarting incremental Fock formation.
 SCF Done:  E(UB3LYP) =  -1135.38293030     A.U. after   31 cycles
            NFock= 31  Conv=0.79D-08     -V/T= 2.0665
 <Sx>= 0.0000 <Sy>= 0.0000 <Sz>= 1.0000 <S**2>= 2.0063 S= 1.0021
 <L.S>=  0.00000000000    
 Annihilation of the first spin contaminant:
 S**2 before annihilation     2.0063,   after     2.0000
 QCSCF skips out because SCF is already converged.
 PrsmSu:  requested number of processors reduced to:  13 ShMem   1 Linda.
   1 Symmetry operations used in ECPInt.
 ECPInt:  NShTT=    8911 NPrTT=   52776 LenC2=    7768 LenP2D=   27138.
 LDataN:  DoStor=T MaxTD1= 7 Len=  274
 Calling FoFJK, ICntrl=      2127 FMM=F ISym2X=0 I1Cent= 0 IOpClX= 1 NMat=1 NMatS=1 NMatT=0.
 ***** Axes restored to original set *****
 -------------------------------------------------------------------
 Center     Atomic                   Forces (Hartrees/Bohr)
 Number     Number              X              Y              Z
 -------------------------------------------------------------------
      1        6           0.000131886   -0.000266457    0.000058178
      2        6           0.000402122    0.000184895   -0.000498278
      3        6           0.000448132   -0.000198741    0.000265952
      4        6          -0.000272763   -0.000063199    0.000204216
      5        6           0.000306884   -0.000924947    0.000872608
      6        6           0.000959919   -0.000272000   -0.000349935
      7        8          -0.000822832    0.002325275   -0.000436362
      8        6           0.000054663    0.001470525   -0.000605878
      9        6          -0.000060419    0.000032821    0.000069682
     10        6          -0.000091096    0.000614731   -0.000250637
     11        6           0.000307117   -0.000597398    0.000094138
     12        8          -0.000013448   -0.000049392    0.000040088
     13        6          -0.000047410   -0.000197447    0.000130869
     14        6           0.000017781   -0.000148813    0.000076493
     15        6           0.000236346    0.001096441   -0.000553996
     16        7          -0.000111628   -0.000025843    0.000446952
     17        7          -0.001186315   -0.002563141    0.001289892
     18        1           0.000116843    0.000076100    0.000027198
     19        1          -0.000118645   -0.000121287   -0.000137766
     20        1           0.000065519   -0.000073144    0.000049972
     21        1           0.000053702   -0.000135168   -0.000184322
     22        1           0.000113687    0.000069449    0.000175873
     23        1          -0.000277362    0.000652560   -0.000166579
     24        1          -0.000462160    0.000120158   -0.000354993
     25        1          -0.000258684   -0.000093431    0.000618718
     26        1           0.000170359   -0.000032794    0.000303347
     27        1           0.000008634   -0.000293017   -0.000173870
     28        1           0.000089224    0.000119842   -0.000281818
     29        1          -0.000395992   -0.000049230   -0.000399231
     30        1           0.000011999    0.000128023   -0.000111939
     31        1           0.000019801    0.000034146    0.000232643
     32        1           0.000283529    0.000135424   -0.000192417
     33        1          -0.000125603   -0.000198688   -0.000115932
     34        1          -0.000069162    0.000145578    0.000062543
     35        1           0.000129506   -0.000083391   -0.000064746
     36       28          -0.001214414   -0.001447291   -0.000352088
     37        9          -0.000276158   -0.000531231   -0.000899513
     38        9           0.001876438    0.001160080    0.001110934
 -------------------------------------------------------------------
 Cartesian Forces:  Max     0.002563141 RMS     0.000581331

 GradGradGradGradGradGradGradGradGradGradGradGradGradGradGradGradGradGrad
 Berny optimization.
 Using GEDIIS/GDIIS optimizer.
 FormGI is forming the generalized inverse of G from B-inverse, IUseBI=4.
 Internal  Forces:  Max     0.002132807 RMS     0.000432848
 Search for a local minimum.
 Step number   9 out of a maximum of  228
 All quantities printed in internal units (Hartrees-Bohrs-Radians)
 Mixed Optimization -- En-DIIS/RFO-DIIS
 Swapping is turned off.
 Update second derivatives using D2CorX and points    6    7    8    9
 DE= -4.58D-04 DEPred=-5.69D-04 R= 8.04D-01
 TightC=F SS=  1.41D+00  RLast= 2.03D-01 DXNew= 1.7643D+00 6.0930D-01
 Trust test= 8.04D-01 RLast= 2.03D-01 DXMaxT set to 1.05D+00
 ITU=  1  0  1  0  1  1  1  1  0
     Eigenvalues ---    0.00225   0.00231   0.00255   0.00686   0.00946
     Eigenvalues ---    0.01380   0.01669   0.01818   0.01973   0.01985
     Eigenvalues ---    0.02022   0.02036   0.02119   0.02125   0.02193
     Eigenvalues ---    0.02230   0.02382   0.03028   0.03139   0.03210
     Eigenvalues ---    0.03565   0.03947   0.04211   0.04685   0.04718
     Eigenvalues ---    0.04908   0.05104   0.05198   0.05301   0.05433
     Eigenvalues ---    0.05481   0.05771   0.05910   0.06801   0.07557
     Eigenvalues ---    0.09023   0.10119   0.10613   0.10707   0.10849
     Eigenvalues ---    0.11470   0.12050   0.12702   0.14130   0.15906
     Eigenvalues ---    0.15972   0.16000   0.16000   0.16000   0.16000
     Eigenvalues ---    0.16004   0.16009   0.16014   0.16034   0.16072
     Eigenvalues ---    0.16463   0.17431   0.18390   0.19242   0.19808
     Eigenvalues ---    0.20488   0.21029   0.21540   0.22628   0.23577
     Eigenvalues ---    0.23908   0.24611   0.24839   0.25022   0.25083
     Eigenvalues ---    0.25912   0.26760   0.27715   0.28624   0.28838
     Eigenvalues ---    0.30010   0.30790   0.34467   0.34530   0.34602
     Eigenvalues ---    0.34622   0.34641   0.34678   0.34684   0.34733
     Eigenvalues ---    0.34758   0.34780   0.34803   0.34839   0.34875
     Eigenvalues ---    0.35093   0.35348   0.35604   0.35943   0.36170
     Eigenvalues ---    0.36518   0.38211   0.40689   0.41521   0.42182
     Eigenvalues ---    0.42708   0.45039   0.46188   0.48061   0.49525
     Eigenvalues ---    0.51116   0.54514   0.68038
 En-DIIS/RFO-DIIS/Sim-DIIS IScMMF=       -3 using points:     9    8
 RFO step:  Lambda=-2.33404594D-04.
 DidBck=T Rises=F RFO-DIIS coefs:    0.75536    0.24464
 Iteration  1 RMS(Cart)=  0.01109868 RMS(Int)=  0.00008646
 Iteration  2 RMS(Cart)=  0.00010294 RMS(Int)=  0.00001097
 Iteration  3 RMS(Cart)=  0.00000001 RMS(Int)=  0.00001097
 Variable       Old X    -DE/DX   Delta X   Delta X   Delta X     New X
                                 (Linear)    (Quad)   (Total)
    R1        2.89667   0.00005   0.00003   0.00024   0.00028   2.89694
    R2        2.07128  -0.00011  -0.00004  -0.00011  -0.00015   2.07113
    R3        2.07321  -0.00013   0.00020  -0.00031  -0.00012   2.07310
    R4        2.07018  -0.00010  -0.00003  -0.00012  -0.00015   2.07003
    R5        2.91255  -0.00082  -0.00128  -0.00062  -0.00190   2.91064
    R6        2.07730  -0.00019  -0.00014  -0.00025  -0.00040   2.07691
    R7        2.07387  -0.00019  -0.00006  -0.00022  -0.00027   2.07359
    R8        2.89806  -0.00037  -0.00019  -0.00076  -0.00095   2.89711
    R9        2.92349  -0.00043   0.00011   0.00006   0.00018   2.92367
   R10        2.07096   0.00031  -0.00047   0.00117   0.00070   2.07166
   R11        2.06476  -0.00041  -0.00023  -0.00002  -0.00025   2.06451
   R12        2.07178   0.00047   0.00003   0.00055   0.00058   2.07236
   R13        2.07069  -0.00035  -0.00019  -0.00063  -0.00083   2.06986
   R14        2.94581  -0.00164  -0.00113  -0.00187  -0.00299   2.94282
   R15        2.78606  -0.00046   0.00058  -0.00233  -0.00174   2.78432
   R16        2.07013  -0.00034  -0.00008  -0.00070  -0.00078   2.06936
   R17        2.77641  -0.00139   0.00074  -0.00334  -0.00260   2.77381
   R18        2.06592  -0.00025  -0.00017  -0.00012  -0.00029   2.06563
   R19        2.05419   0.00048   0.00023   0.00056   0.00079   2.05498
   R20        2.53367  -0.00036   0.00006  -0.00047  -0.00042   2.53325
   R21        2.77382   0.00065   0.00075  -0.00043   0.00032   2.77414
   R22        2.42238  -0.00213  -0.00096  -0.00046  -0.00142   2.42096
   R23        2.61221  -0.00020   0.00013  -0.00064  -0.00051   2.61170
   R24        2.55938  -0.00028  -0.00071   0.00146   0.00075   2.56013
   R25        2.65488   0.00066   0.00010   0.00059   0.00069   2.65557
   R26        2.04686  -0.00014   0.00000  -0.00015  -0.00014   2.04672
   R27        2.54174   0.00031   0.00004   0.00003   0.00007   2.54181
   R28        2.64592   0.00031   0.00011   0.00021   0.00032   2.64623
   R29        2.69677   0.00020   0.00018  -0.00025  -0.00007   2.69670
   R30        2.07187  -0.00023  -0.00015  -0.00018  -0.00032   2.07155
   R31        2.06008  -0.00022  -0.00008  -0.00032  -0.00040   2.05968
   R32        2.07192  -0.00025  -0.00014  -0.00023  -0.00036   2.07156
   R33        2.63412   0.00035   0.00031   0.00002   0.00034   2.63445
   R34        2.04514  -0.00012   0.00001  -0.00016  -0.00015   2.04498
   R35        2.51600   0.00001  -0.00005   0.00021   0.00016   2.51616
   R36        2.05093   0.00007  -0.00009   0.00016   0.00007   2.05100
   R37        3.94975  -0.00111  -0.00020  -0.00892  -0.00913   3.94062
   R38        3.87501   0.00053  -0.00174  -0.00306  -0.00480   3.87021
   R39        3.42176  -0.00095   0.00016  -0.00136  -0.00121   3.42055
   R40        3.48751  -0.00201   0.00001  -0.00719  -0.00717   3.48034
    A1        1.95095  -0.00015  -0.00024  -0.00034  -0.00057   1.95038
    A2        1.95636   0.00019  -0.00005   0.00073   0.00068   1.95704
    A3        1.92791   0.00008   0.00045   0.00021   0.00066   1.92856
    A4        1.88501  -0.00007  -0.00053  -0.00019  -0.00072   1.88429
    A5        1.87482   0.00004   0.00005  -0.00005   0.00001   1.87483
    A6        1.86475  -0.00009   0.00033  -0.00041  -0.00008   1.86468
    A7        2.04014  -0.00089  -0.00258  -0.00044  -0.00301   2.03713
    A8        1.89886   0.00041   0.00060   0.00116   0.00177   1.90063
    A9        1.89712   0.00024   0.00116  -0.00017   0.00099   1.89811
   A10        1.89741   0.00020  -0.00020   0.00000  -0.00019   1.89722
   A11        1.87085   0.00026   0.00076   0.00004   0.00079   1.87165
   A12        1.85037  -0.00018   0.00052  -0.00065  -0.00013   1.85025
   A13        1.99812  -0.00052  -0.00302  -0.00161  -0.00461   1.99352
   A14        1.95364   0.00035  -0.00314   0.00193  -0.00119   1.95244
   A15        1.87805  -0.00031   0.00217  -0.00368  -0.00152   1.87653
   A16        1.96606  -0.00032  -0.00033  -0.00039  -0.00067   1.96539
   A17        1.82741   0.00065   0.00202   0.00253   0.00454   1.83195
   A18        1.82476   0.00024   0.00346   0.00131   0.00476   1.82952
   A19        1.89715   0.00051   0.00146   0.00259   0.00406   1.90120
   A20        1.98591  -0.00078  -0.00029  -0.00235  -0.00264   1.98327
   A21        1.91172   0.00002  -0.00013  -0.00009  -0.00022   1.91149
   A22        1.92274   0.00020  -0.00031  -0.00040  -0.00071   1.92203
   A23        1.86975  -0.00024  -0.00079  -0.00055  -0.00134   1.86841
   A24        1.87310   0.00030  -0.00001   0.00084   0.00083   1.87393
   A25        2.04674  -0.00087  -0.00275   0.00285   0.00012   2.04685
   A26        1.91241   0.00063   0.00578  -0.00603  -0.00027   1.91215
   A27        1.89924   0.00018  -0.00030  -0.00020  -0.00047   1.89878
   A28        1.77728   0.00016   0.00006  -0.00009  -0.00002   1.77726
   A29        1.92908   0.00023  -0.00188   0.00189   0.00003   1.92911
   A30        1.89132  -0.00031  -0.00066   0.00136   0.00071   1.89203
   A31        1.82824  -0.00056  -0.00060   0.00001  -0.00057   1.82767
   A32        1.97232  -0.00002   0.00052  -0.00195  -0.00143   1.97089
   A33        2.00143  -0.00013  -0.00034  -0.00011  -0.00046   2.00097
   A34        1.87106   0.00008   0.00019   0.00018   0.00037   1.87142
   A35        1.86265   0.00052  -0.00017   0.00213   0.00196   1.86461
   A36        1.91792   0.00012   0.00033   0.00004   0.00037   1.91829
   A37        1.83482   0.00084  -0.00038   0.00221   0.00184   1.83666
   A38        2.10055   0.00057   0.00035   0.00372   0.00406   2.10461
   A39        2.06851  -0.00082   0.00026  -0.00318  -0.00291   2.06560
   A40        2.11319   0.00025  -0.00062  -0.00057  -0.00120   2.11199
   A41        2.15593   0.00037   0.00053   0.00139   0.00191   2.15784
   A42        1.97133   0.00004   0.00006  -0.00114  -0.00109   1.97024
   A43        2.15590  -0.00041  -0.00058  -0.00025  -0.00083   2.15507
   A44        2.06159   0.00033   0.00017   0.00062   0.00079   2.06237
   A45        2.11887  -0.00027   0.00009  -0.00093  -0.00084   2.11804
   A46        2.10272  -0.00006  -0.00026   0.00031   0.00005   2.10277
   A47        2.02666   0.00023   0.00005   0.00053   0.00059   2.02725
   A48        2.07176  -0.00032   0.00000  -0.00067  -0.00067   2.07109
   A49        2.18476   0.00009  -0.00006   0.00014   0.00008   2.18485
   A50        2.06641   0.00001  -0.00041  -0.00028  -0.00069   2.06572
   A51        1.93774  -0.00002  -0.00004   0.00008   0.00005   1.93779
   A52        1.84091   0.00045   0.00016   0.00094   0.00110   1.84201
   A53        1.93731   0.00004  -0.00006   0.00037   0.00031   1.93762
   A54        1.91477  -0.00015  -0.00008  -0.00033  -0.00041   1.91436
   A55        1.91679  -0.00011   0.00012  -0.00061  -0.00049   1.91629
   A56        1.91498  -0.00018  -0.00011  -0.00041  -0.00051   1.91446
   A57        2.06884   0.00011   0.00006   0.00059   0.00065   2.06949
   A58        2.13055   0.00002   0.00000  -0.00012  -0.00011   2.13044
   A59        2.08379  -0.00014  -0.00006  -0.00048  -0.00054   2.08325
   A60        2.15062  -0.00043  -0.00072  -0.00013  -0.00085   2.14977
   A61        2.11005   0.00006  -0.00016   0.00040   0.00023   2.11029
   A62        2.02252   0.00037   0.00089  -0.00027   0.00062   2.02313
   A63        2.05761   0.00072   0.00108  -0.00016   0.00092   2.05853
   A64        1.97202  -0.00025  -0.00015   0.00083   0.00068   1.97270
   A65        2.25349  -0.00047  -0.00092  -0.00066  -0.00159   2.25190
   A66        1.89046   0.00038  -0.00064   0.00204   0.00142   1.89187
   A67        2.37742  -0.00011  -0.00091  -0.00127  -0.00220   2.37523
   A68        1.96185  -0.00024   0.00079  -0.00065   0.00014   1.96199
   A69        1.39801   0.00018   0.00000   0.00133   0.00133   1.39934
   A70        1.77936  -0.00041   0.00773   0.00120   0.00893   1.78828
   A71        1.84749   0.00063   0.00421   0.00511   0.00931   1.85680
   A72        1.99963   0.00018  -0.00171   0.00321   0.00153   2.00116
   A73        1.63352   0.00133   0.00596   0.01340   0.01936   1.65288
   A74        2.50134  -0.00119  -0.01102  -0.01567  -0.02662   2.47472
    D1       -0.94684   0.00003  -0.00305  -0.00174  -0.00480  -0.95164
    D2       -3.10314   0.00008  -0.00138  -0.00238  -0.00377  -3.10691
    D3        1.17257  -0.00005  -0.00295  -0.00214  -0.00509   1.16749
    D4        1.17243  -0.00004  -0.00394  -0.00171  -0.00565   1.16678
    D5       -0.98387   0.00002  -0.00228  -0.00235  -0.00463  -0.98850
    D6       -2.99134  -0.00012  -0.00384  -0.00211  -0.00594  -2.99728
    D7       -3.03338   0.00002  -0.00326  -0.00160  -0.00487  -3.03824
    D8        1.09351   0.00008  -0.00160  -0.00224  -0.00384   1.08966
    D9       -0.91396  -0.00006  -0.00316  -0.00200  -0.00516  -0.91912
   D10        1.14834  -0.00039  -0.00117  -0.01159  -0.01277   1.13557
   D11       -1.11632   0.00021   0.00476  -0.01137  -0.00660  -1.12292
   D12       -3.11170  -0.00009   0.00102  -0.01181  -0.01079  -3.12249
   D13       -2.97780  -0.00034  -0.00241  -0.01036  -0.01279  -2.99059
   D14        1.04073   0.00026   0.00351  -0.01014  -0.00662   1.03411
   D15       -0.95465  -0.00003  -0.00023  -0.01058  -0.01081  -0.96546
   D16       -0.98478  -0.00031  -0.00152  -0.01109  -0.01263  -0.99741
   D17        3.03375   0.00029   0.00440  -0.01087  -0.00646   3.02729
   D18        1.03837  -0.00001   0.00066  -0.01131  -0.01065   1.02772
   D19        2.89476  -0.00011   0.00273  -0.02295  -0.02023   2.87453
   D20       -1.23901  -0.00001   0.00322  -0.02316  -0.01995  -1.25896
   D21        0.85721  -0.00013   0.00291  -0.02371  -0.02080   0.83640
   D22       -1.12993  -0.00038  -0.00469  -0.02204  -0.02673  -1.15665
   D23        1.01949  -0.00029  -0.00420  -0.02225  -0.02645   0.99304
   D24        3.11570  -0.00040  -0.00451  -0.02280  -0.02730   3.08840
   D25        0.84251   0.00013   0.00039  -0.01925  -0.01885   0.82366
   D26        2.99193   0.00022   0.00089  -0.01946  -0.01857   2.97335
   D27       -1.19504   0.00011   0.00058  -0.02001  -0.01943  -1.21447
   D28        1.40260  -0.00012   0.00597   0.00046   0.00641   1.40901
   D29       -2.86742   0.00000   0.00854  -0.00229   0.00626  -2.86116
   D30       -0.80230   0.00010   0.01096  -0.00426   0.00669  -0.79561
   D31       -0.87859   0.00058   0.01318   0.00134   0.01451  -0.86408
   D32        1.13458   0.00070   0.01576  -0.00142   0.01436   1.14893
   D33       -3.08348   0.00079   0.01817  -0.00338   0.01479  -3.06870
   D34       -2.85265  -0.00018   0.00897  -0.00220   0.00677  -2.84588
   D35       -0.83949  -0.00006   0.01155  -0.00495   0.00662  -0.83287
   D36        1.22564   0.00004   0.01396  -0.00692   0.00705   1.23269
   D37        1.88212   0.00053   0.00088  -0.00209  -0.00120   1.88093
   D38       -2.37014   0.00028   0.00101  -0.00284  -0.00182  -2.37196
   D39       -0.15362   0.00032   0.00164  -0.00463  -0.00298  -0.15660
   D40       -0.20427   0.00009  -0.00488   0.00397  -0.00091  -0.20518
   D41        1.82666  -0.00016  -0.00475   0.00321  -0.00154   1.82512
   D42       -2.24002  -0.00012  -0.00412   0.00143  -0.00269  -2.24271
   D43       -2.21089   0.00027  -0.00341   0.00169  -0.00173  -2.21262
   D44       -0.17997   0.00002  -0.00328   0.00093  -0.00235  -0.18232
   D45        2.03654   0.00006  -0.00264  -0.00085  -0.00350   2.03304
   D46       -1.99391   0.00061   0.00482  -0.00400   0.00084  -1.99308
   D47        0.75955   0.00072   0.00241  -0.00350  -0.00109   0.75846
   D48        0.18498  -0.00000   0.00457  -0.00374   0.00083   0.18581
   D49        2.93844   0.00011   0.00216  -0.00324  -0.00110   2.93735
   D50        2.21923   0.00021   0.00223  -0.00110   0.00113   2.22036
   D51       -1.31049   0.00033  -0.00019  -0.00061  -0.00079  -1.31128
   D52        0.15770   0.00005   0.00367  -0.00261   0.00106   0.15876
   D53       -1.94200   0.00031   0.00328  -0.00046   0.00282  -1.93918
   D54        2.28690  -0.00013   0.00288  -0.00168   0.00121   2.28811
   D55       -3.13991  -0.00019  -0.00064   0.00111   0.00047  -3.13944
   D56       -0.04447  -0.00010  -0.00085   0.00017  -0.00068  -0.04514
   D57       -0.14265  -0.00007  -0.00022  -0.00069  -0.00091  -0.14356
   D58        2.99118   0.00007   0.00007  -0.00173  -0.00166   2.98952
   D59        3.04629  -0.00013  -0.00004   0.00034   0.00030   3.04659
   D60       -0.10307   0.00000   0.00026  -0.00070  -0.00044  -0.10351
   D61       -0.09959   0.00012  -0.00253   0.00248  -0.00006  -0.09965
   D62       -2.95400   0.00004  -0.00041   0.00243   0.00203  -2.95198
   D63        2.99550   0.00022  -0.00271   0.00165  -0.00107   2.99444
   D64        0.14109   0.00014  -0.00059   0.00160   0.00102   0.14211
   D65        3.13688   0.00021  -0.00063   0.00041  -0.00021   3.13667
   D66       -0.00644   0.00015  -0.00079   0.00077  -0.00002  -0.00646
   D67        0.00386   0.00006  -0.00096   0.00157   0.00061   0.00447
   D68       -3.13946  -0.00000  -0.00112   0.00193   0.00081  -3.13865
   D69        3.13913  -0.00024   0.00113  -0.00037   0.00076   3.13988
   D70        0.00849  -0.00022   0.00028  -0.00061  -0.00033   0.00816
   D71       -0.01023  -0.00010   0.00143  -0.00140   0.00003  -0.01020
   D72       -3.14087  -0.00008   0.00058  -0.00164  -0.00106   3.14126
   D73        3.14145  -0.00002  -0.00063   0.00043  -0.00020   3.14124
   D74        0.00208   0.00002  -0.00026   0.00001  -0.00025   0.00183
   D75        0.00157   0.00004  -0.00048   0.00008  -0.00040   0.00117
   D76       -3.13780   0.00008  -0.00010  -0.00035  -0.00045  -3.13824
   D77       -3.13550   0.00001   0.00031  -0.00125  -0.00094  -3.13645
   D78        0.00370  -0.00003  -0.00009  -0.00080  -0.00089   0.00280
   D79       -0.00151  -0.00006   0.00093  -0.00162  -0.00068  -0.00219
   D80        3.14096  -0.00005   0.00034  -0.00091  -0.00057   3.14039
   D81       -3.14065  -0.00001   0.00135  -0.00208  -0.00074  -3.14139
   D82        0.00181  -0.00000   0.00075  -0.00137  -0.00062   0.00119
   D83       -1.07427   0.00008   0.00008   0.00104   0.00112  -1.07315
   D84        3.13599   0.00001   0.00010   0.00084   0.00094   3.13693
   D85        1.06305  -0.00006   0.00016   0.00058   0.00074   1.06379
   D86       -0.00518   0.00002  -0.00047   0.00187   0.00140  -0.00378
   D87        3.13707   0.00007  -0.00082   0.00269   0.00187   3.13894
   D88        3.13556   0.00001   0.00010   0.00118   0.00129   3.13685
   D89       -0.00537   0.00006  -0.00024   0.00200   0.00176  -0.00361
   D90        0.01084   0.00007  -0.00068  -0.00038  -0.00106   0.00978
   D91        3.13944   0.00004   0.00033  -0.00008   0.00025   3.13969
   D92       -3.13138   0.00002  -0.00035  -0.00116  -0.00151  -3.13289
   D93       -0.00278  -0.00001   0.00066  -0.00086  -0.00020  -0.00298
   D94        0.04590   0.00019  -0.00045   0.00114   0.00069   0.04660
   D95        2.02223   0.00045  -0.00293   0.00453   0.00162   2.02385
   D96       -1.54148  -0.00115  -0.00604  -0.01248  -0.01855  -1.56002
   D97       -3.08321   0.00021  -0.00142   0.00086  -0.00057  -3.08378
   D98       -1.10688   0.00046  -0.00390   0.00424   0.00036  -1.10652
   D99        1.61259  -0.00113  -0.00701  -0.01276  -0.01980   1.59279
   D100      -2.84141  -0.00042   0.00321  -0.00242   0.00078  -2.84063
   D101       1.71909  -0.00003  -0.00548  -0.00399  -0.00950   1.70959
   D102      -1.00044   0.00001   0.00653   0.00060   0.00717  -0.99327
   D103      -0.09895  -0.00020   0.00049  -0.00151  -0.00103  -0.09998
   D104      -1.82164   0.00019  -0.00821  -0.00308  -0.01131  -1.83295
   D105       1.74202   0.00023   0.00381   0.00151   0.00535   1.74737
         Item               Value     Threshold  Converged?
 Maximum Force            0.002133     0.000450     NO 
 RMS     Force            0.000433     0.000300     NO 
 Maximum Displacement     0.065963     0.001800     NO 
 RMS     Displacement     0.011099     0.001200     NO 
 Predicted change in Energy=-1.178099D-04
 GradGradGradGradGradGradGradGradGradGradGradGradGradGradGradGradGradGrad

                          Input orientation:                          
 ---------------------------------------------------------------------
 Center     Atomic      Atomic             Coordinates (Angstroms)
 Number     Number       Type             X           Y           Z
 ---------------------------------------------------------------------
      1          6           0       -6.031438    1.498016   -2.504118
      2          6           0       -4.904263    2.252734   -3.218229
      3          6           0       -3.540759    1.541532   -3.304311
      4          6           0       -3.550908    0.262235   -4.149089
      5          6           0       -2.913901    1.326182   -1.906344
      6          6           0       -3.426745    0.114581   -1.073208
      7          8           0       -2.322421   -0.851953   -1.101972
      8          6           0       -1.292455   -0.193670   -1.652312
      9          6           0        0.001667   -0.859146   -1.845818
     10          6           0        0.301460   -2.111079   -1.342969
     11          6           0        1.576195   -2.642431   -1.602773
     12          8           0        1.824813   -3.862583   -1.094218
     13          6           0        3.107405   -4.444329   -1.324318
     14          6           0        2.480723   -1.881701   -2.353795
     15          6           0        2.077124   -0.629417   -2.814649
     16          7           0        0.869304   -0.120943   -2.579061
     17          7           0       -1.482400    1.008835   -2.051260
     18          1           0       -6.188345    0.501689   -2.932977
     19          1           0       -5.833438    1.377445   -1.431856
     20          1           0       -6.975982    2.045660   -2.592758
     21          1           0       -4.763255    3.227209   -2.729936
     22          1           0       -5.222035    2.472036   -4.245357
     23          1           0       -2.848574    2.216521   -3.821119
     24          1           0       -2.520593   -0.018065   -4.380214
     25          1           0       -4.071829   -0.576098   -3.671100
     26          1           0       -4.052345    0.457585   -5.103099
     27          1           0       -3.005955    2.253835   -1.331771
     28          1           0       -3.610021    0.365551   -0.025229
     29          1           0       -4.295922   -0.387803   -1.491164
     30          1           0       -0.420066   -2.672878   -0.762594
     31          1           0        3.288355   -4.586291   -2.396137
     32          1           0        3.082677   -5.412713   -0.824733
     33          1           0        3.902810   -3.826002   -0.892229
     34          1           0        3.476434   -2.236691   -2.585328
     35          1           0        2.748292   -0.007080   -3.397915
     36         28           0        0.079615    1.715910   -3.171335
     37          9           0        1.150579    2.896348   -2.313437
     38          9           0       -0.751604    1.426770   -4.789169
 ---------------------------------------------------------------------
                    Distance matrix (angstroms):
                    1          2          3          4          5
     1  C    0.000000
     2  C    1.532996   0.000000
     3  C    2.616426   1.540247   0.000000
     4  C    3.222749   2.580727   1.533086   0.000000
     5  C    3.178978   2.557554   1.547139   2.562746   0.000000
     6  C    3.278082   3.369848   2.650851   3.081926   1.557274
     7  O    4.609249   4.558896   3.473243   3.469225   2.396066
     8  C    5.103463   4.634883   3.285559   3.397404   2.236865
     9  C    6.510602   5.969544   4.520978   4.379880   3.644154
    10  C    7.381018   7.046915   5.652528   5.324253   4.740326
    11  C    8.708146   8.280620   6.825247   6.419345   6.000250
    12  O    9.614808   9.337504   7.929586   7.432681   7.073771
    13  C   10.964573  10.612463   9.162368   8.629265   8.360243
    14  C    9.159802   8.507573   6.991441   6.648316   6.292272
    15  C    8.388754   7.563692   6.042632   5.852395   5.436885
    16  N    7.088504   6.275105   4.768487   4.706388   4.106014
    17  N    4.597622   3.823381   2.467943   3.039247   1.473399
    18  H    1.095996   2.190067   2.868601   2.914162   3.529270
    19  H    1.097036   2.195592   2.964690   3.719811   2.958287
    20  H    1.095414   2.173963   3.544179   4.163400   4.182023
    21  H    2.156244   1.099052   2.160072   3.503549   2.777107
    22  H    2.153082   1.097298   2.139648   2.772210   3.480150
    23  H    3.518717   2.142579   1.096276   2.102396   2.112661
    24  H    4.259609   3.491220   2.151894   1.092491   2.842837
    25  H    3.082834   2.983341   2.213803   1.096646   2.841448
    26  H    3.428412   2.738806   2.161550   1.095324   3.502822
    27  H    3.331547   2.676247   2.164326   3.492953   1.095056
    28  H    3.645631   3.928328   3.484265   4.125577   2.223957
    29  H    2.755795   3.213295   2.753200   2.835871   2.240558
    30  H    7.205329   7.099283   5.827547   5.466755   4.849727
    31  H   11.130543  10.703601   9.220184   8.564845   8.582844
    32  H   11.560519  11.326036   9.918656   9.341350   9.085236
    33  H   11.385633  10.951066   9.488693   9.103776   8.604707
    34  H   10.215394   9.528462   8.002057   7.620599   7.347888
    35  H    8.952533   7.981268   6.477586   6.349544   6.005230
    36  Ni   6.151229   5.012925   3.627009   4.031113   3.273106
    37  F    7.319362   6.155810   4.982571   5.693167   4.376202
    38  F    5.753536   4.516043   3.161859   3.098700   3.605041
                    6          7          8          9         10
     6  C    0.000000
     7  O    1.467838   0.000000
     8  C    2.232841   1.340538   0.000000
     9  C    3.646791   2.440235   1.468011   0.000000
    10  C    4.350385   2.920313   2.512512   1.382052   0.000000
    11  C    5.736808   4.319238   3.772007   2.391299   1.405269
    12  O    6.587651   5.124793   4.846623   3.592965   2.334577
    13  C    7.971313   6.514416   6.126537   4.771908   3.649347
    14  C    6.365785   5.069283   4.192660   2.729354   2.413207
    15  C    5.820544   4.726393   3.590956   2.301941   2.741194
    16  N    4.558410   3.592113   2.353158   1.354762   2.410603
    17  N    2.353032   2.251514   1.281115   2.394581   3.663017
    18  H    3.351869   4.486680   5.108167   6.430399   7.174416
    19  H    2.741464   4.172083   4.810149   6.262759   7.057951
    20  H    4.316848   5.681041   6.180737   7.594959   8.473583
    21  H    3.770870   5.024689   4.991006   6.339121   7.488146
    22  H    4.340874   5.416413   5.410311   6.643916   7.741950
    23  H    3.507628   4.133538   3.596422   4.635236   5.898479
    24  H    3.431472   3.388439   2.996767   3.673198   4.644303
    25  H    2.764456   3.120408   3.456396   4.472711   5.186715
    26  H    4.092561   4.551543   4.466437   5.364576   6.300177
    27  H    2.195524   3.188408   3.004847   4.358977   5.476458
    28  H    1.093085   2.073549   2.886389   4.225958   4.813504
    29  H    1.087449   2.064368   3.014046   4.337882   4.911982
    30  H    4.111755   2.655165   2.774732   2.154265   1.083077
    31  H    8.303066   6.863013   6.390009   4.999677   4.019624
    32  H    8.543143   7.077603   6.860399   5.591977   4.347933
    33  H    8.323661   6.902352   6.384540   4.993044   4.014206
    34  H    7.447743   6.143661   5.271315   3.810317   3.411700
    35  H    6.599254   5.630035   4.405630   3.267869   3.825780
    36  Ni   4.388731   4.079946   2.799375   2.897237   4.247114
    37  F    5.498027   5.251585   3.994210   3.955048   5.170797
    38  F    4.763044   4.610365   3.571864   3.802123   5.049912
                   11         12         13         14         15
    11  C    0.000000
    12  O    1.345069   0.000000
    13  C    2.380962   1.427031   0.000000
    14  C    1.400327   2.437344   2.831892   0.000000
    15  C    2.402458   3.671091   4.223283   1.394093   0.000000
    16  N    2.794769   4.137345   5.027439   2.397433   1.331495
    17  N    4.784129   5.965258   7.164618   4.914577   3.992098
    18  H    8.481922   9.307986  10.651847   9.009369   8.343344
    19  H    8.431564   9.285510  10.669737   8.977598   8.277476
    20  H    9.802958  10.705463  12.058341  10.242584   9.442669
    21  H    8.712738   9.815466  11.080413   8.872297   7.853123
    22  H    8.908251   9.985747  11.213748   9.047956   8.058763
    23  H    6.936069   8.138307   9.277641   6.881124   5.777097
    24  H    5.602245   6.667882   7.784901   5.709000   4.895279
    25  H    6.359865   7.225766   8.485988   6.809979   6.208540
    26  H    7.317297   8.323218   9.464141   7.464041   6.632418
    27  H    6.711404   7.797648   9.068551   6.946281   6.029076
    28  H    6.199471   6.968306   8.363396   6.897066   6.412055
    29  H    6.291070   7.049473   8.443489   6.992766   6.513503
    30  H    2.166076   2.562197   3.987057   3.401832   3.823955
    31  H    2.709153   2.088229   1.096217   2.822919   4.159217
    32  H    3.247968   2.014384   1.089938   3.894666   5.277388
    33  H    2.705338   2.088112   1.096220   2.817590   4.152949
    34  H    2.177373   2.755864   2.569045   1.082159   2.143359
    35  H    3.397267   4.585274   4.911002   2.162402   1.085342
    36  Ni   4.867779   6.203202   7.108272   4.401874   3.101262
    37  F    5.600381   6.901032   7.661140   4.959906   3.679772
    38  F    5.668347   6.947506   7.833706   5.227328   4.016010
                   16         17         18         19         20
    16  N    0.000000
    17  N    2.661857   0.000000
    18  H    7.093894   4.814617   0.000000
    19  H    6.963332   4.410336   1.773773   0.000000
    20  H    8.138972   5.616731   1.766342   1.760571   0.000000
    21  H    6.554282   4.018183   3.082299   2.500385   2.512178
    22  H    6.826748   4.576012   2.557022   3.080216   2.447286
    23  H    4.563887   2.541129   3.857916   3.914338   4.309705
    24  H    3.840070   2.748890   3.977065   4.649215   5.225366
    25  H    5.080798   3.441080   2.487186   3.454535   4.058391
    26  H    5.561303   4.027681   3.045303   4.182877   4.167907
    27  H    4.713059   2.094972   3.970073   2.961880   4.170676
    28  H    5.179101   3.007555   3.888609   2.818884   4.554630
    29  H    5.285290   3.190644   2.539938   2.341703   3.783909
    30  H    3.387388   4.042800   6.932639   6.793940   8.282157
    31  H    5.081791   7.361011  10.769567  10.940891  12.222031
    32  H    5.998292   7.973743  11.197173  11.223722  12.646337
    33  H    5.076911   7.329358  11.168034  11.052673  12.478635
    34  H    3.357612   5.950522  10.051246  10.053169  11.295644
    35  H    2.052823   4.554593   8.963174   8.912260   9.971134
    36  Ni   2.085288   2.048026   6.388933   6.172887   7.086955
    37  F    3.041993   3.250234   7.744548   7.201440   8.175737
    38  F    3.147592   2.864415   5.818881   6.090896   6.629489
                   21         22         23         24         25
    21  H    0.000000
    22  H    1.754214   0.000000
    23  H    2.424495   2.424579   0.000000
    24  H    4.276068   3.676489   2.326700   0.000000
    25  H    3.978568   3.308151   3.052470   1.794596   0.000000
    26  H    3.715928   2.482319   2.487246   1.759281   1.766210
    27  H    2.447535   3.667098   2.494597   3.832768   3.823227
    28  H    4.102983   4.984510   4.291232   4.505542   3.793724
    29  H    3.849840   4.077001   3.782329   3.411028   2.199499
    30  H    7.585826   7.852304   6.257671   4.954536   5.117741
    31  H   11.224555  11.210099   9.272040   7.651740   8.478177
    32  H   11.825257  11.951492  10.117473   8.552211   9.092942
    33  H   11.323676  11.583244   9.522167   8.241756   9.048695
    34  H    9.887750  10.029515   7.833518   6.641405   7.804662
    35  H    8.205496   8.389891   6.037252   5.359681   6.849267
    36  Ni   5.092372   5.461935   3.040908   3.350991   4.768390
    37  F    5.937708   6.672523   4.327643   5.122781   6.416749
    38  F    4.855447   4.623101   2.440923   2.320369   4.035523
                   26         27         28         29         30
    26  H    0.000000
    27  H    4.306317   0.000000
    28  H    5.097929   2.374355   0.000000
    29  H    3.717538   2.944091   1.785207   0.000000
    30  H    6.467862   5.593146   4.466719   4.557921   0.000000
    31  H    9.308824   9.356203   8.816436   8.715936   4.481294
    32  H   10.182011   9.803289   8.878049   8.951959   4.447444
    33  H    9.968201   9.213503   8.646586   8.910620   4.475909
    34  H    8.383365   7.984835   7.971426   8.063815   4.323811
    35  H    7.026537   6.518592   7.207080   7.307640   4.908146
    36  Ni   4.731616   3.632368   5.033375   5.137500   5.031220
    37  F    6.387504   4.318942   5.856974   6.412968   5.990687
    38  F    3.454383   4.209481   5.656134   5.170271   5.755896
                   31         32         33         34         35
    31  H    0.000000
    32  H    1.787341   0.000000
    33  H    1.793693   1.787408   0.000000
    34  H    2.364696   3.652650   2.360994   0.000000
    35  H    4.718517   5.996161   4.711214   2.482268   0.000000
    36  Ni   7.114400   8.083451   7.108019   5.244506   3.184630
    37  F    7.782469   8.659662   7.401662   5.641952   3.486929
    38  F    7.629205   8.786181   8.027536   6.012834   4.029986
                   36         37         38
    36  Ni   0.000000
    37  F    1.810079   0.000000
    38  F    1.841715   3.450683   0.000000
 Stoichiometry    C13H18F2N2NiO2(3)
 Framework group  C1[X(C13H18F2N2NiO2)]
 Deg. of freedom   108
 Full point group                 C1      NOp   1
 Largest Abelian subgroup         C1      NOp   1
 Largest concise Abelian subgroup C1      NOp   1
                         Standard orientation:                         
 ---------------------------------------------------------------------
 Center     Atomic      Atomic             Coordinates (Angstroms)
 Number     Number       Type             X           Y           Z
 ---------------------------------------------------------------------
      1          6           0        5.053299   -1.968819    0.035540
      2          6           0        4.672617   -0.500183    0.255234
      3          6           0        3.178718   -0.197709    0.476903
      4          6           0        2.600544   -0.794730    1.765170
      5          6           0        2.330129   -0.540368   -0.770543
      6          6           0        1.936474   -2.032723   -0.977940
      7          8           0        0.500870   -2.085070   -0.676533
      8          6           0        0.119462   -0.805628   -0.555707
      9          6           0       -1.275608   -0.467958   -0.247790
     10          6           0       -2.300698   -1.394669   -0.226205
     11          6           0       -3.594351   -0.945565    0.089306
     12          8           0       -4.560902   -1.880931    0.098256
     13          6           0       -5.893875   -1.475241    0.406504
     14          6           0       -3.784968    0.414285    0.363875
     15          6           0       -2.681885    1.265360    0.315171
     16          7           0       -1.451672    0.847578    0.023775
     17          7           0        1.011311    0.107779   -0.663171
     18          1           0        4.688328   -2.608715    0.847043
     19          1           0        4.657279   -2.361528   -0.909148
     20          1           0        6.142189   -2.080776   -0.005913
     21          1           0        5.028959    0.091623   -0.599578
     22          1           0        5.214355   -0.122617    1.131606
     23          1           0        3.075940    0.887146    0.596683
     24          1           0        1.641996   -0.316019    1.978614
     25          1           0        2.478494   -1.883956    1.728774
     26          1           0        3.266664   -0.568229    2.604644
     27          1           0        2.836097   -0.149545   -1.659589
     28          1           0        2.062696   -2.366723   -2.011064
     29          1           0        2.425949   -2.729117   -0.301186
     30          1           0       -2.120446   -2.439654   -0.446592
     31          1           0       -5.953276   -1.054729    1.417114
     32          1           0       -6.495532   -2.382335    0.350340
     33          1           0       -6.260506   -0.743117   -0.322381
     34          1           0       -4.757271    0.819530    0.611808
     35          1           0       -2.786771    2.326234    0.518922
     36         28           0        0.313909    1.949952   -0.102420
     37          9           0       -0.027505    3.078352   -1.475933
     38          9           0        1.079622    1.898101    1.571769
 ---------------------------------------------------------------------
 Rotational constants (GHZ):           0.4774527           0.1846064           0.1487506
 Basis read from rwf:  (6D, 7F)
 Pseudo-potential data read from rwf file.
 There are   398 symmetry adapted cartesian basis functions of A   symmetry.
 There are   395 symmetry adapted basis functions of A   symmetry.
   395 basis functions,   758 primitive gaussians,   398 cartesian basis functions
    82 alpha electrons       80 beta electrons
       nuclear repulsion energy      1880.3621139906 Hartrees.
 NAtoms=   38 NActive=   38 NUniq=   38 SFac= 1.00D+00 NAtFMM=   60 NAOKFM=F Big=F
 Integral buffers will be    131072 words long.
 Raffenetti 2 integral format.
 Two-electron integral symmetry is turned on.
 Nuclear repulsion after empirical dispersion term =     1880.2820893424 Hartrees.
 One-electron integrals computed using PRISM.
 PrsmSu:  requested number of processors reduced to:  12 ShMem   1 Linda.
   1 Symmetry operations used in ECPInt.
 ECPInt:  NShTT=    8911 NPrTT=   52776 LenC2=    7767 LenP2D=   27134.
 LDataN:  DoStor=T MaxTD1= 6 Len=  172
 NBasis=   395 RedAO= T EigKep=  1.11D-06  NBF=   395
 NBsUse=   395 1.00D-06 EigRej= -1.00D+00 NBFU=   395
 Initial guess from the checkpoint file:  "Lig2214_xyz_3.chk"
 B after Tr=    -0.000000   -0.000000   -0.000000
         Rot=    1.000000    0.000510    0.000131    0.000174 Ang=   0.06 deg.
 Initial guess <Sx>= 0.0000 <Sy>= 0.0000 <Sz>= 1.0000 <S**2>= 2.0062 S= 1.0021
 ExpMin= 2.40D-02 ExpMax= 7.14D+04 ExpMxC= 1.07D+04 IAcc=3 IRadAn=         5 AccDes= 0.00D+00
 Harris functional with IExCor=  402 and IRadAn=       5 diagonalized for initial guess.
 HarFok:  IExCor=  402 AccDes= 0.00D+00 IRadAn=         5 IDoV= 1 UseB2=F ITyADJ=14
 ICtDFT=  3500011 ScaDFX=  1.000000  1.000000  1.000000  1.000000
 FoFCou: FMM=F IPFlag=           0 FMFlag=      100000 FMFlg1=           0
         NFxFlg=           0 DoJE=T BraDBF=F KetDBF=T FulRan=T
         wScrn=  0.000000 ICntrl=       500 IOpCl=  0 I1Cent=   200000004 NGrid=           0
         NMat0=    1 NMatS0=      1 NMatT0=    0 NMatD0=    1 NMtDS0=    0 NMtDT0=    0
 Petite list used in FoFCou.
 Requested convergence on RMS density matrix=1.00D-08 within  32 cycles.
 Requested convergence on MAX density matrix=1.00D-06.
 Requested convergence on             energy=1.00D-06.
 No special actions if energy rises.
 Restarting incremental Fock formation.
 SCF Done:  E(UB3LYP) =  -1135.38306505     A.U. after   32 cycles
            NFock= 32  Conv=0.51D-08     -V/T= 2.0665
 <Sx>= 0.0000 <Sy>= 0.0000 <Sz>= 1.0000 <S**2>= 2.0064 S= 1.0021
 <L.S>=  0.00000000000    
 Annihilation of the first spin contaminant:
 S**2 before annihilation     2.0064,   after     2.0000
 QCSCF skips out because SCF is already converged.
 PrsmSu:  requested number of processors reduced to:  13 ShMem   1 Linda.
   1 Symmetry operations used in ECPInt.
 ECPInt:  NShTT=    8911 NPrTT=   52776 LenC2=    7767 LenP2D=   27134.
 LDataN:  DoStor=T MaxTD1= 7 Len=  274
 Calling FoFJK, ICntrl=      2127 FMM=F ISym2X=0 I1Cent= 0 IOpClX= 1 NMat=1 NMatS=1 NMatT=0.
 ***** Axes restored to original set *****
 -------------------------------------------------------------------
 Center     Atomic                   Forces (Hartrees/Bohr)
 Number     Number              X              Y              Z
 -------------------------------------------------------------------
      1        6           0.000003769   -0.000059556   -0.000013987
      2        6          -0.000002766    0.000163858   -0.000104959
      3        6           0.000346258   -0.000147950    0.000167332
      4        6           0.000051225   -0.000087341   -0.000104913
      5        6           0.000403463   -0.000326703    0.000326057
      6        6           0.000507281   -0.000211420   -0.000158519
      7        8          -0.000465907    0.000885291   -0.000028444
      8        6          -0.000176186    0.001050048   -0.000461059
      9        6           0.000138051    0.000061813   -0.000090441
     10        6          -0.000070479    0.000298848   -0.000109340
     11        6           0.000165068   -0.000252688    0.000022492
     12        8          -0.000034945    0.000024792    0.000021978
     13        6           0.000035698   -0.000191491    0.000067733
     14        6          -0.000005618   -0.000144458    0.000052084
     15        6           0.000041460    0.000765750   -0.000295705
     16        7          -0.000157216   -0.000033446    0.000524182
     17        7          -0.000732414   -0.001432050    0.000209100
     18        1           0.000100776    0.000056656    0.000005356
     19        1          -0.000096335   -0.000006805   -0.000109651
     20        1           0.000022372   -0.000046834    0.000028744
     21        1          -0.000060760   -0.000030204   -0.000078164
     22        1           0.000011064    0.000029172    0.000114872
     23        1          -0.000037285    0.000231765    0.000122493
     24        1          -0.000012226    0.000123904    0.000072391
     25        1           0.000025106    0.000013950    0.000059882
     26        1          -0.000064212   -0.000091054    0.000033623
     27        1           0.000096901   -0.000050525   -0.000066460
     28        1          -0.000005824    0.000039190   -0.000144356
     29        1          -0.000115436   -0.000094235   -0.000115396
     30        1          -0.000003584    0.000031983   -0.000042289
     31        1           0.000001047    0.000025503    0.000109417
     32        1           0.000151545    0.000031719   -0.000087870
     33        1          -0.000071803   -0.000087004   -0.000040304
     34        1          -0.000028956    0.000094107    0.000027518
     35        1           0.000076629   -0.000051159    0.000005127
     36       28          -0.000655593   -0.000660267   -0.000314902
     37        9           0.000199833   -0.000266501   -0.000264181
     38        9           0.000420000    0.000343342    0.000660557
 -------------------------------------------------------------------
 Cartesian Forces:  Max     0.001432050 RMS     0.000287013

 GradGradGradGradGradGradGradGradGradGradGradGradGradGradGradGradGradGrad
 Berny optimization.
 Using GEDIIS/GDIIS optimizer.
 FormGI is forming the generalized inverse of G from B-inverse, IUseBI=4.
 Internal  Forces:  Max     0.001214095 RMS     0.000183415
 Search for a local minimum.
 Step number  10 out of a maximum of  228
 All quantities printed in internal units (Hartrees-Bohrs-Radians)
 Mixed Optimization -- En-DIIS/RFO-DIIS
 Swapping is turned off.
 Update second derivatives using D2CorX and points    6    7    8    9   10
 DE= -1.35D-04 DEPred=-1.18D-04 R= 1.14D+00
 TightC=F SS=  1.41D+00  RLast= 9.65D-02 DXNew= 1.7643D+00 2.8937D-01
 Trust test= 1.14D+00 RLast= 9.65D-02 DXMaxT set to 1.05D+00
 ITU=  1  1  0  1  0  1  1  1  1  0
     Eigenvalues ---    0.00200   0.00230   0.00259   0.00695   0.01028
     Eigenvalues ---    0.01379   0.01650   0.01818   0.01973   0.01983
     Eigenvalues ---    0.02021   0.02037   0.02122   0.02127   0.02194
     Eigenvalues ---    0.02229   0.02396   0.03060   0.03136   0.03246
     Eigenvalues ---    0.03595   0.03930   0.04146   0.04685   0.04724
     Eigenvalues ---    0.04913   0.05090   0.05188   0.05312   0.05448
     Eigenvalues ---    0.05478   0.05748   0.05935   0.06707   0.07181
     Eigenvalues ---    0.09017   0.10127   0.10579   0.10700   0.10861
     Eigenvalues ---    0.11474   0.12048   0.12687   0.14102   0.15878
     Eigenvalues ---    0.15980   0.15984   0.16000   0.16000   0.16000
     Eigenvalues ---    0.16002   0.16007   0.16034   0.16045   0.16124
     Eigenvalues ---    0.16481   0.17440   0.18451   0.18988   0.19574
     Eigenvalues ---    0.20099   0.20519   0.21581   0.22536   0.23563
     Eigenvalues ---    0.24192   0.24601   0.24804   0.25013   0.25061
     Eigenvalues ---    0.25699   0.26752   0.27649   0.28408   0.28653
     Eigenvalues ---    0.30128   0.30550   0.34496   0.34536   0.34604
     Eigenvalues ---    0.34622   0.34634   0.34678   0.34683   0.34730
     Eigenvalues ---    0.34762   0.34781   0.34801   0.34839   0.34881
     Eigenvalues ---    0.34985   0.35198   0.35614   0.35952   0.36174
     Eigenvalues ---    0.36411   0.38341   0.40578   0.41131   0.42161
     Eigenvalues ---    0.42576   0.44928   0.46247   0.48199   0.49446
     Eigenvalues ---    0.50816   0.54529   0.67074
 En-DIIS/RFO-DIIS/Sim-DIIS IScMMF=       -3 using points:    10    9    8
 RFO step:  Lambda=-6.38938420D-05.
 DidBck=F Rises=F RFO-DIIS coefs:    2.02605   -0.56768   -0.45836
 Iteration  1 RMS(Cart)=  0.01859927 RMS(Int)=  0.00019630
 Iteration  2 RMS(Cart)=  0.00026217 RMS(Int)=  0.00002577
 Iteration  3 RMS(Cart)=  0.00000006 RMS(Int)=  0.00002577
 Variable       Old X    -DE/DX   Delta X   Delta X   Delta X     New X
                                 (Linear)    (Quad)   (Total)
    R1        2.89694  -0.00003   0.00022  -0.00042  -0.00020   2.89674
    R2        2.07113  -0.00008  -0.00008  -0.00019  -0.00027   2.07086
    R3        2.07310  -0.00011  -0.00049   0.00003  -0.00046   2.07264
    R4        2.07003  -0.00004  -0.00010   0.00001  -0.00009   2.06994
    R5        2.91064   0.00007   0.00045   0.00025   0.00070   2.91134
    R6        2.07691  -0.00007  -0.00014   0.00004  -0.00010   2.07681
    R7        2.07359  -0.00011  -0.00018  -0.00020  -0.00038   2.07322
    R8        2.89711   0.00001  -0.00061   0.00063   0.00002   2.89713
    R9        2.92367  -0.00034  -0.00003  -0.00121  -0.00124   2.92243
   R10        2.07166   0.00006   0.00160  -0.00123   0.00037   2.07203
   R11        2.06451  -0.00007   0.00018  -0.00070  -0.00051   2.06399
   R12        2.07236   0.00002   0.00053  -0.00023   0.00031   2.07267
   R13        2.06986  -0.00002  -0.00049   0.00049   0.00000   2.06987
   R14        2.94282  -0.00054  -0.00095  -0.00046  -0.00143   2.94140
   R15        2.78432  -0.00073  -0.00287   0.00022  -0.00267   2.78165
   R16        2.06936  -0.00008  -0.00065   0.00036  -0.00029   2.06906
   R17        2.77381  -0.00070  -0.00406  -0.00014  -0.00419   2.76962
   R18        2.06563  -0.00012   0.00002  -0.00028  -0.00025   2.06538
   R19        2.05498   0.00017   0.00037   0.00041   0.00078   2.05576
   R20        2.53325  -0.00006  -0.00054   0.00060   0.00009   2.53334
   R21        2.77414   0.00035  -0.00109   0.00129   0.00021   2.77435
   R22        2.42096  -0.00121   0.00033  -0.00197  -0.00163   2.41933
   R23        2.61170  -0.00008  -0.00076   0.00031  -0.00045   2.61125
   R24        2.56013  -0.00032   0.00210  -0.00217  -0.00007   2.56006
   R25        2.65557   0.00033   0.00053   0.00019   0.00072   2.65629
   R26        2.04672  -0.00004  -0.00015   0.00010  -0.00006   2.04666
   R27        2.54181   0.00022  -0.00000   0.00039   0.00039   2.54220
   R28        2.64623   0.00017   0.00011   0.00015   0.00027   2.64650
   R29        2.69670   0.00018  -0.00041   0.00047   0.00006   2.69675
   R30        2.07155  -0.00011  -0.00006  -0.00022  -0.00028   2.07127
   R31        2.05968  -0.00007  -0.00026   0.00005  -0.00021   2.05947
   R32        2.07156  -0.00012  -0.00012  -0.00019  -0.00031   2.07125
   R33        2.63445   0.00026  -0.00024   0.00085   0.00061   2.63506
   R34        2.04498  -0.00006  -0.00017   0.00001  -0.00016   2.04483
   R35        2.51616  -0.00009   0.00025  -0.00052  -0.00026   2.51590
   R36        2.05100   0.00002   0.00024  -0.00020   0.00003   2.05103
   R37        3.94062  -0.00064  -0.00898  -0.00043  -0.00941   3.93121
   R38        3.87021  -0.00011  -0.00167   0.00009  -0.00158   3.86863
   R39        3.42055  -0.00020  -0.00153   0.00107  -0.00046   3.42009
   R40        3.48034  -0.00080  -0.00738   0.00176  -0.00563   3.47471
    A1        1.95038  -0.00012  -0.00014  -0.00151  -0.00166   1.94872
    A2        1.95704   0.00009   0.00079   0.00065   0.00145   1.95849
    A3        1.92856   0.00006  -0.00016   0.00062   0.00046   1.92902
    A4        1.88429  -0.00000   0.00025  -0.00037  -0.00011   1.88418
    A5        1.87483   0.00004  -0.00009   0.00074   0.00064   1.87547
    A6        1.86468  -0.00007  -0.00070  -0.00008  -0.00077   1.86390
    A7        2.03713  -0.00021   0.00174  -0.00182  -0.00009   2.03703
    A8        1.90063   0.00007   0.00068   0.00063   0.00130   1.90193
    A9        1.89811   0.00003  -0.00116  -0.00029  -0.00145   1.89666
   A10        1.89722   0.00011   0.00017   0.00206   0.00222   1.89944
   A11        1.87165   0.00007  -0.00061  -0.00074  -0.00134   1.87031
   A12        1.85025  -0.00006  -0.00110   0.00032  -0.00078   1.84946
   A13        1.99352   0.00002   0.00094  -0.00146  -0.00056   1.99295
   A14        1.95244   0.00025   0.00466  -0.00212   0.00250   1.95495
   A15        1.87653  -0.00013  -0.00563   0.00270  -0.00290   1.87363
   A16        1.96539  -0.00031  -0.00007  -0.00254  -0.00269   1.96270
   A17        1.83195   0.00017   0.00087   0.00286   0.00374   1.83569
   A18        1.82952  -0.00000  -0.00160   0.00156  -0.00002   1.82950
   A19        1.90120  -0.00017   0.00142  -0.00366  -0.00224   1.89897
   A20        1.98327  -0.00009  -0.00216   0.00045  -0.00171   1.98155
   A21        1.91149   0.00016   0.00002   0.00182   0.00183   1.91333
   A22        1.92203   0.00009  -0.00015   0.00129   0.00114   1.92316
   A23        1.86841   0.00005   0.00010   0.00148   0.00158   1.86999
   A24        1.87393  -0.00003   0.00087  -0.00122  -0.00034   1.87359
   A25        2.04685   0.00008   0.00527  -0.00543  -0.00019   2.04666
   A26        1.91215  -0.00024  -0.01111   0.00979  -0.00128   1.91087
   A27        1.89878   0.00002   0.00009  -0.00089  -0.00087   1.89791
   A28        1.77726   0.00007  -0.00014   0.00085   0.00069   1.77795
   A29        1.92911  -0.00002   0.00354  -0.00205   0.00148   1.93058
   A30        1.89203   0.00008   0.00197  -0.00169   0.00026   1.89229
   A31        1.82767  -0.00025   0.00054   0.00018   0.00066   1.82833
   A32        1.97089  -0.00008  -0.00244   0.00058  -0.00186   1.96903
   A33        2.00097   0.00010   0.00016  -0.00032  -0.00014   2.00084
   A34        1.87142   0.00011   0.00001   0.00127   0.00131   1.87273
   A35        1.86461   0.00010   0.00232  -0.00171   0.00063   1.86524
   A36        1.91829   0.00001  -0.00024  -0.00002  -0.00027   1.91802
   A37        1.83666   0.00020   0.00259  -0.00094   0.00162   1.83828
   A38        2.10461   0.00021   0.00351  -0.00179   0.00173   2.10634
   A39        2.06560  -0.00026  -0.00348   0.00183  -0.00167   2.06393
   A40        2.11199   0.00005  -0.00006   0.00015   0.00009   2.11208
   A41        2.15784   0.00020   0.00098   0.00024   0.00122   2.15906
   A42        1.97024  -0.00004  -0.00122   0.00059  -0.00064   1.96960
   A43        2.15507  -0.00016   0.00024  -0.00081  -0.00057   2.15450
   A44        2.06237   0.00014   0.00049   0.00012   0.00061   2.06299
   A45        2.11804  -0.00010  -0.00103   0.00030  -0.00073   2.11730
   A46        2.10277  -0.00004   0.00054  -0.00042   0.00012   2.10289
   A47        2.02725   0.00004   0.00050  -0.00034   0.00016   2.02741
   A48        2.07109  -0.00019  -0.00069  -0.00007  -0.00076   2.07033
   A49        2.18485   0.00015   0.00020   0.00040   0.00060   2.18544
   A50        2.06572   0.00019   0.00006   0.00044   0.00051   2.06623
   A51        1.93779  -0.00003   0.00012  -0.00027  -0.00015   1.93764
   A52        1.84201   0.00025   0.00082   0.00087   0.00169   1.84370
   A53        1.93762  -0.00001   0.00043  -0.00034   0.00009   1.93771
   A54        1.91436  -0.00008  -0.00027  -0.00015  -0.00043   1.91393
   A55        1.91629  -0.00004  -0.00073   0.00017  -0.00056   1.91574
   A56        1.91446  -0.00009  -0.00033  -0.00026  -0.00059   1.91387
   A57        2.06949   0.00005   0.00056   0.00005   0.00061   2.07010
   A58        2.13044   0.00004  -0.00012   0.00021   0.00008   2.13052
   A59        2.08325  -0.00009  -0.00044  -0.00025  -0.00069   2.08256
   A60        2.14977  -0.00024   0.00048  -0.00138  -0.00090   2.14887
   A61        2.11029   0.00002   0.00055  -0.00036   0.00019   2.11048
   A62        2.02313   0.00022  -0.00103   0.00174   0.00071   2.02384
   A63        2.05853   0.00040  -0.00109   0.00209   0.00100   2.05953
   A64        1.97270  -0.00008   0.00098  -0.00055   0.00043   1.97313
   A65        2.25190  -0.00032   0.00010  -0.00154  -0.00143   2.25047
   A66        1.89187   0.00029   0.00266  -0.00113   0.00148   1.89335
   A67        2.37523  -0.00028  -0.00055   0.00298   0.00245   2.37768
   A68        1.96199   0.00001  -0.00133  -0.00058  -0.00191   1.96008
   A69        1.39934   0.00005   0.00136   0.00040   0.00176   1.40110
   A70        1.78828  -0.00036  -0.00533  -0.00541  -0.01076   1.77752
   A71        1.85680   0.00028   0.00166  -0.00028   0.00129   1.85810
   A72        2.00116   0.00029   0.00477   0.00202   0.00671   2.00787
   A73        1.65288   0.00012   0.00870  -0.00542   0.00320   1.65609
   A74        2.47472  -0.00022  -0.00666   0.00613  -0.00076   2.47396
    D1       -0.95164   0.00006   0.00080   0.01541   0.01621  -0.93543
    D2       -3.10691   0.00000  -0.00127   0.01348   0.01221  -3.09470
    D3        1.16749   0.00002   0.00030   0.01292   0.01322   1.18071
    D4        1.16678   0.00003   0.00159   0.01432   0.01590   1.18268
    D5       -0.98850  -0.00002  -0.00048   0.01239   0.01190  -0.97659
    D6       -2.99728  -0.00001   0.00109   0.01183   0.01292  -2.98437
    D7       -3.03824   0.00005   0.00112   0.01506   0.01618  -3.02206
    D8        1.08966  -0.00001  -0.00095   0.01313   0.01218   1.10185
    D9       -0.91912   0.00001   0.00062   0.01257   0.01319  -0.90593
   D10        1.13557  -0.00015  -0.01092  -0.00677  -0.01767   1.11790
   D11       -1.12292   0.00004  -0.01568   0.00005  -0.01566  -1.13857
   D12       -3.12249  -0.00002  -0.01297  -0.00229  -0.01526  -3.13775
   D13       -2.99059  -0.00011  -0.00860  -0.00557  -0.01415  -3.00474
   D14        1.03411   0.00007  -0.01336   0.00125  -0.01214   1.02198
   D15       -0.96546   0.00002  -0.01065  -0.00109  -0.01174  -0.97720
   D16       -0.99741  -0.00010  -0.01011  -0.00456  -0.01465  -1.01206
   D17        3.02729   0.00009  -0.01487   0.00225  -0.01264   3.01465
   D18        1.02772   0.00004  -0.01216  -0.00008  -0.01224   1.01548
   D19        2.87453  -0.00003  -0.02587  -0.00398  -0.02985   2.84468
   D20       -1.25896  -0.00011  -0.02650  -0.00474  -0.03124  -1.29019
   D21        0.83640  -0.00009  -0.02680  -0.00470  -0.03151   0.80490
   D22       -1.15665   0.00006  -0.01863  -0.01064  -0.02927  -1.18592
   D23        0.99304  -0.00001  -0.01926  -0.01139  -0.03065   0.96239
   D24        3.08840  -0.00000  -0.01957  -0.01135  -0.03092   3.05748
   D25        0.82366   0.00001  -0.02008  -0.00835  -0.02843   0.79522
   D26        2.97335  -0.00006  -0.02072  -0.00911  -0.02982   2.94354
   D27       -1.21447  -0.00005  -0.02102  -0.00907  -0.03009  -1.24456
   D28        1.40901  -0.00002  -0.00461  -0.01244  -0.01702   1.39200
   D29       -2.86116  -0.00006  -0.00958  -0.00757  -0.01719  -2.87835
   D30       -0.79561  -0.00008  -0.01367  -0.00447  -0.01813  -0.81373
   D31       -0.86408   0.00000  -0.00981  -0.00630  -0.01608  -0.88016
   D32        1.14893  -0.00004  -0.01479  -0.00143  -0.01626   1.13268
   D33       -3.06870  -0.00006  -0.01887   0.00167  -0.01720  -3.08589
   D34       -2.84588  -0.00005  -0.00987  -0.00938  -0.01923  -2.86511
   D35       -0.83287  -0.00009  -0.01484  -0.00451  -0.01940  -0.85227
   D36        1.23269  -0.00011  -0.01893  -0.00141  -0.02034   1.21235
   D37        1.88093  -0.00004  -0.00287   0.01326   0.01037   1.89129
   D38       -2.37196  -0.00010  -0.00376   0.01518   0.01140  -2.36056
   D39       -0.15660  -0.00006  -0.00613   0.01539   0.00924  -0.14736
   D40       -0.20518   0.00016   0.00821   0.00336   0.01157  -0.19361
   D41        1.82512   0.00011   0.00733   0.00528   0.01260   1.83772
   D42       -2.24271   0.00015   0.00495   0.00549   0.01045  -2.23226
   D43       -2.21262   0.00004   0.00462   0.00569   0.01032  -2.20230
   D44       -0.18232  -0.00001   0.00373   0.00761   0.01135  -0.17097
   D45        2.03304   0.00002   0.00136   0.00782   0.00920   2.04224
   D46       -1.99308  -0.00008  -0.00818  -0.00081  -0.00902  -2.00210
   D47        0.75846  -0.00002  -0.00563   0.00320  -0.00244   0.75602
   D48        0.18581  -0.00007  -0.00772  -0.00178  -0.00949   0.17632
   D49        2.93735  -0.00001  -0.00517   0.00223  -0.00290   2.93444
   D50        2.22036  -0.00003  -0.00301  -0.00436  -0.00739   2.21297
   D51       -1.31128   0.00004  -0.00046  -0.00035  -0.00081  -1.31209
   D52        0.15876  -0.00014  -0.00578  -0.00401  -0.00980   0.14896
   D53       -1.93918   0.00003  -0.00325  -0.00538  -0.00863  -1.94781
   D54        2.28811  -0.00010  -0.00416  -0.00513  -0.00930   2.27881
   D55       -3.13944  -0.00001   0.00168  -0.00115   0.00054  -3.13890
   D56       -0.04514   0.00006   0.00089   0.00329   0.00419  -0.04096
   D57       -0.14356  -0.00001  -0.00052   0.00296   0.00244  -0.14112
   D58        2.98952  -0.00003  -0.00184   0.00576   0.00392   2.99344
   D59        3.04659  -0.00007   0.00038  -0.00164  -0.00126   3.04533
   D60       -0.10351  -0.00009  -0.00094   0.00116   0.00022  -0.10329
   D61       -0.09965   0.00002   0.00468  -0.00085   0.00384  -0.09581
   D62       -2.95198   0.00006   0.00284  -0.00475  -0.00190  -2.95388
   D63        2.99444   0.00009   0.00399   0.00355   0.00755   3.00198
   D64        0.14211   0.00013   0.00214  -0.00035   0.00180   0.14392
   D65        3.13667  -0.00001   0.00096   0.00116   0.00212   3.13879
   D66       -0.00646  -0.00001   0.00146   0.00083   0.00229  -0.00417
   D67        0.00447   0.00001   0.00242  -0.00194   0.00048   0.00496
   D68       -3.13865   0.00001   0.00293  -0.00227   0.00065  -3.13800
   D69        3.13988   0.00002  -0.00133  -0.00110  -0.00244   3.13745
   D70        0.00816  -0.00003  -0.00087  -0.00144  -0.00231   0.00584
   D71       -0.01020   0.00000  -0.00265   0.00170  -0.00095  -0.01115
   D72        3.14126  -0.00005  -0.00218   0.00136  -0.00083   3.14043
   D73        3.14124  -0.00000   0.00098  -0.00073   0.00025   3.14149
   D74        0.00183  -0.00001   0.00023   0.00027   0.00050   0.00233
   D75        0.00117  -0.00001   0.00048  -0.00040   0.00008   0.00125
   D76       -3.13824  -0.00001  -0.00027   0.00060   0.00033  -3.13791
   D77       -3.13645  -0.00001  -0.00154   0.00070  -0.00084  -3.13729
   D78        0.00280  -0.00001  -0.00074  -0.00037  -0.00111   0.00169
   D79       -0.00219  -0.00001  -0.00245   0.00147  -0.00099  -0.00318
   D80        3.14039  -0.00001  -0.00122  -0.00053  -0.00175   3.13864
   D81       -3.14139  -0.00001  -0.00328   0.00257  -0.00071   3.14109
   D82        0.00119  -0.00001  -0.00204   0.00057  -0.00147  -0.00028
   D83       -1.07315   0.00005   0.00101   0.00091   0.00192  -1.07123
   D84        3.13693   0.00001   0.00078   0.00072   0.00150   3.13843
   D85        1.06379  -0.00003   0.00046   0.00071   0.00116   1.06495
   D86       -0.00378   0.00002   0.00232  -0.00177   0.00055  -0.00323
   D87        3.13894   0.00002   0.00346  -0.00213   0.00133   3.14028
   D88        3.13685   0.00002   0.00112   0.00017   0.00129   3.13814
   D89       -0.00361   0.00003   0.00226  -0.00018   0.00208  -0.00153
   D90        0.00978  -0.00002   0.00019   0.00022   0.00041   0.01020
   D91        3.13969   0.00004  -0.00035   0.00063   0.00028   3.13997
   D92       -3.13289  -0.00002  -0.00089   0.00056  -0.00034  -3.13323
   D93       -0.00298   0.00004  -0.00144   0.00097  -0.00047  -0.00345
   D94        0.04660   0.00005   0.00156   0.00102   0.00259   0.04918
   D95        2.02385   0.00039   0.00715   0.00367   0.01077   2.03463
   D96       -1.56002  -0.00004  -0.00771   0.00657  -0.00109  -1.56112
   D97       -3.08378  -0.00001   0.00209   0.00061   0.00271  -3.08107
   D98       -1.10652   0.00033   0.00768   0.00326   0.01090  -1.09563
   D99        1.59279  -0.00010  -0.00718   0.00616  -0.00097   1.59181
   D100      -2.84063  -0.00023  -0.00521  -0.00447  -0.00969  -2.85031
   D101       1.70959   0.00017   0.00052   0.00154   0.00213   1.71171
   D102      -0.99327   0.00004  -0.00489  -0.00389  -0.00881  -1.00208
   D103      -0.09998  -0.00012  -0.00197  -0.00039  -0.00237  -0.10235
   D104      -1.83295   0.00028   0.00377   0.00562   0.00945  -1.82350
   D105       1.74737   0.00015  -0.00164   0.00019  -0.00148   1.74589
         Item               Value     Threshold  Converged?
 Maximum Force            0.001214     0.000450     NO 
 RMS     Force            0.000183     0.000300     YES
 Maximum Displacement     0.098292     0.001800     NO 
 RMS     Displacement     0.018580     0.001200     NO 
 Predicted change in Energy=-2.683597D-05
 GradGradGradGradGradGradGradGradGradGradGradGradGradGradGradGradGradGrad

                          Input orientation:                          
 ---------------------------------------------------------------------
 Center     Atomic      Atomic             Coordinates (Angstroms)
 Number     Number       Type             X           Y           Z
 ---------------------------------------------------------------------
      1          6           0       -6.036843    1.474512   -2.513663
      2          6           0       -4.911730    2.254900   -3.202768
      3          6           0       -3.541389    1.557089   -3.296197
      4          6           0       -3.541677    0.284072   -4.150487
      5          6           0       -2.908759    1.333293   -1.902890
      6          6           0       -3.424630    0.122627   -1.071674
      7          8           0       -2.323122   -0.843855   -1.096720
      8          6           0       -1.293000   -0.192658   -1.655255
      9          6           0       -0.000294   -0.861148   -1.848677
     10          6           0        0.300310   -2.110712   -1.341100
     11          6           0        1.575034   -2.643665   -1.599730
     12          8           0        1.823890   -3.861982   -1.086369
     13          6           0        3.105662   -4.445924   -1.315658
     14          6           0        2.478714   -1.885319   -2.354438
     15          6           0        2.074563   -0.634935   -2.820904
     16          7           0        0.866668   -0.126560   -2.586268
     17          7           0       -1.481638    1.007805   -2.058187
     18          1           0       -6.170204    0.481178   -2.956832
     19          1           0       -5.853755    1.344010   -1.440163
     20          1           0       -6.988823    2.007725   -2.609826
     21          1           0       -4.783914    3.221027   -2.694772
     22          1           0       -5.224915    2.491702   -4.227202
     23          1           0       -2.857995    2.245603   -3.807245
     24          1           0       -2.510610    0.033949   -4.409871
     25          1           0       -4.027330   -0.570195   -3.663294
     26          1           0       -4.074445    0.471006   -5.089078
     27          1           0       -2.991421    2.260209   -1.325998
     28          1           0       -3.611105    0.375834   -0.024938
     29          1           0       -4.293969   -0.378525   -1.491847
     30          1           0       -0.421001   -2.669760   -0.757863
     31          1           0        3.285657   -4.590867   -2.387089
     32          1           0        3.081908   -5.412994   -0.813725
     33          1           0        3.902080   -3.827202   -0.886420
     34          1           0        3.474798   -2.240079   -2.584329
     35          1           0        2.744882   -0.015368   -3.408116
     36         28           0        0.079039    1.703118   -3.185935
     37          9           0        1.172526    2.872712   -2.342232
     38          9           0       -0.750965    1.409177   -4.800136
 ---------------------------------------------------------------------
                    Distance matrix (angstroms):
                    1          2          3          4          5
     1  C    0.000000
     2  C    1.532890   0.000000
     3  C    2.616575   1.540617   0.000000
     4  C    3.212817   2.580578   1.533097   0.000000
     5  C    3.190281   2.559479   1.546484   2.559911   0.000000
     6  C    3.275756   3.361490   2.649494   3.085264   1.556519
     7  O    4.601552   4.553967   3.476551   3.476002   2.394338
     8  C    5.101016   4.634710   3.287790   3.392639   2.236185
     9  C    6.506722   5.972061   4.525764   4.376214   3.643855
    10  C    7.374839   7.049095   5.659843   5.328087   4.740770
    11  C    8.702604   8.285154   6.833895   6.423296   6.001041
    12  O    9.607625   9.341518   7.939515   7.440960   7.074995
    13  C   10.957745  10.617948   9.172895   8.636912   8.361666
    14  C    9.155792   8.513504   6.998481   6.646590   6.291918
    15  C    8.386839   7.570023   6.047297   5.844187   5.436007
    16  N    7.087113   6.280231   4.771755   4.695626   4.105122
    17  N    4.601649   3.825029   2.465149   3.024115   1.471984
    18  H    1.095854   2.188683   2.860668   2.893583   3.531844
    19  H    1.096792   2.196340   2.972759   3.716857   2.981146
    20  H    1.095367   2.174164   3.543864   4.150594   4.195418
    21  H    2.157070   1.098999   2.162005   3.505419   2.776117
    22  H    2.151771   1.097099   2.138815   2.777194   3.479787
    23  H    3.517530   2.140866   1.096472   2.105431   2.112216
    24  H    4.255015   3.486417   2.150055   1.092219   2.851627
    25  H    3.088790   2.995899   2.212744   1.096808   2.823736
    26  H    3.389807   2.727910   2.162903   1.095326   3.500594
    27  H    3.361913   2.685121   2.162990   3.490793   1.094902
    28  H    3.644866   3.914220   3.478701   4.127154   2.221873
    29  H    2.741434   3.200595   2.751119   2.841363   2.240107
    30  H    7.196909   7.099048   5.834914   5.474819   4.850202
    31  H   11.122673  10.711070   9.232140   8.572462   8.584924
    32  H   11.553317  11.331477   9.930398   9.352134   9.087725
    33  H   11.381488  10.956307   9.497518   9.108579   8.605314
    34  H   10.211488   9.535258   8.009502   7.619390   7.347322
    35  H    8.952010   7.988742   6.480923   6.337319   6.004020
    36  Ni   6.156966   5.021207   3.625050   4.006699   3.272601
    37  F    7.345704   6.175790   4.986172   5.674025   4.384031
    38  F    5.759578   4.536386   3.173355   3.078308   3.613291
                    6          7          8          9         10
     6  C    0.000000
     7  O    1.465618   0.000000
     8  C    2.232447   1.340586   0.000000
     9  C    3.646591   2.441570   1.468121   0.000000
    10  C    4.351503   2.923533   2.513218   1.381813   0.000000
    11  C    5.738280   4.322956   3.773080   2.391861   1.405649
    12  O    6.589711   5.129025   4.847945   3.593573   2.335194
    13  C    7.973451   6.518783   6.128118   4.773018   3.650187
    14  C    6.366067   5.071896   4.192826   2.729506   2.413110
    15  C    5.820209   4.728223   3.590937   2.302484   2.741479
    16  N    4.557558   3.592774   2.352726   1.354727   2.409992
    17  N    2.352014   2.249702   1.280253   2.394005   3.662608
    18  H    3.349710   4.473899   5.092669   6.410744   7.155141
    19  H    2.743757   4.167742   4.817478   6.268381   7.058147
    20  H    4.315434   5.673602   6.180233   7.592714   8.467742
    21  H    3.752623   5.013236   4.992025   6.345317   7.490608
    22  H    4.337153   5.417219   5.411160   6.647981   7.748543
    23  H    3.508768   4.144609   3.609070   4.653423   5.918973
    24  H    3.462204   3.432588   3.020237   3.696295   4.681687
    25  H    2.749499   3.092978   3.413402   4.426567   5.147256
    26  H    4.084503   4.553561   4.468560   5.373410   6.312772
    27  H    2.195815   3.183458   3.001599   4.354642   5.471807
    28  H    1.092951   2.072500   2.890455   4.230142   4.818128
    29  H    1.087864   2.063225   3.011156   4.335423   4.912291
    30  H    4.113112   2.658348   2.775199   2.153589   1.083047
    31  H    8.305138   6.867572   6.390925   4.999817   4.019647
    32  H    8.546618   7.083181   6.862937   5.593782   4.349767
    33  H    8.325632   6.906353   6.386695   4.995191   4.015696
    34  H    7.447994   6.146405   5.271338   3.810368   3.411704
    35  H    6.598552   5.631483   4.405501   3.268514   3.826088
    36  Ni   4.386770   4.077042   2.796326   2.893098   4.242367
    37  F    5.505555   5.252021   3.993401   3.944720   5.157280
    38  F    4.764990   4.611195   3.570708   3.798552   5.045764
                   11         12         13         14         15
    11  C    0.000000
    12  O    1.345276   0.000000
    13  C    2.381525   1.427061   0.000000
    14  C    1.400467   2.438030   2.833519   0.000000
    15  C    2.403287   3.672231   4.225231   1.394414   0.000000
    16  N    2.794790   4.137553   5.028365   2.397013   1.331356
    17  N    4.784000   5.965381   7.165042   4.913483   3.990851
    18  H    8.461388   9.288014  10.630686   8.987045   8.321080
    19  H    8.432906   9.282981  10.668177   8.983012   8.287394
    20  H    9.797722  10.697583  12.050854  10.239886   9.443154
    21  H    8.719515   9.819320  11.087358   8.884614   7.869120
    22  H    8.917113   9.995988  11.225252   9.056018   8.064485
    23  H    6.959152   8.162463   9.303212   6.903305   5.796593
    24  H    5.635511   6.709086   7.822144   5.727281   4.898575
    25  H    6.320130   7.191187   8.450577   6.765446   6.160106
    26  H    7.334394   8.341872   9.485191   7.481606   6.646655
    27  H    6.706371   7.792680   9.063485   6.940135   6.023354
    28  H    6.204303   6.973154   8.368409   6.901107   6.416066
    29  H    6.291875   7.051743   8.445669   6.991690   6.510786
    30  H    2.166467   2.562976   3.987888   3.401874   3.824198
    31  H    2.708831   2.088040   1.096071   2.823511   4.159849
    32  H    3.249255   2.015585   1.089827   3.896425   5.279522
    33  H    2.706421   2.088076   1.096058   2.819921   4.156033
    34  H    2.177480   2.756802   2.571292   1.082075   2.143155
    35  H    3.398050   4.586412   4.913081   2.162822   1.085361
    36  Ni   4.862979   6.198630   7.104161   4.396215   3.095457
    37  F    5.580657   6.881684   7.638934   4.934079   3.653270
    38  F    5.663779   6.943131   7.829265   5.221683   4.009908
                   16         17         18         19         20
    16  N    0.000000
    17  N    2.660863   0.000000
    18  H    7.072781   4.802870   0.000000
    19  H    6.974254   4.428363   1.773388   0.000000
    20  H    8.140299   5.624343   1.766605   1.759832   0.000000
    21  H    6.568652   4.025993   3.081761   2.498359   2.518123
    22  H    6.830472   4.573697   2.559223   3.078997   2.441620
    23  H    4.581599   2.546705   3.848004   3.923076   4.307452
    24  H    3.841523   2.745469   3.962824   4.659619   5.214436
    25  H    5.030706   3.398088   2.489254   3.455766   4.065207
    26  H    5.570973   4.024563   2.989780   4.152428   4.123323
    27  H    4.708482   2.093815   3.991144   3.007558   4.206088
    28  H    5.182978   3.011332   3.893082   2.823067   4.555622
    29  H    5.281422   3.186198   2.530915   2.324377   3.769125
    30  H    3.386594   4.042311   6.914999   6.789013   8.273144
    31  H    5.081458   7.360734  10.745397  10.938386  12.212942
    32  H    5.999631   7.975042  11.177466  11.220321  12.637747
    33  H    5.079168   7.330398  11.148975  11.055513  12.475105
    34  H    3.356979   5.949103  10.028463  10.058663  11.293000
    35  H    2.053165   4.553313   8.940301   8.925094   9.973725
    36  Ni   2.080308   2.047190   6.371709   6.194734   7.097842
    37  F    3.024688   3.256247   7.746797   7.247019   8.211421
    38  F    3.142680   2.865880   5.798889   6.110002   6.638267
                   21         22         23         24         25
    21  H    0.000000
    22  H    1.753494   0.000000
    23  H    2.428624   2.416452   0.000000
    24  H    4.273985   3.666248   2.318458   0.000000
    25  H    3.985451   3.335778   3.052341   1.795218   0.000000
    26  H    3.714655   2.479843   2.504404   1.760092   1.766120
    27  H    2.451477   3.668660   2.484875   3.833756   3.814084
    28  H    4.074141   4.973963   4.285914   4.533830   3.782307
    29  H    3.826728   4.072718   3.782742   3.444615   2.196136
    30  H    7.582084   7.858409   6.276819   5.001367   5.084811
    31  H   11.235583  11.224021   9.300464   7.686175   8.442409
    32  H   11.830292  11.964086  10.143851   8.595214   9.061677
    33  H   11.331114  11.592730   9.545092   8.273196   9.010807
    34  H    9.901626  10.038615   7.856279   6.657996   7.761095
    35  H    8.225927   8.394878   6.055041   5.350340   6.799691
    36  Ni   5.117968   5.462420   3.050653   3.315181   4.717848
    37  F    5.977021   6.680235   4.334124   5.089126   6.374740
    38  F    4.896941   4.638571   2.474876   2.267137   3.993105
                   26         27         28         29         30
    26  H    0.000000
    27  H    4.305224   0.000000
    28  H    5.086183   2.372264   0.000000
    29  H    3.702697   2.947380   1.785268   0.000000
    30  H    6.478541   5.588777   4.470971   4.559427   0.000000
    31  H    9.332439   9.352265   8.821179   8.717569   4.481556
    32  H   10.203602   9.799275   8.884207   8.955964   4.449587
    33  H    9.988086   9.207070   8.651913   8.912638   4.477189
    34  H    8.403262   7.977968   7.975180   8.063042   4.324102
    35  H    7.040271   6.512959   7.210929   7.304067   4.908406
    36  Ni   4.731964   3.632829   5.036939   5.130923   5.026692
    37  F    6.390936   4.329706   5.872596   6.416873   5.980681
    38  F    3.465425   4.220608   5.661335   5.166578   5.752093
                   31         32         33         34         35
    31  H    0.000000
    32  H    1.786863   0.000000
    33  H    1.793089   1.786813   0.000000
    34  H    2.366619   3.654694   2.363139   0.000000
    35  H    4.719123   5.998233   4.714671   2.482083   0.000000
    36  Ni   7.108783   8.079829   7.105479   5.238502   3.179509
    37  F    7.757084   8.639154   7.379613   5.612459   3.456793
    38  F    7.623493   8.782050   8.024192   6.006991   4.023431
                   36         37         38
    36  Ni   0.000000
    37  F    1.809834   0.000000
    38  F    1.838737   3.447179   0.000000
 Stoichiometry    C13H18F2N2NiO2(3)
 Framework group  C1[X(C13H18F2N2NiO2)]
 Deg. of freedom   108
 Full point group                 C1      NOp   1
 Largest Abelian subgroup         C1      NOp   1
 Largest concise Abelian subgroup C1      NOp   1
                         Standard orientation:                         
 ---------------------------------------------------------------------
 Center     Atomic      Atomic             Coordinates (Angstroms)
 Number     Number       Type             X           Y           Z
 ---------------------------------------------------------------------
      1          6           0        5.049296   -1.980175    0.062598
      2          6           0        4.679750   -0.502899    0.238218
      3          6           0        3.188824   -0.183439    0.458646
      4          6           0        2.608728   -0.757066    1.756655
      5          6           0        2.331191   -0.537227   -0.778654
      6          6           0        1.941874   -2.031727   -0.972705
      7          8           0        0.508194   -2.085913   -0.673266
      8          6           0        0.123038   -0.807609   -0.551763
      9          6           0       -1.272694   -0.471663   -0.244434
     10          6           0       -2.297128   -1.398687   -0.220570
     11          6           0       -3.592046   -0.949790    0.091723
     12          8           0       -4.557784   -1.886265    0.103202
     13          6           0       -5.891612   -1.481612    0.409248
     14          6           0       -3.783651    0.411253    0.360345
     15          6           0       -2.680988    1.263332    0.310483
     16          7           0       -1.450441    0.844536    0.022606
     17          7           0        1.012543    0.106499   -0.662378
     18          1           0        4.669984   -2.592801    0.888254
     19          1           0        4.659482   -2.396571   -0.874212
     20          1           0        6.137381   -2.103219    0.035054
     21          1           0        5.038183    0.061227   -0.634184
     22          1           0        5.227285   -0.104091    1.101227
     23          1           0        3.099097    0.904614    0.560328
     24          1           0        1.670641   -0.244131    1.979887
     25          1           0        2.448452   -1.841579    1.723026
     26          1           0        3.293429   -0.553693    2.587054
     27          1           0        2.828011   -0.148939   -1.673758
     28          1           0        2.071899   -2.373282   -2.002742
     29          1           0        2.433385   -2.720853   -0.289352
     30          1           0       -2.115255   -2.444236   -0.436764
     31          1           0       -5.951801   -1.056236    1.417615
     32          1           0       -6.493017   -2.389007    0.357575
     33          1           0       -6.259319   -0.753391   -0.322755
     34          1           0       -4.756576    0.817366    0.604018
     35          1           0       -2.786842    2.324755    0.510939
     36         28           0        0.309682    1.946236   -0.103502
     37          9           0       -0.055449    3.074532   -1.470663
     38          9           0        1.072004    1.903635    1.569221
 ---------------------------------------------------------------------
 Rotational constants (GHZ):           0.4782596           0.1846779           0.1487506
 Basis read from rwf:  (6D, 7F)
 Pseudo-potential data read from rwf file.
 There are   398 symmetry adapted cartesian basis functions of A   symmetry.
 There are   395 symmetry adapted basis functions of A   symmetry.
   395 basis functions,   758 primitive gaussians,   398 cartesian basis functions
    82 alpha electrons       80 beta electrons
       nuclear repulsion energy      1881.1226089631 Hartrees.
 NAtoms=   38 NActive=   38 NUniq=   38 SFac= 1.00D+00 NAtFMM=   60 NAOKFM=F Big=F
 Integral buffers will be    131072 words long.
 Raffenetti 2 integral format.
 Two-electron integral symmetry is turned on.
 Nuclear repulsion after empirical dispersion term =     1881.0425277739 Hartrees.
 One-electron integrals computed using PRISM.
 PrsmSu:  requested number of processors reduced to:  12 ShMem   1 Linda.
   1 Symmetry operations used in ECPInt.
 ECPInt:  NShTT=    8911 NPrTT=   52776 LenC2=    7765 LenP2D=   27131.
 LDataN:  DoStor=T MaxTD1= 6 Len=  172
 NBasis=   395 RedAO= T EigKep=  1.11D-06  NBF=   395
 NBsUse=   395 1.00D-06 EigRej= -1.00D+00 NBFU=   395
 Initial guess from the checkpoint file:  "Lig2214_xyz_3.chk"
 B after Tr=     0.000000    0.000000    0.000000
         Rot=    0.999998    0.001614   -0.000248   -0.000757 Ang=   0.21 deg.
 Initial guess <Sx>= 0.0000 <Sy>= 0.0000 <Sz>= 1.0000 <S**2>= 2.0064 S= 1.0021
 ExpMin= 2.40D-02 ExpMax= 7.14D+04 ExpMxC= 1.07D+04 IAcc=3 IRadAn=         5 AccDes= 0.00D+00
 Harris functional with IExCor=  402 and IRadAn=       5 diagonalized for initial guess.
 HarFok:  IExCor=  402 AccDes= 0.00D+00 IRadAn=         5 IDoV= 1 UseB2=F ITyADJ=14
 ICtDFT=  3500011 ScaDFX=  1.000000  1.000000  1.000000  1.000000
 FoFCou: FMM=F IPFlag=           0 FMFlag=      100000 FMFlg1=           0
         NFxFlg=           0 DoJE=T BraDBF=F KetDBF=T FulRan=T
         wScrn=  0.000000 ICntrl=       500 IOpCl=  0 I1Cent=   200000004 NGrid=           0
         NMat0=    1 NMatS0=      1 NMatT0=    0 NMatD0=    1 NMtDS0=    0 NMtDT0=    0
 Petite list used in FoFCou.
 Requested convergence on RMS density matrix=1.00D-08 within  32 cycles.
 Requested convergence on MAX density matrix=1.00D-06.
 Requested convergence on             energy=1.00D-06.
 No special actions if energy rises.
 Restarting incremental Fock formation.
 SCF Done:  E(UB3LYP) =  -1135.38311616     A.U. after   26 cycles
            NFock= 26  Conv=0.35D-08     -V/T= 2.0665
 <Sx>= 0.0000 <Sy>= 0.0000 <Sz>= 1.0000 <S**2>= 2.0064 S= 1.0021
 <L.S>=  0.00000000000    
 Annihilation of the first spin contaminant:
 S**2 before annihilation     2.0064,   after     2.0000
 QCSCF skips out because SCF is already converged.
 PrsmSu:  requested number of processors reduced to:  13 ShMem   1 Linda.
   1 Symmetry operations used in ECPInt.
 ECPInt:  NShTT=    8911 NPrTT=   52776 LenC2=    7765 LenP2D=   27131.
 LDataN:  DoStor=T MaxTD1= 7 Len=  274
 Calling FoFJK, ICntrl=      2127 FMM=F ISym2X=0 I1Cent= 0 IOpClX= 1 NMat=1 NMatS=1 NMatT=0.
 ***** Axes restored to original set *****
 -------------------------------------------------------------------
 Center     Atomic                   Forces (Hartrees/Bohr)
 Number     Number              X              Y              Z
 -------------------------------------------------------------------
      1        6          -0.000060146   -0.000034814    0.000057971
      2        6           0.000041128    0.000095610    0.000005120
      3        6          -0.000086500   -0.000002013    0.000063621
      4        6          -0.000154538   -0.000155087   -0.000202781
      5        6           0.000027742    0.000140457   -0.000263645
      6        6          -0.000327282    0.000086757    0.000127397
      7        8           0.000294268   -0.000189924    0.000108272
      8        6          -0.000199525    0.000363347    0.000005460
      9        6           0.000246068    0.000024341   -0.000217911
     10        6          -0.000041727   -0.000037028    0.000006036
     11        6           0.000072545   -0.000029759   -0.000003921
     12        8          -0.000099976    0.000065634    0.000036725
     13        6           0.000123289    0.000006181   -0.000085028
     14        6          -0.000007215   -0.000099462    0.000065752
     15        6          -0.000037553    0.000355722   -0.000116067
     16        7          -0.000170101   -0.000276496    0.000529749
     17        7          -0.000015548   -0.000415943   -0.000005207
     18        1          -0.000038973    0.000021412   -0.000036591
     19        1          -0.000001544    0.000011268   -0.000008056
     20        1           0.000007199   -0.000017930   -0.000026284
     21        1           0.000013529   -0.000006191   -0.000000408
     22        1           0.000043768    0.000008102   -0.000031738
     23        1          -0.000009272    0.000031858    0.000066766
     24        1           0.000117688    0.000000622    0.000093503
     25        1          -0.000033468    0.000044916   -0.000092316
     26        1          -0.000113803   -0.000066989   -0.000032535
     27        1           0.000059952    0.000008307    0.000130001
     28        1          -0.000069068   -0.000117161   -0.000012556
     29        1           0.000107202    0.000021612   -0.000024304
     30        1           0.000014235   -0.000036421    0.000003002
     31        1          -0.000004604    0.000011983   -0.000001834
     32        1          -0.000046872    0.000003640    0.000002472
     33        1          -0.000013319    0.000015838    0.000019928
     34        1           0.000021736   -0.000006323   -0.000002635
     35        1           0.000030666   -0.000003730    0.000078006
     36       28           0.000157309   -0.000171096    0.000165212
     37        9           0.000118437    0.000007225   -0.000179947
     38        9           0.000034272    0.000341534   -0.000221228
 -------------------------------------------------------------------
 Cartesian Forces:  Max     0.000529749 RMS     0.000130536

 GradGradGradGradGradGradGradGradGradGradGradGradGradGradGradGradGradGrad
 Berny optimization.
 Using GEDIIS/GDIIS optimizer.
 FormGI is forming the generalized inverse of G from B-inverse, IUseBI=4.
 Internal  Forces:  Max     0.000398070 RMS     0.000097895
 Search for a local minimum.
 Step number  11 out of a maximum of  228
 All quantities printed in internal units (Hartrees-Bohrs-Radians)
 Mixed Optimization -- En-DIIS/RFO-DIIS
 Swapping is turned off.
 Update second derivatives using D2CorX and points    6    7    8    9   10
                                                     11
 DE= -5.11D-05 DEPred=-2.68D-05 R= 1.90D+00
 TightC=F SS=  1.41D+00  RLast= 1.32D-01 DXNew= 1.7643D+00 3.9483D-01
 Trust test= 1.90D+00 RLast= 1.32D-01 DXMaxT set to 1.05D+00
 ITU=  1  1  1  0  1  0  1  1  1  1  0
     Eigenvalues ---    0.00206   0.00231   0.00259   0.00612   0.01038
     Eigenvalues ---    0.01378   0.01659   0.01816   0.01972   0.01986
     Eigenvalues ---    0.02022   0.02038   0.02122   0.02125   0.02193
     Eigenvalues ---    0.02234   0.02395   0.03066   0.03104   0.03249
     Eigenvalues ---    0.03459   0.03831   0.04117   0.04685   0.04796
     Eigenvalues ---    0.04905   0.05089   0.05184   0.05308   0.05441
     Eigenvalues ---    0.05472   0.05671   0.05947   0.06539   0.06936
     Eigenvalues ---    0.09019   0.10125   0.10381   0.10690   0.10860
     Eigenvalues ---    0.11515   0.11903   0.12691   0.14171   0.15911
     Eigenvalues ---    0.15968   0.15984   0.16000   0.16000   0.16002
     Eigenvalues ---    0.16007   0.16011   0.16035   0.16053   0.16188
     Eigenvalues ---    0.16482   0.17468   0.18349   0.19111   0.19778
     Eigenvalues ---    0.20242   0.20615   0.21732   0.22532   0.23569
     Eigenvalues ---    0.24106   0.24502   0.24770   0.25025   0.25442
     Eigenvalues ---    0.25767   0.26750   0.27883   0.28612   0.29022
     Eigenvalues ---    0.30160   0.31089   0.34500   0.34564   0.34608
     Eigenvalues ---    0.34623   0.34642   0.34678   0.34691   0.34728
     Eigenvalues ---    0.34778   0.34786   0.34813   0.34841   0.34892
     Eigenvalues ---    0.35043   0.35378   0.35657   0.35972   0.36202
     Eigenvalues ---    0.36356   0.38507   0.40970   0.41583   0.42143
     Eigenvalues ---    0.42537   0.44862   0.46353   0.48457   0.49444
     Eigenvalues ---    0.51134   0.54589   0.66716
 En-DIIS/RFO-DIIS/Sim-DIIS IScMMF=       -3 using points:    11   10    9    8
 RFO step:  Lambda=-2.03552942D-05.
 DidBck=F Rises=F RFO-DIIS coefs:    0.87335    0.43069   -0.20119   -0.10285
 Iteration  1 RMS(Cart)=  0.00543404 RMS(Int)=  0.00000887
 Iteration  2 RMS(Cart)=  0.00001186 RMS(Int)=  0.00000661
 Iteration  3 RMS(Cart)=  0.00000000 RMS(Int)=  0.00000661
 Variable       Old X    -DE/DX   Delta X   Delta X   Delta X     New X
                                 (Linear)    (Quad)   (Total)
    R1        2.89674   0.00008   0.00010   0.00008   0.00017   2.89691
    R2        2.07086  -0.00001   0.00001  -0.00006  -0.00005   2.07081
    R3        2.07264   0.00000  -0.00006   0.00006  -0.00000   2.07263
    R4        2.06994  -0.00001  -0.00002  -0.00002  -0.00004   2.06990
    R5        2.91134   0.00004  -0.00013   0.00006  -0.00007   2.91127
    R6        2.07681  -0.00000  -0.00005   0.00000  -0.00004   2.07676
    R7        2.07322   0.00002  -0.00001  -0.00001  -0.00002   2.07320
    R8        2.89713   0.00028  -0.00021   0.00086   0.00065   2.89778
    R9        2.92243   0.00016   0.00016  -0.00007   0.00010   2.92253
   R10        2.07203  -0.00002   0.00036  -0.00020   0.00017   2.07220
   R11        2.06399   0.00008   0.00009   0.00021   0.00030   2.06430
   R12        2.07267  -0.00005   0.00012  -0.00024  -0.00012   2.07255
   R13        2.06987   0.00007  -0.00017   0.00027   0.00010   2.06996
   R14        2.94140   0.00018  -0.00025   0.00043   0.00017   2.94157
   R15        2.78165   0.00024  -0.00043   0.00002  -0.00042   2.78123
   R16        2.06906   0.00007  -0.00017   0.00021   0.00004   2.06911
   R17        2.76962   0.00025  -0.00057   0.00012  -0.00044   2.76917
   R18        2.06538  -0.00002   0.00002  -0.00009  -0.00007   2.06530
   R19        2.05576  -0.00010   0.00004  -0.00004   0.00001   2.05577
   R20        2.53334  -0.00000  -0.00016   0.00012  -0.00004   2.53330
   R21        2.77435   0.00015  -0.00025   0.00038   0.00013   2.77448
   R22        2.41933  -0.00014   0.00018  -0.00054  -0.00036   2.41897
   R23        2.61125   0.00005  -0.00015   0.00006  -0.00009   2.61116
   R24        2.56006  -0.00028   0.00053  -0.00072  -0.00018   2.55988
   R25        2.65629   0.00002   0.00008   0.00014   0.00022   2.65651
   R26        2.04666   0.00001  -0.00004   0.00005   0.00001   2.04667
   R27        2.54220  -0.00011  -0.00004  -0.00008  -0.00013   2.54208
   R28        2.64650  -0.00004   0.00002  -0.00001   0.00001   2.64651
   R29        2.69675   0.00004  -0.00010   0.00018   0.00007   2.69683
   R30        2.07127  -0.00000  -0.00000  -0.00005  -0.00005   2.07123
   R31        2.05947  -0.00000  -0.00006   0.00001  -0.00006   2.05942
   R32        2.07125   0.00001  -0.00001  -0.00002  -0.00004   2.07121
   R33        2.63506   0.00006  -0.00011   0.00029   0.00018   2.63524
   R34        2.04483   0.00002  -0.00003   0.00004   0.00001   2.04483
   R35        2.51590  -0.00010   0.00010  -0.00028  -0.00018   2.51572
   R36        2.05103  -0.00002   0.00005  -0.00008  -0.00003   2.05101
   R37        3.93121  -0.00003  -0.00150  -0.00122  -0.00272   3.92849
   R38        3.86863   0.00034  -0.00053   0.00048  -0.00005   3.86858
   R39        3.42009  -0.00002  -0.00037   0.00031  -0.00007   3.42002
   R40        3.47471   0.00014  -0.00147   0.00042  -0.00106   3.47365
    A1        1.94872   0.00003   0.00014  -0.00025  -0.00011   1.94861
    A2        1.95849  -0.00002   0.00004   0.00003   0.00007   1.95856
    A3        1.92902  -0.00001  -0.00005   0.00016   0.00011   1.92913
    A4        1.88418   0.00002   0.00002   0.00003   0.00005   1.88423
    A5        1.87547  -0.00002  -0.00010  -0.00001  -0.00011   1.87535
    A6        1.86390   0.00001  -0.00006   0.00005  -0.00002   1.86389
    A7        2.03703   0.00016   0.00018  -0.00044  -0.00026   2.03678
    A8        1.90193  -0.00005   0.00012   0.00008   0.00019   1.90212
    A9        1.89666  -0.00001  -0.00000   0.00041   0.00041   1.89707
   A10        1.89944  -0.00006  -0.00026   0.00012  -0.00014   1.89930
   A11        1.87031  -0.00008   0.00009  -0.00020  -0.00011   1.87020
   A12        1.84946   0.00002  -0.00016   0.00007  -0.00009   1.84938
   A13        1.99295  -0.00005  -0.00006   0.00021   0.00015   1.99310
   A14        1.95495  -0.00005   0.00064  -0.00066  -0.00003   1.95492
   A15        1.87363  -0.00004  -0.00101   0.00008  -0.00092   1.87271
   A16        1.96270   0.00013   0.00028   0.00034   0.00059   1.96330
   A17        1.83569   0.00005   0.00006   0.00082   0.00087   1.83657
   A18        1.82950  -0.00005  -0.00001  -0.00078  -0.00078   1.82872
   A19        1.89897  -0.00011   0.00090  -0.00145  -0.00055   1.89842
   A20        1.98155   0.00002  -0.00046   0.00023  -0.00023   1.98132
   A21        1.91333   0.00010  -0.00025   0.00113   0.00089   1.91422
   A22        1.92316   0.00003  -0.00023  -0.00020  -0.00043   1.92274
   A23        1.86999   0.00007  -0.00028   0.00140   0.00112   1.87111
   A24        1.87359  -0.00010   0.00030  -0.00099  -0.00069   1.87290
   A25        2.04666  -0.00011   0.00121  -0.00043   0.00077   2.04744
   A26        1.91087   0.00025  -0.00235   0.00217  -0.00017   1.91070
   A27        1.89791   0.00000   0.00010  -0.00022  -0.00014   1.89777
   A28        1.77795  -0.00005  -0.00012   0.00035   0.00022   1.77817
   A29        1.93058   0.00004   0.00061  -0.00072  -0.00012   1.93047
   A30        1.89229  -0.00013   0.00046  -0.00113  -0.00067   1.89161
   A31        1.82833  -0.00005  -0.00000   0.00008   0.00006   1.82839
   A32        1.96903   0.00014  -0.00042   0.00062   0.00020   1.96923
   A33        2.00084  -0.00005   0.00002  -0.00022  -0.00020   2.00064
   A34        1.87273  -0.00009  -0.00014   0.00012  -0.00000   1.87273
   A35        1.86524   0.00008   0.00058  -0.00041   0.00018   1.86542
   A36        1.91802  -0.00003   0.00001  -0.00020  -0.00020   1.91782
   A37        1.83828  -0.00003   0.00051  -0.00005   0.00045   1.83873
   A38        2.10634  -0.00010   0.00087  -0.00025   0.00062   2.10696
   A39        2.06393   0.00012  -0.00078   0.00056  -0.00023   2.06370
   A40        2.11208  -0.00002  -0.00011  -0.00025  -0.00036   2.11171
   A41        2.15906   0.00007   0.00021   0.00047   0.00067   2.15973
   A42        1.96960  -0.00004  -0.00027  -0.00027  -0.00054   1.96906
   A43        2.15450  -0.00003   0.00006  -0.00019  -0.00013   2.15437
   A44        2.06299  -0.00005   0.00009  -0.00008   0.00001   2.06299
   A45        2.11730   0.00006  -0.00020   0.00024   0.00004   2.11734
   A46        2.10289  -0.00001   0.00011  -0.00015  -0.00004   2.10285
   A47        2.02741   0.00001   0.00013  -0.00010   0.00004   2.02745
   A48        2.07033   0.00003  -0.00011   0.00004  -0.00007   2.07026
   A49        2.18544  -0.00004  -0.00003   0.00006   0.00003   2.18548
   A50        2.06623  -0.00014  -0.00010  -0.00013  -0.00023   2.06600
   A51        1.93764   0.00000   0.00005  -0.00004   0.00001   1.93765
   A52        1.84370  -0.00007   0.00005  -0.00015  -0.00009   1.84360
   A53        1.93771  -0.00002   0.00011  -0.00014  -0.00003   1.93767
   A54        1.91393   0.00003  -0.00004   0.00009   0.00005   1.91399
   A55        1.91574   0.00002  -0.00013   0.00016   0.00003   1.91577
   A56        1.91387   0.00003  -0.00004   0.00007   0.00004   1.91391
   A57        2.07010  -0.00004   0.00010   0.00001   0.00011   2.07021
   A58        2.13052   0.00002  -0.00005   0.00009   0.00004   2.13056
   A59        2.08256   0.00002  -0.00005  -0.00010  -0.00015   2.08242
   A60        2.14887  -0.00007   0.00016  -0.00047  -0.00031   2.14855
   A61        2.11048   0.00000   0.00012  -0.00007   0.00005   2.11052
   A62        2.02384   0.00007  -0.00027   0.00054   0.00027   2.02411
   A63        2.05953   0.00016  -0.00030   0.00070   0.00040   2.05993
   A64        1.97313   0.00017   0.00022   0.00072   0.00093   1.97406
   A65        2.25047  -0.00033   0.00009  -0.00142  -0.00133   2.24914
   A66        1.89335   0.00001   0.00051  -0.00006   0.00045   1.89379
   A67        2.37768   0.00003  -0.00060   0.00086   0.00027   2.37795
   A68        1.96008  -0.00000  -0.00005   0.00014   0.00009   1.96017
   A69        1.40110  -0.00012   0.00018  -0.00032  -0.00014   1.40096
   A70        1.77752  -0.00009   0.00083  -0.00188  -0.00106   1.77646
   A71        1.85810   0.00035   0.00090   0.00261   0.00347   1.86157
   A72        2.00787   0.00015   0.00033   0.00193   0.00224   2.01012
   A73        1.65609   0.00024   0.00298   0.00101   0.00396   1.66005
   A74        2.47396  -0.00040  -0.00336  -0.00228  -0.00570   2.46827
    D1       -0.93543  -0.00002  -0.00223   0.00065  -0.00158  -0.93701
    D2       -3.09470  -0.00002  -0.00211   0.00075  -0.00136  -3.09606
    D3        1.18071  -0.00002  -0.00198   0.00041  -0.00158   1.17913
    D4        1.18268   0.00001  -0.00208   0.00053  -0.00154   1.18114
    D5       -0.97659   0.00001  -0.00196   0.00064  -0.00132  -0.97791
    D6       -2.98437   0.00001  -0.00183   0.00029  -0.00154  -2.98591
    D7       -3.02206  -0.00000  -0.00216   0.00072  -0.00144  -3.02350
    D8        1.10185   0.00000  -0.00204   0.00082  -0.00122   1.10063
    D9       -0.90593   0.00000  -0.00191   0.00048  -0.00144  -0.90736
   D10        1.11790   0.00004  -0.00116   0.00133   0.00017   1.11807
   D11       -1.13857  -0.00005  -0.00202   0.00126  -0.00077  -1.13934
   D12       -3.13775   0.00006  -0.00177   0.00251   0.00073  -3.13701
   D13       -3.00474   0.00005  -0.00108   0.00120   0.00012  -3.00462
   D14        1.02198  -0.00005  -0.00195   0.00114  -0.00082   1.02116
   D15       -0.97720   0.00006  -0.00170   0.00238   0.00068  -0.97652
   D16       -1.01206   0.00001  -0.00135   0.00124  -0.00010  -1.01216
   D17        3.01465  -0.00009  -0.00221   0.00118  -0.00104   3.01361
   D18        1.01548   0.00002  -0.00196   0.00242   0.00046   1.01594
   D19        2.84468   0.00003  -0.00352   0.00297  -0.00055   2.84414
   D20       -1.29019   0.00000  -0.00346   0.00180  -0.00167  -1.29186
   D21        0.80490  -0.00005  -0.00356   0.00149  -0.00207   0.80282
   D22       -1.18592   0.00004  -0.00245   0.00253   0.00008  -1.18584
   D23        0.96239   0.00001  -0.00239   0.00136  -0.00104   0.96135
   D24        3.05748  -0.00004  -0.00249   0.00105  -0.00144   3.05603
   D25        0.79522   0.00007  -0.00230   0.00223  -0.00006   0.79516
   D26        2.94354   0.00004  -0.00224   0.00106  -0.00118   2.94235
   D27       -1.24456  -0.00001  -0.00234   0.00075  -0.00159  -1.24615
   D28        1.39200   0.00010   0.00159   0.00149   0.00309   1.39509
   D29       -2.87835   0.00015   0.00049   0.00327   0.00375  -2.87460
   D30       -0.81373   0.00014  -0.00028   0.00303   0.00275  -0.81098
   D31       -0.88016   0.00010   0.00091   0.00148   0.00239  -0.87777
   D32        1.13268   0.00015  -0.00020   0.00326   0.00305   1.13572
   D33       -3.08589   0.00014  -0.00097   0.00302   0.00205  -3.08384
   D34       -2.86511   0.00000   0.00072   0.00080   0.00153  -2.86358
   D35       -0.85227   0.00005  -0.00039   0.00258   0.00218  -0.85009
   D36        1.21235   0.00004  -0.00115   0.00234   0.00119   1.21354
   D37        1.89129   0.00020  -0.00205   0.00653   0.00448   1.89577
   D38       -2.36056   0.00012  -0.00242   0.00703   0.00460  -2.35596
   D39       -0.14736   0.00016  -0.00277   0.00710   0.00433  -0.14303
   D40       -0.19361  -0.00002   0.00031   0.00381   0.00412  -0.18950
   D41        1.83772  -0.00009  -0.00006   0.00431   0.00424   1.84196
   D42       -2.23226  -0.00006  -0.00041   0.00438   0.00397  -2.22829
   D43       -2.20230   0.00014  -0.00040   0.00522   0.00482  -2.19748
   D44       -0.17097   0.00007  -0.00077   0.00572   0.00495  -0.16602
   D45        2.04224   0.00010  -0.00112   0.00579   0.00467   2.04691
   D46       -2.00210   0.00003  -0.00063  -0.00367  -0.00430  -2.00641
   D47        0.75602   0.00015  -0.00103  -0.00037  -0.00140   0.75462
   D48        0.17632  -0.00000  -0.00047  -0.00288  -0.00335   0.17296
   D49        2.93444   0.00011  -0.00087   0.00042  -0.00045   2.93399
   D50        2.21297  -0.00004   0.00034  -0.00399  -0.00365   2.20932
   D51       -1.31209   0.00008  -0.00006  -0.00069  -0.00075  -1.31284
   D52        0.14896   0.00005   0.00002  -0.00351  -0.00349   0.14546
   D53       -1.94781  -0.00003   0.00057  -0.00432  -0.00375  -1.95156
   D54        2.27881   0.00001   0.00033  -0.00394  -0.00361   2.27520
   D55       -3.13890  -0.00014   0.00034   0.00039   0.00073  -3.13817
   D56       -0.04096  -0.00007  -0.00038   0.00189   0.00151  -0.03945
   D57       -0.14112   0.00005  -0.00049   0.00144   0.00095  -0.14017
   D58        2.99344   0.00010  -0.00103   0.00262   0.00160   2.99504
   D59        3.04533  -0.00003   0.00027  -0.00012   0.00015   3.04548
   D60       -0.10329   0.00002  -0.00027   0.00106   0.00079  -0.10250
   D61       -0.09581   0.00004   0.00056   0.00078   0.00134  -0.09447
   D62       -2.95388  -0.00005   0.00103  -0.00185  -0.00083  -2.95471
   D63        3.00198   0.00011  -0.00014   0.00228   0.00215   3.00413
   D64        0.14392   0.00002   0.00033  -0.00035  -0.00002   0.14390
   D65        3.13879   0.00005  -0.00007   0.00096   0.00090   3.13969
   D66       -0.00417   0.00004   0.00004   0.00067   0.00071  -0.00346
   D67        0.00496  -0.00001   0.00053  -0.00034   0.00019   0.00515
   D68       -3.13800  -0.00002   0.00063  -0.00063   0.00000  -3.13800
   D69        3.13745  -0.00005   0.00006  -0.00102  -0.00095   3.13650
   D70        0.00584  -0.00006   0.00007  -0.00119  -0.00112   0.00473
   D71       -0.01115  -0.00000  -0.00047   0.00016  -0.00031  -0.01146
   D72        3.14043  -0.00001  -0.00046  -0.00001  -0.00047   3.13996
   D73        3.14149  -0.00000   0.00017  -0.00017  -0.00000   3.14149
   D74        0.00233   0.00000  -0.00003   0.00006   0.00003   0.00236
   D75        0.00125   0.00001   0.00007   0.00012   0.00019   0.00143
   D76       -3.13791   0.00002  -0.00014   0.00035   0.00022  -3.13769
   D77       -3.13729  -0.00000  -0.00031  -0.00019  -0.00050  -3.13779
   D78        0.00169  -0.00001  -0.00009  -0.00045  -0.00054   0.00115
   D79       -0.00318   0.00000  -0.00048   0.00035  -0.00013  -0.00331
   D80        3.13864  -0.00000  -0.00009  -0.00025  -0.00034   3.13830
   D81        3.14109   0.00001  -0.00070   0.00061  -0.00009   3.14100
   D82       -0.00028   0.00000  -0.00032   0.00001  -0.00031  -0.00059
   D83       -1.07123  -0.00000   0.00007   0.00064   0.00070  -1.07053
   D84        3.13843   0.00001   0.00005   0.00064   0.00069   3.13913
   D85        1.06495   0.00002   0.00001   0.00071   0.00072   1.06567
   D86       -0.00323  -0.00001   0.00055  -0.00054   0.00001  -0.00322
   D87        3.14028  -0.00002   0.00075  -0.00115  -0.00040   3.13988
   D88        3.13814  -0.00000   0.00018   0.00004   0.00022   3.13837
   D89       -0.00153  -0.00002   0.00037  -0.00056  -0.00019  -0.00172
   D90        0.01020   0.00001  -0.00009   0.00029   0.00020   0.01040
   D91        3.13997   0.00002  -0.00010   0.00051   0.00041   3.14039
   D92       -3.13323   0.00002  -0.00027   0.00086   0.00059  -3.13263
   D93       -0.00345   0.00004  -0.00028   0.00109   0.00081  -0.00264
   D94        0.04918   0.00005   0.00007   0.00082   0.00090   0.05008
   D95        2.03463   0.00020   0.00036   0.00293   0.00328   2.03791
   D96       -1.56112  -0.00011  -0.00296   0.00027  -0.00268  -1.56380
   D97       -3.08107   0.00004   0.00008   0.00061   0.00070  -3.08037
   D98       -1.09563   0.00018   0.00037   0.00272   0.00308  -1.09255
   D99        1.59181  -0.00013  -0.00295   0.00006  -0.00289   1.58893
   D100      -2.85031  -0.00016   0.00011  -0.00363  -0.00352  -2.85383
   D101       1.71171   0.00001  -0.00085  -0.00121  -0.00205   1.70966
   D102      -1.00208   0.00016   0.00055  -0.00115  -0.00061  -1.00269
   D103      -0.10235  -0.00004  -0.00022  -0.00027  -0.00049  -0.10283
   D104      -1.82350   0.00012  -0.00119   0.00215   0.00098  -1.82252
   D105       1.74589   0.00028   0.00022   0.00221   0.00242   1.74831
         Item               Value     Threshold  Converged?
 Maximum Force            0.000398     0.000450     YES
 RMS     Force            0.000098     0.000300     YES
 Maximum Displacement     0.024274     0.001800     NO 
 RMS     Displacement     0.005434     0.001200     NO 
 Predicted change in Energy=-9.421004D-06
 GradGradGradGradGradGradGradGradGradGradGradGradGradGradGradGradGradGrad

                          Input orientation:                          
 ---------------------------------------------------------------------
 Center     Atomic      Atomic             Coordinates (Angstroms)
 Number     Number       Type             X           Y           Z
 ---------------------------------------------------------------------
      1          6           0       -6.038043    1.482724   -2.512296
      2          6           0       -4.910199    2.259927   -3.200739
      3          6           0       -3.542935    1.556472   -3.296270
      4          6           0       -3.548883    0.284862   -4.153248
      5          6           0       -2.909961    1.328404   -1.903755
      6          6           0       -3.426450    0.116690   -1.074280
      7          8           0       -2.323868   -0.848273   -1.096816
      8          6           0       -1.294096   -0.197520   -1.656461
      9          6           0       -0.000590   -0.864889   -1.848938
     10          6           0        0.301961   -2.113636   -1.340642
     11          6           0        1.578021   -2.644304   -1.598009
     12          8           0        1.828798   -3.861883   -1.084008
     13          6           0        3.111796   -4.443449   -1.312720
     14          6           0        2.480843   -1.884440   -2.352227
     15          6           0        2.074681   -0.634965   -2.819673
     16          7           0        0.865572   -0.129200   -2.586195
     17          7           0       -1.483408    1.002203   -2.060674
     18          1           0       -6.176686    0.491449   -2.958376
     19          1           0       -5.854062    1.348049   -1.439466
     20          1           0       -6.987688    2.020570   -2.605449
     21          1           0       -4.777825    3.224490   -2.690993
     22          1           0       -5.222745    2.500153   -4.224561
     23          1           0       -2.857400    2.244044   -3.805907
     24          1           0       -2.518670    0.031724   -4.413774
     25          1           0       -4.036425   -0.568599   -3.666671
     26          1           0       -4.082968    0.474334   -5.090641
     27          1           0       -2.990792    2.254234   -1.324821
     28          1           0       -3.616113    0.369072   -0.027959
     29          1           0       -4.294156   -0.385183   -1.496968
     30          1           0       -0.418689   -2.673795   -0.757642
     31          1           0        3.292660   -4.587806   -2.384058
     32          1           0        3.089431   -5.410632   -0.811007
     33          1           0        3.906801   -3.823374   -0.882866
     34          1           0        3.477929   -2.237154   -2.580935
     35          1           0        2.744434   -0.014181   -3.406219
     36         28           0        0.077105    1.697597   -3.188550
     37          9           0        1.172517    2.867965   -2.348501
     38          9           0       -0.747696    1.408122   -4.805585
 ---------------------------------------------------------------------
                    Distance matrix (angstroms):
                    1          2          3          4          5
     1  C    0.000000
     2  C    1.532980   0.000000
     3  C    2.616413   1.540580   0.000000
     4  C    3.213023   2.580957   1.533440   0.000000
     5  C    3.190459   2.559464   1.546535   2.560747   0.000000
     6  C    3.279384   3.364046   2.650242   3.085987   1.556612
     7  O    4.607844   4.558126   3.479443   3.482304   2.394281
     8  C    5.104969   4.636814   3.289794   3.398633   2.236207
     9  C    6.511695   5.974621   4.528352   4.384308   3.643896
    10  C    7.382563   7.053697   5.663692   5.337842   4.741433
    11  C    8.710494   8.289585   6.837748   6.433848   6.001489
    12  O    9.617277   9.347256   7.944067   7.452193   7.075797
    13  C   10.967136  10.623195   9.177090   8.648131   8.362128
    14  C    9.161596   8.516059   7.001214   6.656361   6.291603
    15  C    8.390195   7.570612   6.048732   5.852263   5.435107
    16  N    7.089686   6.280535   4.772906   4.702607   4.104264
    17  N    4.602125   3.824201   2.464866   3.026488   1.471763
    18  H    1.095826   2.188662   2.860959   2.894088   3.533300
    19  H    1.096791   2.196470   2.971947   3.716024   2.980550
    20  H    1.095345   2.174309   3.543860   4.151355   4.195154
    21  H    2.157273   1.098975   2.161851   3.505696   2.775572
    22  H    2.152144   1.097089   2.138695   2.777483   3.479670
    23  H    3.517034   2.140202   1.096560   2.106464   2.111716
    24  H    4.255233   3.486510   2.150067   1.092379   2.852137
    25  H    3.089819   2.996854   2.212839   1.096746   2.824078
    26  H    3.389252   2.728439   2.163891   1.095377   3.501660
    27  H    3.360218   2.683883   2.162949   3.491403   1.094925
    28  H    3.643885   3.913634   3.478093   4.126697   2.222066
    29  H    2.749747   3.206080   2.751698   2.839052   2.240055
    30  H    7.206428   7.105210   5.839581   5.484698   4.851558
    31  H   11.132376  10.716590   9.236322   8.583684   8.585147
    32  H   11.563888  11.337653   9.935056   9.363569   9.088532
    33  H   11.389014  10.959862   9.500833   9.119223   8.605306
    34  H   10.217432   9.537745   8.012230   7.629471   7.346899
    35  H    8.953866   7.987941   6.481516   6.344550   6.002676
    36  Ni   6.156177   5.018921   3.624391   4.009271   3.272547
    37  F    7.344242   6.172152   4.985356   5.676368   4.385736
    38  F    5.766499   4.541754   3.180157   3.087702   3.619719
                    6          7          8          9         10
     6  C    0.000000
     7  O    1.465383   0.000000
     8  C    2.232621   1.340565   0.000000
     9  C    3.646931   2.442045   1.468191   0.000000
    10  C    4.352741   2.924991   2.513691   1.381764   0.000000
    11  C    5.739521   4.324542   3.773489   2.391923   1.405765
    12  O    6.591416   5.130950   4.848477   3.593571   2.335264
    13  C    7.974985   6.520610   6.128455   4.772900   3.650203
    14  C    6.366614   5.072962   4.192845   2.729523   2.413164
    15  C    5.820122   4.728739   3.590693   2.302595   2.741631
    16  N    4.557170   3.592748   2.352283   1.354630   2.409781
    17  N    2.352130   2.249368   1.280063   2.393661   3.662573
    18  H    3.354707   4.483801   5.099936   6.419865   7.167734
    19  H    2.746436   4.171752   4.819664   6.271196   7.063261
    20  H    4.318756   5.679564   6.183647   7.597218   8.475281
    21  H    3.754783   5.015048   4.991671   6.344608   7.491546
    22  H    4.339567   5.422014   5.413581   6.651165   7.754123
    23  H    3.508738   4.145631   3.609055   4.653660   5.920175
    24  H    3.461720   3.437231   3.025709   3.704461   4.690701
    25  H    2.749942   3.100843   3.420383   4.436204   5.159375
    26  H    4.085350   4.560084   4.474684   5.382190   6.323582
    27  H    2.195829   3.181561   2.999977   4.352578   5.469988
    28  H    1.092912   2.072265   2.892198   4.232095   4.820610
    29  H    1.087867   2.063155   3.010152   4.334594   4.912869
    30  H    4.115057   2.660316   2.775996   2.153573   1.083053
    31  H    8.306277   6.869242   6.390801   4.999196   4.019268
    32  H    8.548526   7.085239   6.863427   5.593685   4.349790
    33  H    8.326903   6.907839   6.387065   4.995361   4.015922
    34  H    7.448559   6.147556   5.271335   3.810384   3.411796
    35  H    6.598096   5.631762   4.405110   3.268637   3.826225
    36  Ni   4.386832   4.076944   2.796239   2.892564   4.241559
    37  F    5.508507   5.253747   3.995034   3.944609   5.156549
    38  F    4.771389   4.618507   3.576817   3.803486   5.050781
                   11         12         13         14         15
    11  C    0.000000
    12  O    1.345209   0.000000
    13  C    2.381340   1.427099   0.000000
    14  C    1.400473   2.437996   2.833232   0.000000
    15  C    2.403451   3.672328   4.225052   1.394511   0.000000
    16  N    2.794609   4.137305   5.027923   2.396812   1.331261
    17  N    4.783661   5.965226   7.164528   4.912535   3.989536
    18  H    8.474611   9.303361  10.646000   8.998060   8.329052
    19  H    8.438002   9.289569  10.674462   8.986254   8.288684
    20  H    9.805475  10.707402  12.060442  10.245306   9.445861
    21  H    8.719755   9.820721  11.087969   8.882803   7.865672
    22  H    8.922703  10.003141  11.231963   9.059556   8.065674
    23  H    6.960152   8.164039   9.304292   6.903217   5.795410
    24  H    5.645577   6.719226   7.832360   5.737316   4.907597
    25  H    6.333239   7.205325   8.464787   6.777462   6.169881
    26  H    7.346508   8.354931   9.498522   7.493086   6.656161
    27  H    6.704055   7.790593   9.060943   6.937073   6.020056
    28  H    6.206812   6.975907   8.371125   6.903145   6.417702
    29  H    6.292559   7.053265   8.446988   6.991412   6.509533
    30  H    2.166550   2.563058   3.987996   3.401921   3.824356
    31  H    2.708332   2.088058   1.096046   2.822809   4.159109
    32  H    3.249046   2.015526   1.089797   3.896122   5.279341
    33  H    2.706447   2.088070   1.096038   2.819901   4.156181
    34  H    2.177513   2.756839   2.571023   1.082079   2.143154
    35  H    3.398188   4.586487   4.912851   2.162925   1.085347
    36  Ni   4.861550   6.197204   7.102150   4.394130   3.093093
    37  F    5.577883   6.878990   7.634817   4.929207   3.647797
    38  F    5.667420   6.947043   7.831773   5.223350   4.010469
                   16         17         18         19         20
    16  N    0.000000
    17  N    2.659690   0.000000
    18  H    7.079344   4.805579   0.000000
    19  H    6.975007   4.428106   1.773397   0.000000
    20  H    8.142209   5.624139   1.766491   1.759803   0.000000
    21  H    6.565527   4.023561   3.081853   2.499127   2.517982
    22  H    6.831203   4.572625   2.558929   3.079393   2.442652
    23  H    4.580448   2.544771   3.848059   3.922095   4.307008
    24  H    3.849550   2.747849   3.963661   4.658762   5.215138
    25  H    5.038856   3.400667   2.491205   3.455110   4.066933
    26  H    5.578938   4.027040   2.988394   4.151052   4.123642
    27  H    4.705674   2.093148   3.990719   3.005434   4.203544
    28  H    5.184433   3.013506   3.893437   2.821199   4.553945
    29  H    5.279652   3.184792   2.539314   2.332532   3.777763
    30  H    3.386428   4.042831   6.929397   6.795837   8.282705
    31  H    5.080432   7.359593  10.760910  10.944823  12.223142
    32  H    5.999197   7.974771  11.194046  11.227680  12.648759
    33  H    5.079107   7.329924  11.162533  11.060193  12.482342
    34  H    3.356771   5.948022  10.039887  10.061943  11.298582
    35  H    2.053240   4.551723   8.946653   8.925129   9.974750
    36  Ni   2.078870   2.047163   6.373199   6.193563   7.096169
    37  F    3.022203   3.258505   7.747939   7.246331   8.208108
    38  F    3.145104   2.870640   5.807443   6.116317   6.644786
                   21         22         23         24         25
    21  H    0.000000
    22  H    1.753411   0.000000
    23  H    2.427414   2.415723   0.000000
    24  H    4.273817   3.666192   2.319181   0.000000
    25  H    3.986119   3.337040   3.052942   1.795030   0.000000
    26  H    3.715440   2.480550   2.506878   1.760988   1.765663
    27  H    2.449757   3.667504   2.484690   3.834591   3.813922
    28  H    4.073664   4.973353   4.285331   4.533604   3.781020
    29  H    3.832671   4.077647   3.782631   3.440046   2.192642
    30  H    7.584833   7.865636   6.278884   5.009697   5.097285
    31  H   11.236499  11.231150   9.301563   7.696191   8.456631
    32  H   11.831880  11.971847  10.145358   8.605229   9.076228
    33  H   11.329803  11.597522   9.545268   8.283464   9.024299
    34  H    9.899452  10.042176   7.856086   6.668306   7.773572
    35  H    8.221005   8.394492   6.053088   5.358875   6.808470
    36  Ni   5.113640   5.459471   3.048123   3.318788   4.720739
    37  F    5.970845   6.674898   4.330536   5.092591   6.378137
    38  F    4.900269   4.642863   2.479712   2.276913   4.002535
                   26         27         28         29         30
    26  H    0.000000
    27  H    4.306077   0.000000
    28  H    5.085252   2.372070   0.000000
    29  H    3.701061   2.948714   1.785113   0.000000
    30  H    6.489418   5.587744   4.473813   4.561096   0.000000
    31  H    9.346162   9.349720   8.823434   8.718299   4.481381
    32  H   10.217211   9.797106   8.887207   8.957847   4.449721
    33  H   10.000604   9.203773   8.654577   8.913696   4.477396
    34  H    8.415341   7.974631   7.977188   8.062883   4.324197
    35  H    7.049067   6.509282   7.212218   7.302371   4.908549
    36  Ni   4.735032   3.632536   5.039263   5.129068   5.026350
    37  F    6.392881   4.331019   5.878807   6.418145   5.981127
    38  F    3.475235   4.226476   5.668611   5.171099   5.758136
                   31         32         33         34         35
    31  H    0.000000
    32  H    1.786850   0.000000
    33  H    1.793071   1.786797   0.000000
    34  H    2.366147   3.654385   2.362935   0.000000
    35  H    4.718412   5.997985   4.714696   2.482079   0.000000
    36  Ni   7.105863   8.077978   7.103793   5.236131   3.176824
    37  F    7.751438   8.635601   7.375528   5.606353   3.449124
    38  F    7.624921   8.784964   8.026245   6.007746   4.021958
                   36         37         38
    36  Ni   0.000000
    37  F    1.809799   0.000000
    38  F    1.838177   3.443199   0.000000
 Stoichiometry    C13H18F2N2NiO2(3)
 Framework group  C1[X(C13H18F2N2NiO2)]
 Deg. of freedom   108
 Full point group                 C1      NOp   1
 Largest Abelian subgroup         C1      NOp   1
 Largest concise Abelian subgroup C1      NOp   1
                         Standard orientation:                         
 ---------------------------------------------------------------------
 Center     Atomic      Atomic             Coordinates (Angstroms)
 Number     Number       Type             X           Y           Z
 ---------------------------------------------------------------------
      1          6           0        5.055985   -1.973133    0.058826
      2          6           0        4.682034   -0.496557    0.231784
      3          6           0        3.190789   -0.181948    0.456718
      4          6           0        2.617190   -0.754022    1.758698
      5          6           0        2.330180   -0.541205   -0.776998
      6          6           0        1.941341   -2.036631   -0.965538
      7          8           0        0.507386   -2.089820   -0.668400
      8          6           0        0.122171   -0.811422   -0.548311
      9          6           0       -1.273687   -0.474268   -0.242544
     10          6           0       -2.299118   -1.400084   -0.217428
     11          6           0       -3.594021   -0.948929    0.092184
     12          8           0       -4.560771   -1.884246    0.105018
     13          6           0       -5.894326   -1.477084    0.409090
     14          6           0       -3.784382    0.413053    0.356930
     15          6           0       -2.680673    1.263887    0.306230
     16          7           0       -1.450435    0.842666    0.021021
     17          7           0        1.011737    0.102259   -0.659758
     18          1           0        4.683076   -2.584419    0.888345
     19          1           0        4.662925   -2.393890   -0.874672
     20          1           0        6.144316   -2.092517    0.026196
     21          1           0        5.035106    0.066527   -0.643444
     22          1           0        5.231133   -0.093150    1.091643
     23          1           0        3.098345    0.906286    0.554930
     24          1           0        1.678253   -0.243025    1.983575
     25          1           0        2.459255   -1.838901    1.727945
     26          1           0        3.304493   -0.548074    2.586377
     27          1           0        2.824113   -0.155304   -1.674757
     28          1           0        2.073219   -2.382653   -1.993805
     29          1           0        2.431971   -2.722715   -0.278496
     30          1           0       -2.118198   -2.446382   -0.430806
     31          1           0       -5.954594   -1.048637    1.416124
     32          1           0       -6.496686   -2.383939    0.359744
     33          1           0       -6.260710   -0.750642   -0.325311
     34          1           0       -4.757160    0.821022    0.598090
     35          1           0       -2.785669    2.326003    0.503363
     36         28           0        0.308849    1.943056   -0.104518
     37          9           0       -0.057693    3.071381   -1.471230
     38          9           0        1.070593    1.911613    1.568100
 ---------------------------------------------------------------------
 Rotational constants (GHZ):           0.4788019           0.1844975           0.1486399
 Basis read from rwf:  (6D, 7F)
 Pseudo-potential data read from rwf file.
 There are   398 symmetry adapted cartesian basis functions of A   symmetry.
 There are   395 symmetry adapted basis functions of A   symmetry.
   395 basis functions,   758 primitive gaussians,   398 cartesian basis functions
    82 alpha electrons       80 beta electrons
       nuclear repulsion energy      1880.8243637580 Hartrees.
 NAtoms=   38 NActive=   38 NUniq=   38 SFac= 1.00D+00 NAtFMM=   60 NAOKFM=F Big=F
 Integral buffers will be    131072 words long.
 Raffenetti 2 integral format.
 Two-electron integral symmetry is turned on.
 Nuclear repulsion after empirical dispersion term =     1880.7443126777 Hartrees.
 One-electron integrals computed using PRISM.
 PrsmSu:  requested number of processors reduced to:  12 ShMem   1 Linda.
   1 Symmetry operations used in ECPInt.
 ECPInt:  NShTT=    8911 NPrTT=   52776 LenC2=    7765 LenP2D=   27128.
 LDataN:  DoStor=T MaxTD1= 6 Len=  172
 NBasis=   395 RedAO= T EigKep=  1.11D-06  NBF=   395
 NBsUse=   395 1.00D-06 EigRej= -1.00D+00 NBFU=   395
 Initial guess from the checkpoint file:  "Lig2214_xyz_3.chk"
 B after Tr=    -0.000000   -0.000000   -0.000000
         Rot=    1.000000    0.000748   -0.000131   -0.000103 Ang=   0.09 deg.
 Initial guess <Sx>= 0.0000 <Sy>= 0.0000 <Sz>= 1.0000 <S**2>= 2.0064 S= 1.0021
 ExpMin= 2.40D-02 ExpMax= 7.14D+04 ExpMxC= 1.07D+04 IAcc=3 IRadAn=         5 AccDes= 0.00D+00
 Harris functional with IExCor=  402 and IRadAn=       5 diagonalized for initial guess.
 HarFok:  IExCor=  402 AccDes= 0.00D+00 IRadAn=         5 IDoV= 1 UseB2=F ITyADJ=14
 ICtDFT=  3500011 ScaDFX=  1.000000  1.000000  1.000000  1.000000
 FoFCou: FMM=F IPFlag=           0 FMFlag=      100000 FMFlg1=           0
         NFxFlg=           0 DoJE=T BraDBF=F KetDBF=T FulRan=T
         wScrn=  0.000000 ICntrl=       500 IOpCl=  0 I1Cent=   200000004 NGrid=           0
         NMat0=    1 NMatS0=      1 NMatT0=    0 NMatD0=    1 NMtDS0=    0 NMtDT0=    0
 Petite list used in FoFCou.
 Requested convergence on RMS density matrix=1.00D-08 within  32 cycles.
 Requested convergence on MAX density matrix=1.00D-06.
 Requested convergence on             energy=1.00D-06.
 No special actions if energy rises.
 Restarting incremental Fock formation.
 SCF Done:  E(UB3LYP) =  -1135.38312995     A.U. after   25 cycles
            NFock= 25  Conv=0.26D-08     -V/T= 2.0665
 <Sx>= 0.0000 <Sy>= 0.0000 <Sz>= 1.0000 <S**2>= 2.0065 S= 1.0022
 <L.S>=  0.00000000000    
 Annihilation of the first spin contaminant:
 S**2 before annihilation     2.0065,   after     2.0000
 QCSCF skips out because SCF is already converged.
 PrsmSu:  requested number of processors reduced to:  13 ShMem   1 Linda.
   1 Symmetry operations used in ECPInt.
 ECPInt:  NShTT=    8911 NPrTT=   52776 LenC2=    7765 LenP2D=   27128.
 LDataN:  DoStor=T MaxTD1= 7 Len=  274
 Calling FoFJK, ICntrl=      2127 FMM=F ISym2X=0 I1Cent= 0 IOpClX= 1 NMat=1 NMatS=1 NMatT=0.
 ***** Axes restored to original set *****
 -------------------------------------------------------------------
 Center     Atomic                   Forces (Hartrees/Bohr)
 Number     Number              X              Y              Z
 -------------------------------------------------------------------
      1        6          -0.000011961   -0.000011896   -0.000002108
      2        6          -0.000024869    0.000006466    0.000041087
      3        6          -0.000139230    0.000093501   -0.000006314
      4        6           0.000026648   -0.000015346   -0.000048329
      5        6           0.000008869    0.000142737   -0.000297964
      6        6          -0.000364170    0.000196840    0.000146746
      7        8           0.000363152   -0.000382149    0.000115561
      8        6          -0.000196540    0.000160950    0.000077435
      9        6           0.000190536    0.000007094   -0.000186629
     10        6          -0.000016790   -0.000087968    0.000030891
     11        6          -0.000015055    0.000072178   -0.000031156
     12        8          -0.000065310    0.000031833    0.000029018
     13        6           0.000095013   -0.000001157   -0.000057088
     14        6           0.000005960   -0.000043206    0.000036865
     15        6           0.000026605    0.000185864   -0.000031715
     16        7          -0.000114466   -0.000222983    0.000464232
     17        7           0.000054335   -0.000210605   -0.000178893
     18        1          -0.000019226   -0.000004633   -0.000029360
     19        1           0.000035223   -0.000007795    0.000007833
     20        1          -0.000002808   -0.000003472   -0.000025303
     21        1           0.000007539   -0.000004127    0.000017079
     22        1          -0.000002331   -0.000001992   -0.000026034
     23        1          -0.000009330   -0.000078583   -0.000000939
     24        1           0.000028334    0.000006784    0.000004667
     25        1          -0.000020197    0.000016587   -0.000042880
     26        1          -0.000002337    0.000011615   -0.000005670
     27        1           0.000012702    0.000020723    0.000102699
     28        1          -0.000071048   -0.000099234   -0.000012301
     29        1           0.000052043    0.000015320   -0.000048105
     30        1           0.000015482   -0.000038788    0.000005722
     31        1          -0.000005747    0.000009792   -0.000014548
     32        1          -0.000036561   -0.000015389    0.000009334
     33        1          -0.000004277    0.000020509    0.000023082
     34        1           0.000016571   -0.000014981   -0.000001424
     35        1           0.000010860    0.000006004    0.000061653
     36       28           0.000255903   -0.000028377    0.000127799
     37        9           0.000156808    0.000061188   -0.000085935
     38        9          -0.000240328    0.000206697   -0.000169009
 -------------------------------------------------------------------
 Cartesian Forces:  Max     0.000464232 RMS     0.000114798

 GradGradGradGradGradGradGradGradGradGradGradGradGradGradGradGradGradGrad
 Berny optimization.
 Using GEDIIS/GDIIS optimizer.
 FormGI is forming the generalized inverse of G from B-inverse, IUseBI=4.
 Internal  Forces:  Max     0.000381057 RMS     0.000073247
 Search for a local minimum.
 Step number  12 out of a maximum of  228
 All quantities printed in internal units (Hartrees-Bohrs-Radians)
 Mixed Optimization -- En-DIIS/RFO-DIIS
 Swapping is turned off.
 Update second derivatives using D2CorX and points    6    7    8    9   10
                                                     11   12
 DE= -1.38D-05 DEPred=-9.42D-06 R= 1.46D+00
 TightC=F SS=  1.41D+00  RLast= 2.31D-02 DXNew= 1.7643D+00 6.9226D-02
 Trust test= 1.46D+00 RLast= 2.31D-02 DXMaxT set to 1.05D+00
 ITU=  1  1  1  1  0  1  0  1  1  1  1  0
     Eigenvalues ---    0.00190   0.00231   0.00258   0.00469   0.01059
     Eigenvalues ---    0.01377   0.01657   0.01826   0.01969   0.01987
     Eigenvalues ---    0.02022   0.02039   0.02121   0.02126   0.02194
     Eigenvalues ---    0.02229   0.02406   0.03060   0.03098   0.03254
     Eigenvalues ---    0.03525   0.03884   0.04099   0.04694   0.04822
     Eigenvalues ---    0.04940   0.05110   0.05214   0.05299   0.05466
     Eigenvalues ---    0.05547   0.05610   0.05916   0.06364   0.06886
     Eigenvalues ---    0.09007   0.10112   0.10520   0.10691   0.10831
     Eigenvalues ---    0.11476   0.11653   0.12695   0.14249   0.15927
     Eigenvalues ---    0.15981   0.15998   0.16000   0.16002   0.16003
     Eigenvalues ---    0.16007   0.16017   0.16034   0.16067   0.16410
     Eigenvalues ---    0.16479   0.17454   0.18607   0.19219   0.19781
     Eigenvalues ---    0.20371   0.21313   0.21648   0.22431   0.23578
     Eigenvalues ---    0.24087   0.24674   0.24911   0.25240   0.25501
     Eigenvalues ---    0.25805   0.27069   0.27957   0.28697   0.29034
     Eigenvalues ---    0.30354   0.31133   0.34493   0.34566   0.34602
     Eigenvalues ---    0.34623   0.34646   0.34678   0.34683   0.34729
     Eigenvalues ---    0.34775   0.34796   0.34809   0.34845   0.34916
     Eigenvalues ---    0.35090   0.35422   0.35626   0.35935   0.36175
     Eigenvalues ---    0.36356   0.38990   0.40877   0.41495   0.42137
     Eigenvalues ---    0.42553   0.44901   0.46281   0.48339   0.49506
     Eigenvalues ---    0.51119   0.54563   0.67557
 En-DIIS/RFO-DIIS/Sim-DIIS IScMMF=       -3 using points:    12   11   10    9    8
 RFO step:  Lambda=-1.43608425D-05.
 DidBck=F Rises=F RFO-DIIS coefs:    2.54892   -1.45768   -0.11418    0.03574   -0.01281
 Iteration  1 RMS(Cart)=  0.00810008 RMS(Int)=  0.00001426
 Iteration  2 RMS(Cart)=  0.00002562 RMS(Int)=  0.00000436
 Iteration  3 RMS(Cart)=  0.00000000 RMS(Int)=  0.00000436
 Variable       Old X    -DE/DX   Delta X   Delta X   Delta X     New X
                                 (Linear)    (Quad)   (Total)
    R1        2.89691  -0.00000   0.00024  -0.00024  -0.00000   2.89691
    R2        2.07081   0.00001  -0.00010   0.00007  -0.00003   2.07078
    R3        2.07263   0.00003  -0.00005   0.00008   0.00003   2.07267
    R4        2.06990   0.00000  -0.00007   0.00004  -0.00003   2.06987
    R5        2.91127   0.00001   0.00006  -0.00011  -0.00005   2.91123
    R6        2.07676   0.00001  -0.00006   0.00004  -0.00002   2.07674
    R7        2.07320   0.00002  -0.00005   0.00006   0.00001   2.07321
    R8        2.89778   0.00004   0.00104  -0.00072   0.00031   2.89810
    R9        2.92253   0.00009   0.00003   0.00008   0.00010   2.92263
   R10        2.07220  -0.00006   0.00030  -0.00018   0.00012   2.07232
   R11        2.06430   0.00002   0.00044  -0.00025   0.00019   2.06448
   R12        2.07255  -0.00001  -0.00017   0.00019   0.00002   2.07257
   R13        2.06996   0.00000   0.00018  -0.00019  -0.00001   2.06996
   R14        2.94157   0.00021   0.00027   0.00043   0.00069   2.94226
   R15        2.78123   0.00021  -0.00088   0.00075  -0.00014   2.78109
   R16        2.06911   0.00007   0.00006   0.00013   0.00020   2.06930
   R17        2.76917   0.00038  -0.00105   0.00135   0.00030   2.76947
   R18        2.06530  -0.00001  -0.00012  -0.00004  -0.00016   2.06514
   R19        2.05577  -0.00004   0.00005   0.00001   0.00006   2.05583
   R20        2.53330   0.00001  -0.00005  -0.00009  -0.00013   2.53317
   R21        2.77448   0.00010   0.00018   0.00022   0.00040   2.77488
   R22        2.41897   0.00007  -0.00062   0.00033  -0.00029   2.41868
   R23        2.61116   0.00006  -0.00018   0.00012  -0.00006   2.61110
   R24        2.55988  -0.00018  -0.00027  -0.00016  -0.00043   2.55945
   R25        2.65651  -0.00004   0.00038  -0.00015   0.00024   2.65675
   R26        2.04667   0.00001   0.00002  -0.00000   0.00001   2.04669
   R27        2.54208  -0.00004  -0.00016   0.00000  -0.00016   2.54191
   R28        2.64651  -0.00003   0.00003  -0.00004  -0.00001   2.64650
   R29        2.69683   0.00004   0.00011   0.00012   0.00022   2.69705
   R30        2.07123   0.00001  -0.00008   0.00005  -0.00004   2.07119
   R31        2.05942   0.00002  -0.00009   0.00007  -0.00002   2.05940
   R32        2.07121   0.00002  -0.00007   0.00005  -0.00002   2.07119
   R33        2.63524   0.00001   0.00032  -0.00011   0.00020   2.63545
   R34        2.04483   0.00002  -0.00000   0.00004   0.00004   2.04487
   R35        2.51572  -0.00003  -0.00030   0.00011  -0.00020   2.51552
   R36        2.05101  -0.00002  -0.00003  -0.00001  -0.00004   2.05097
   R37        3.92849   0.00011  -0.00485   0.00299  -0.00186   3.92663
   R38        3.86858   0.00017  -0.00002   0.00147   0.00145   3.87003
   R39        3.42002   0.00008  -0.00013   0.00013  -0.00000   3.42002
   R40        3.47365   0.00024  -0.00199   0.00122  -0.00077   3.47288
    A1        1.94861   0.00002  -0.00030   0.00017  -0.00013   1.94848
    A2        1.95856  -0.00005   0.00023  -0.00044  -0.00021   1.95835
    A3        1.92913  -0.00001   0.00018  -0.00004   0.00014   1.92927
    A4        1.88423   0.00002   0.00011  -0.00003   0.00008   1.88431
    A5        1.87535  -0.00001  -0.00012   0.00010  -0.00003   1.87533
    A6        1.86389   0.00003  -0.00011   0.00027   0.00016   1.86405
    A7        2.03678  -0.00001  -0.00020  -0.00044  -0.00065   2.03613
    A8        1.90212  -0.00000   0.00034  -0.00021   0.00013   1.90225
    A9        1.89707   0.00001   0.00041  -0.00000   0.00041   1.89748
   A10        1.89930  -0.00001  -0.00000  -0.00017  -0.00017   1.89914
   A11        1.87020   0.00001  -0.00034   0.00061   0.00026   1.87046
   A12        1.84938   0.00001  -0.00023   0.00030   0.00007   1.84945
   A13        1.99310   0.00002   0.00044  -0.00024   0.00020   1.99330
   A14        1.95492  -0.00012   0.00037  -0.00092  -0.00055   1.95437
   A15        1.87271   0.00004  -0.00177   0.00138  -0.00039   1.87232
   A16        1.96330   0.00010   0.00071  -0.00048   0.00022   1.96352
   A17        1.83657  -0.00006   0.00148  -0.00090   0.00059   1.83715
   A18        1.82872   0.00001  -0.00151   0.00146  -0.00005   1.82867
   A19        1.89842  -0.00001  -0.00123   0.00085  -0.00038   1.89804
   A20        1.98132   0.00002  -0.00044  -0.00003  -0.00047   1.98084
   A21        1.91422  -0.00001   0.00155  -0.00112   0.00044   1.91465
   A22        1.92274   0.00001  -0.00053   0.00064   0.00012   1.92285
   A23        1.87111   0.00001   0.00195  -0.00102   0.00093   1.87205
   A24        1.87290  -0.00002  -0.00112   0.00057  -0.00054   1.87235
   A25        2.04744  -0.00007   0.00132  -0.00108   0.00024   2.04768
   A26        1.91070   0.00017  -0.00068   0.00162   0.00095   1.91165
   A27        1.89777  -0.00001  -0.00027  -0.00012  -0.00040   1.89737
   A28        1.77817  -0.00005   0.00040  -0.00003   0.00036   1.77854
   A29        1.93047   0.00001   0.00005  -0.00042  -0.00036   1.93010
   A30        1.89161  -0.00004  -0.00100   0.00019  -0.00081   1.89080
   A31        1.82839   0.00002   0.00019   0.00015   0.00032   1.82871
   A32        1.96923   0.00010   0.00015   0.00058   0.00073   1.96996
   A33        2.00064  -0.00006  -0.00029  -0.00059  -0.00087   1.99976
   A34        1.87273  -0.00008   0.00009   0.00005   0.00016   1.87288
   A35        1.86542   0.00004   0.00030  -0.00025   0.00006   1.86548
   A36        1.91782  -0.00002  -0.00036   0.00004  -0.00032   1.91750
   A37        1.83873  -0.00011   0.00082  -0.00038   0.00043   1.83916
   A38        2.10696  -0.00011   0.00101  -0.00066   0.00035   2.10731
   A39        2.06370   0.00015  -0.00045   0.00058   0.00012   2.06382
   A40        2.11171  -0.00004  -0.00049   0.00008  -0.00042   2.11130
   A41        2.15973   0.00003   0.00109  -0.00023   0.00086   2.16059
   A42        1.96906  -0.00003  -0.00088   0.00016  -0.00072   1.96834
   A43        2.15437  -0.00000  -0.00020   0.00007  -0.00013   2.15424
   A44        2.06299  -0.00006   0.00004  -0.00021  -0.00017   2.06282
   A45        2.11734   0.00007   0.00001   0.00028   0.00028   2.11762
   A46        2.10285  -0.00001  -0.00004  -0.00007  -0.00011   2.10274
   A47        2.02745  -0.00002   0.00006  -0.00012  -0.00006   2.02739
   A48        2.07026   0.00006  -0.00016   0.00028   0.00011   2.07037
   A49        2.18548  -0.00004   0.00010  -0.00016  -0.00005   2.18542
   A50        2.06600  -0.00006  -0.00027   0.00003  -0.00024   2.06577
   A51        1.93765  -0.00001  -0.00000  -0.00011  -0.00011   1.93754
   A52        1.84360  -0.00005  -0.00002  -0.00008  -0.00011   1.84350
   A53        1.93767  -0.00002  -0.00005  -0.00009  -0.00014   1.93753
   A54        1.91399   0.00002   0.00005   0.00008   0.00013   1.91412
   A55        1.91577   0.00002   0.00000   0.00009   0.00009   1.91586
   A56        1.91391   0.00003   0.00002   0.00012   0.00014   1.91405
   A57        2.07021  -0.00004   0.00020  -0.00017   0.00003   2.07023
   A58        2.13056   0.00001   0.00007  -0.00003   0.00005   2.13061
   A59        2.08242   0.00003  -0.00028   0.00020  -0.00008   2.08234
   A60        2.14855  -0.00004  -0.00051   0.00004  -0.00047   2.14808
   A61        2.11052   0.00001   0.00009  -0.00000   0.00009   2.11061
   A62        2.02411   0.00003   0.00042  -0.00004   0.00038   2.02449
   A63        2.05993   0.00008   0.00063  -0.00001   0.00062   2.06055
   A64        1.97406   0.00013   0.00148   0.00009   0.00157   1.97563
   A65        2.24914  -0.00021  -0.00211  -0.00008  -0.00219   2.24696
   A66        1.89379  -0.00000   0.00083  -0.00010   0.00070   1.89450
   A67        2.37795  -0.00001   0.00074  -0.00011   0.00063   2.37857
   A68        1.96017   0.00003  -0.00008   0.00044   0.00035   1.96052
   A69        1.40096  -0.00009  -0.00008  -0.00070  -0.00078   1.40018
   A70        1.77646  -0.00004  -0.00323  -0.00062  -0.00385   1.77260
   A71        1.86157   0.00029   0.00506   0.00046   0.00552   1.86709
   A72        2.01012   0.00017   0.00414   0.00035   0.00448   2.01459
   A73        1.66005  -0.00007   0.00567  -0.00455   0.00111   1.66116
   A74        2.46827  -0.00019  -0.00770   0.00332  -0.00442   2.46385
    D1       -0.93701  -0.00002  -0.00070  -0.00235  -0.00305  -0.94006
    D2       -3.09606   0.00000  -0.00083  -0.00163  -0.00246  -3.09852
    D3        1.17913  -0.00001  -0.00097  -0.00187  -0.00283   1.17630
    D4        1.18114  -0.00002  -0.00060  -0.00259  -0.00319   1.17795
    D5       -0.97791   0.00001  -0.00073  -0.00186  -0.00259  -0.98051
    D6       -2.98591  -0.00000  -0.00087  -0.00210  -0.00297  -2.98888
    D7       -3.02350  -0.00002  -0.00047  -0.00256  -0.00303  -3.02653
    D8        1.10063   0.00001  -0.00060  -0.00183  -0.00243   1.09820
    D9       -0.90736  -0.00000  -0.00074  -0.00208  -0.00281  -0.91018
   D10        1.11807   0.00004  -0.00099   0.00206   0.00107   1.11914
   D11       -1.13934  -0.00001  -0.00271   0.00379   0.00107  -1.13827
   D12       -3.13701   0.00001  -0.00006   0.00172   0.00165  -3.13536
   D13       -3.00462   0.00002  -0.00068   0.00131   0.00063  -3.00399
   D14        1.02116  -0.00002  -0.00241   0.00304   0.00063   1.02179
   D15       -0.97652  -0.00000   0.00024   0.00097   0.00121  -0.97531
   D16       -1.01216   0.00003  -0.00112   0.00188   0.00076  -1.01140
   D17        3.01361  -0.00002  -0.00285   0.00362   0.00077   3.01438
   D18        1.01594   0.00000  -0.00020   0.00154   0.00135   1.01728
   D19        2.84414   0.00003  -0.00325  -0.00006  -0.00331   2.84083
   D20       -1.29186   0.00005  -0.00514   0.00138  -0.00376  -1.29562
   D21        0.80282   0.00003  -0.00576   0.00130  -0.00446   0.79836
   D22       -1.18584  -0.00003  -0.00168  -0.00202  -0.00370  -1.18954
   D23        0.96135  -0.00001  -0.00358  -0.00058  -0.00416   0.95720
   D24        3.05603  -0.00003  -0.00420  -0.00066  -0.00485   3.05118
   D25        0.79516   0.00000  -0.00228  -0.00104  -0.00332   0.79184
   D26        2.94235   0.00002  -0.00417   0.00040  -0.00377   2.93858
   D27       -1.24615  -0.00000  -0.00479   0.00032  -0.00447  -1.25062
   D28        1.39509  -0.00001   0.00277  -0.00332  -0.00054   1.39455
   D29       -2.87460   0.00001   0.00364  -0.00285   0.00079  -2.87382
   D30       -0.81098   0.00005   0.00188  -0.00176   0.00012  -0.81086
   D31       -0.87777  -0.00002   0.00121  -0.00175  -0.00053  -0.87831
   D32        1.13572  -0.00000   0.00208  -0.00128   0.00080   1.13652
   D33       -3.08384   0.00004   0.00032  -0.00020   0.00013  -3.08371
   D34       -2.86358  -0.00000  -0.00001  -0.00129  -0.00130  -2.86488
   D35       -0.85009   0.00001   0.00085  -0.00082   0.00003  -0.85006
   D36        1.21354   0.00005  -0.00091   0.00026  -0.00064   1.21290
   D37        1.89577   0.00014   0.00786   0.00242   0.01028   1.90605
   D38       -2.35596   0.00010   0.00816   0.00287   0.01103  -2.34493
   D39       -0.14303   0.00011   0.00753   0.00293   0.01047  -0.13256
   D40       -0.18950  -0.00000   0.00771   0.00100   0.00871  -0.18079
   D41        1.84196  -0.00004   0.00801   0.00145   0.00945   1.85142
   D42       -2.22829  -0.00003   0.00738   0.00151   0.00889  -2.21940
   D43       -2.19748   0.00007   0.00863   0.00097   0.00960  -2.18788
   D44       -0.16602   0.00004   0.00893   0.00142   0.01035  -0.15567
   D45        2.04691   0.00004   0.00830   0.00149   0.00979   2.05670
   D46       -2.00641   0.00001  -0.00776  -0.00031  -0.00807  -2.01448
   D47        0.75462   0.00008  -0.00250   0.00059  -0.00191   0.75271
   D48        0.17296  -0.00002  -0.00632  -0.00078  -0.00710   0.16587
   D49        2.93399   0.00006  -0.00105   0.00012  -0.00093   2.93306
   D50        2.20932  -0.00005  -0.00647  -0.00119  -0.00766   2.20166
   D51       -1.31284   0.00002  -0.00121  -0.00029  -0.00149  -1.31433
   D52        0.14546   0.00003  -0.00652  -0.00090  -0.00742   0.13804
   D53       -1.95156  -0.00006  -0.00683  -0.00168  -0.00851  -1.96006
   D54        2.27520  -0.00002  -0.00661  -0.00162  -0.00824   2.26696
   D55       -3.13817  -0.00007   0.00120   0.00058   0.00178  -3.13639
   D56       -0.03945  -0.00004   0.00278   0.00048   0.00326  -0.03619
   D57       -0.14017   0.00003   0.00173   0.00051   0.00224  -0.13793
   D58        2.99504   0.00003   0.00286   0.00022   0.00308   2.99812
   D59        3.04548  -0.00000   0.00011   0.00060   0.00071   3.04619
   D60       -0.10250  -0.00000   0.00124   0.00031   0.00155  -0.10095
   D61       -0.09447   0.00004   0.00256   0.00024   0.00280  -0.09167
   D62       -2.95471  -0.00001  -0.00148  -0.00033  -0.00180  -2.95651
   D63        3.00413   0.00007   0.00418   0.00012   0.00430   3.00843
   D64        0.14390   0.00002   0.00014  -0.00045  -0.00031   0.14359
   D65        3.13969  -0.00002   0.00162  -0.00055   0.00107   3.14075
   D66       -0.00346  -0.00001   0.00135  -0.00031   0.00104  -0.00241
   D67        0.00515  -0.00001   0.00037  -0.00024   0.00014   0.00529
   D68       -3.13800  -0.00001   0.00010   0.00001   0.00011  -3.13788
   D69        3.13650   0.00002  -0.00177   0.00024  -0.00153   3.13497
   D70        0.00473  -0.00001  -0.00195   0.00003  -0.00192   0.00281
   D71       -0.01146   0.00002  -0.00064  -0.00005  -0.00069  -0.01215
   D72        3.13996  -0.00001  -0.00082  -0.00026  -0.00108   3.13888
   D73        3.14149   0.00000   0.00006   0.00035   0.00041  -3.14128
   D74        0.00236  -0.00000   0.00011   0.00028   0.00039   0.00275
   D75        0.00143  -0.00000   0.00033   0.00011   0.00044   0.00187
   D76       -3.13769  -0.00001   0.00038   0.00003   0.00042  -3.13728
   D77       -3.13779  -0.00001  -0.00085  -0.00007  -0.00092  -3.13871
   D78        0.00115  -0.00000  -0.00091   0.00002  -0.00089   0.00026
   D79       -0.00331   0.00001  -0.00032  -0.00005  -0.00038  -0.00368
   D80        3.13830   0.00001  -0.00070   0.00034  -0.00035   3.13794
   D81        3.14100   0.00000  -0.00026  -0.00014  -0.00040   3.14060
   D82       -0.00059   0.00000  -0.00064   0.00026  -0.00037  -0.00096
   D83       -1.07053  -0.00000   0.00123  -0.00002   0.00122  -1.06931
   D84        3.13913   0.00001   0.00118  -0.00000   0.00118   3.14031
   D85        1.06567   0.00001   0.00120  -0.00004   0.00115   1.06682
   D86       -0.00322   0.00000   0.00006  -0.00024  -0.00018  -0.00340
   D87        3.13988  -0.00001  -0.00050   0.00002  -0.00047   3.13941
   D88        3.13837  -0.00000   0.00043  -0.00063  -0.00020   3.13816
   D89       -0.00172  -0.00001  -0.00013  -0.00036  -0.00050  -0.00222
   D90        0.01040  -0.00001   0.00041   0.00029   0.00070   0.01110
   D91        3.14039   0.00003   0.00065   0.00054   0.00119   3.14158
   D92       -3.13263  -0.00000   0.00094   0.00004   0.00098  -3.13165
   D93       -0.00264   0.00004   0.00118   0.00029   0.00147  -0.00117
   D94        0.05008   0.00002   0.00164  -0.00021   0.00143   0.05151
   D95        2.03791   0.00018   0.00618   0.00009   0.00627   2.04418
   D96       -1.56380   0.00016  -0.00352   0.00487   0.00136  -1.56244
   D97       -3.08037  -0.00002   0.00141  -0.00045   0.00096  -3.07941
   D98       -1.09255   0.00014   0.00596  -0.00015   0.00580  -1.08674
   D99        1.58893   0.00012  -0.00374   0.00463   0.00089   1.58982
   D100      -2.85383  -0.00009  -0.00652  -0.00047  -0.00699  -2.86082
   D101       1.70966   0.00001  -0.00248   0.00058  -0.00189   1.70777
   D102      -1.00269   0.00021  -0.00225   0.00066  -0.00159  -1.00428
   D103      -0.10283  -0.00002  -0.00098   0.00037  -0.00060  -0.10344
   D104      -1.82252   0.00008   0.00307   0.00142   0.00450  -1.81803
   D105       1.74831   0.00028   0.00330   0.00150   0.00479   1.75311
         Item               Value     Threshold  Converged?
 Maximum Force            0.000381     0.000450     YES
 RMS     Force            0.000073     0.000300     YES
 Maximum Displacement     0.027103     0.001800     NO 
 RMS     Displacement     0.008097     0.001200     NO 
 Predicted change in Energy=-7.186681D-06
 GradGradGradGradGradGradGradGradGradGradGradGradGradGradGradGradGradGrad

                          Input orientation:                          
 ---------------------------------------------------------------------
 Center     Atomic      Atomic             Coordinates (Angstroms)
 Number     Number       Type             X           Y           Z
 ---------------------------------------------------------------------
      1          6           0       -6.038204    1.488538   -2.505987
      2          6           0       -4.911041    2.266027   -3.195215
      3          6           0       -3.545998    1.559285   -3.297613
      4          6           0       -3.557395    0.291520   -4.160510
      5          6           0       -2.910662    1.323352   -1.907426
      6          6           0       -3.429083    0.109637   -1.081406
      7          8           0       -2.324249   -0.853104   -1.098023
      8          6           0       -1.295128   -0.203456   -1.659982
      9          6           0       -0.000506   -0.869854   -1.849898
     10          6           0        0.303933   -2.117263   -1.339529
     11          6           0        1.581760   -2.645289   -1.594235
     12          8           0        1.834306   -3.861795   -1.078784
     13          6           0        3.118807   -4.440969   -1.305871
     14          6           0        2.484277   -1.884130   -2.347500
     15          6           0        2.076084   -0.636052   -2.817224
     16          7           0        0.865194   -0.133511   -2.586624
     17          7           0       -1.485029    0.994936   -2.067372
     18          1           0       -6.182400    0.500543   -2.957513
     19          1           0       -5.849162    1.346642   -1.434952
     20          1           0       -6.986469    2.030107   -2.591106
     21          1           0       -4.774387    3.228085   -2.681903
     22          1           0       -5.226217    2.511288   -4.217040
     23          1           0       -2.860020    2.247903   -3.805373
     24          1           0       -2.528526    0.039153   -4.427429
     25          1           0       -4.042710   -0.563675   -3.674723
     26          1           0       -4.097189    0.484918   -5.093817
     27          1           0       -2.988054    2.247080   -1.324482
     28          1           0       -3.626172    0.360348   -0.036144
     29          1           0       -4.293110   -0.393539   -1.510119
     30          1           0       -0.416253   -2.678494   -0.756974
     31          1           0        3.301274   -4.584772   -2.376990
     32          1           0        3.097481   -5.408224   -0.804275
     33          1           0        3.911956   -3.819342   -0.874860
     34          1           0        3.482677   -2.234696   -2.573861
     35          1           0        2.745622   -0.014116   -3.402753
     36         28           0        0.076431    1.689824   -3.195642
     37          9           0        1.178228    2.858454   -2.361544
     38          9           0       -0.747865    1.404442   -4.813198
 ---------------------------------------------------------------------
                    Distance matrix (angstroms):
                    1          2          3          4          5
     1  C    0.000000
     2  C    1.532978   0.000000
     3  C    2.615869   1.540556   0.000000
     4  C    3.213209   2.581246   1.533606   0.000000
     5  C    3.188586   2.559014   1.546589   2.561119   0.000000
     6  C    3.276936   3.363689   2.650797   3.087140   1.556976
     7  O    4.610760   4.562750   3.485755   3.494230   2.394989
     8  C    5.106402   4.640055   3.294770   3.408151   2.236586
     9  C    6.515080   5.979714   4.535098   4.397633   3.644512
    10  C    7.388174   7.060648   5.672130   5.354439   4.742779
    11  C    8.716861   8.297025   6.846447   6.451475   6.002504
    12  O    9.624936   9.355704   7.953552   7.471111   7.077225
    13  C   10.974979  10.631644   9.186387   8.667011   8.363238
    14  C    9.166934   8.522508   7.008854   6.672500   6.291817
    15  C    8.393594   7.575279   6.054592   5.865227   5.434577
    16  N    7.091858   6.284350   4.778041   4.713498   4.103760
    17  N    4.600808   3.824299   2.465680   3.028320   1.471689
    18  H    1.095811   2.188559   2.861331   2.895090   3.533266
    19  H    1.096807   2.196330   2.969728   3.714047   2.976333
    20  H    1.095330   2.174398   3.543679   4.152621   4.192746
    21  H    2.157361   1.098962   2.161696   3.505818   2.775120
    22  H    2.152451   1.097094   2.138876   2.777684   3.479556
    23  H    3.516518   2.139932   1.096622   2.107104   2.111768
    24  H    4.255644   3.486216   2.150008   1.092478   2.854052
    25  H    3.091847   2.998524   2.212667   1.096759   2.822365
    26  H    3.386984   2.727526   2.164353   1.095373   3.501986
    27  H    3.357791   2.682886   2.162778   3.491621   1.095028
    28  H    3.631919   3.906690   3.475782   4.125514   2.222842
    29  H    2.753056   3.208532   2.750788   2.834635   2.239805
    30  H    7.213150   7.113116   5.848839   5.501983   4.853904
    31  H   11.141256  10.725906   9.245654   8.602355   8.585719
    32  H   11.572463  11.346680   9.944784   9.382898   9.090041
    33  H   11.394729  10.966360   9.508967   9.137062   8.605906
    34  H   10.223221   9.544479   8.019999   7.646034   7.347014
    35  H    8.956437   7.991659   6.486226   6.355756   6.001531
    36  Ni   6.156696   5.020646   3.626215   4.011349   3.273611
    37  F    7.346729   6.174558   4.988224   5.679045   4.391103
    38  F    5.772173   4.548871   3.185988   3.091610   3.623227
                    6          7          8          9         10
     6  C    0.000000
     7  O    1.465539   0.000000
     8  C    2.233057   1.340496   0.000000
     9  C    3.647619   2.442412   1.468401   0.000000
    10  C    4.354437   2.926390   2.514427   1.381733   0.000000
    11  C    5.741181   4.326090   3.774037   2.391882   1.405891
    12  O    6.593599   5.132852   4.849185   3.593447   2.335257
    13  C    7.977046   6.522486   6.129007   4.772728   3.650241
    14  C    6.367568   5.074064   4.193000   2.729562   2.413349
    15  C    5.820308   4.729238   3.590462   2.302739   2.741913
    16  N    4.556931   3.592532   2.351712   1.354401   2.409466
    17  N    2.352707   2.249262   1.279911   2.393438   3.662775
    18  H    3.354600   4.491703   5.105353   6.428111   7.179366
    19  H    2.740795   4.168623   4.815876   6.268318   7.061750
    20  H    4.315367   5.681417   6.184428   7.600187   8.480394
    21  H    3.754484   5.016767   4.992497   6.346280   7.494267
    22  H    4.339334   5.428519   5.418657   6.659095   7.764413
    23  H    3.509418   4.151269   3.613966   4.660591   5.928376
    24  H    3.465811   3.452940   3.039555   3.723016   4.712545
    25  H    2.748669   3.110669   3.426098   4.445576   5.173013
    26  H    4.084929   4.571651   4.485157   5.398262   6.343177
    27  H    2.195964   3.178531   2.997279   4.349342   5.466707
    28  H    1.092827   2.072452   2.896289   4.236573   4.825255
    29  H    1.087898   2.063356   3.007737   4.332294   4.912548
    30  H    4.117776   2.662482   2.777347   2.153719   1.083060
    31  H    8.307450   6.870780   6.390380   4.998019   4.018580
    32  H    8.551002   7.087352   6.864173   5.593537   4.349809
    33  H    8.328889   6.909314   6.387862   4.995752   4.016320
    34  H    7.449547   6.148762   5.271483   3.810443   3.412005
    35  H    6.597799   5.631986   4.404630   3.268771   3.826482
    36  Ni   4.388123   4.077959   2.797130   2.892905   4.241559
    37  F    5.515620   5.257327   3.998121   3.943536   5.154285
    38  F    4.774068   4.624286   3.581564   3.809477   5.057178
                   11         12         13         14         15
    11  C    0.000000
    12  O    1.345123   0.000000
    13  C    2.381204   1.427218   0.000000
    14  C    1.400467   2.437880   2.832851   0.000000
    15  C    2.403559   3.672336   4.224790   1.394619   0.000000
    16  N    2.794160   4.136769   5.027254   2.396513   1.331157
    17  N    4.783335   5.965159   7.164094   4.911505   3.987972
    18  H    8.487459   9.318111  10.661093   9.009443   8.337511
    19  H    8.436794   9.289260  10.674154   8.984255   8.285606
    20  H    9.811607  10.714836  12.068274  10.250640   9.449306
    21  H    8.722393   9.824012  11.091003   8.884523   7.866308
    22  H    8.934089  10.015779  11.244919   9.070094   8.073960
    23  H    6.968634   8.173089   9.313156   6.910904   5.801616
    24  H    5.668127   6.742783   7.855443   5.757891   4.924540
    25  H    6.347929   7.221898   8.481284   6.790190   6.179012
    26  H    7.368564   8.378368   9.522788   7.514675   6.674485
    27  H    6.700092   7.786776   9.056715   6.932522   6.015498
    28  H    6.211607   6.980717   8.376132   6.907795   6.422067
    29  H    6.292181   7.054082   8.447479   6.989709   6.506455
    30  H    2.166601   2.562963   3.988013   3.402037   3.824649
    31  H    2.707587   2.088069   1.096025   2.821671   4.157799
    32  H    3.248886   2.015542   1.089788   3.895742   5.279095
    33  H    2.706606   2.088065   1.096028   2.819926   4.156506
    34  H    2.177553   2.756779   2.570572   1.082099   2.143220
    35  H    3.398292   4.586498   4.912556   2.163057   1.085325
    36  Ni   4.860424   6.196102   7.100275   4.392062   3.090551
    37  F    5.571606   6.872965   7.626392   4.919152   3.636669
    38  F    5.673552   6.953179   7.837175   5.228873   4.015247
                   16         17         18         19         20
    16  N    0.000000
    17  N    2.658300   0.000000
    18  H    7.085772   4.806461   0.000000
    19  H    6.971354   4.423721   1.773449   0.000000
    20  H    8.144315   5.622430   1.766451   1.759910   0.000000
    21  H    6.566146   4.022993   3.081874   2.499971   2.517281
    22  H    6.838019   4.573498   2.558083   3.079687   2.444111
    23  H    4.586251   2.545815   3.848421   3.919966   4.306908
    24  H    3.864674   2.751777   3.965392   4.657368   5.216248
    25  H    5.045446   3.399203   2.495040   3.453861   4.070338
    26  H    5.594079   4.030244   2.985321   4.147200   4.122997
    27  H    4.701886   2.092566   3.990116   3.001489   4.199850
    28  H    5.188565   3.018788   3.884373   2.805553   4.539551
    29  H    5.275848   3.181778   2.542391   2.335632   3.781108
    30  H    3.386245   4.043948   6.942413   6.795431   8.288709
    31  H    5.078598   7.357833  10.776712  10.945300  12.232748
    32  H    5.998539   7.974664  11.210092  11.228018  12.657313
    33  H    5.079197   7.329857  11.175638  11.058052  12.487483
    34  H    3.356539   5.946861  10.051986  10.060135  11.304506
    35  H    2.053371   4.549707   8.953920   8.921559   9.977535
    36  Ni   2.077884   2.047931   6.375270   6.191160   7.096888
    37  F    3.016705   3.263767   7.752017   7.247645   8.209819
    38  F    3.150379   2.872397   5.813327   6.118751   6.652016
                   21         22         23         24         25
    21  H    0.000000
    22  H    1.753452   0.000000
    23  H    2.426467   2.416140   0.000000
    24  H    4.273176   3.665140   2.318494   0.000000
    25  H    3.987291   3.339191   3.052998   1.795195   0.000000
    26  H    3.714955   2.479842   2.509739   1.761671   1.765317
    27  H    2.448662   3.666889   2.484192   3.835934   3.812647
    28  H    4.067229   4.966546   4.284500   4.537773   3.777113
    29  H    3.836778   4.078741   3.781422   3.436812   2.185671
    30  H    7.588567   7.876652   6.287616   5.031853   5.112427
    31  H   11.240552  11.245353   9.310600   7.718261   8.472747
    32  H   11.835439  11.985390  10.154540   8.628622   9.093484
    33  H   11.330674  11.608327   9.552959   8.305934   9.039652
    34  H    9.901148  10.053319   7.863848   6.688846   7.786890
    35  H    8.220828   8.401842   6.058221   5.373028   6.815969
    36  Ni   5.114744   5.462247   3.050569   3.320815   4.719651
    37  F    5.972677   6.676849   4.331842   5.094738   6.379154
    38  F    4.907236   4.651468   2.487636   2.276748   4.003200
                   26         27         28         29         30
    26  H    0.000000
    27  H    4.306191   0.000000
    28  H    5.081086   2.372081   0.000000
    29  H    3.694992   2.951356   1.784868   0.000000
    30  H    6.508815   5.585472   4.478587   4.562704   0.000000
    31  H    9.371242   9.345460   8.827417   8.717372   4.480888
    32  H   10.241708   9.793264   8.892354   8.959136   4.449718
    33  H   10.023606   9.198574   8.660059   8.914190   4.477591
    34  H    8.438059   7.969794   7.981854   8.061281   4.324313
    35  H    7.066314   6.504402   7.216234   7.298614   4.908819
    36  Ni   4.740673   3.633571   5.045711   5.125844   5.027130
    37  F    6.397579   4.336724   5.893240   6.421520   5.981204
    38  F    3.484572   4.230794   5.674066   5.168348   5.764831
                   31         32         33         34         35
    31  H    0.000000
    32  H    1.786907   0.000000
    33  H    1.793102   1.786868   0.000000
    34  H    2.365275   3.653915   2.362624   0.000000
    35  H    4.717186   5.997691   4.714905   2.482194   0.000000
    36  Ni   7.102138   8.076365   7.102689   5.233639   3.173466
    37  F    7.740102   8.628243   7.367256   5.594259   3.434020
    38  F    7.628979   8.790368   8.031959   6.012939   4.025681
                   36         37         38
    36  Ni   0.000000
    37  F    1.809798   0.000000
    38  F    1.837769   3.440144   0.000000
 Stoichiometry    C13H18F2N2NiO2(3)
 Framework group  C1[X(C13H18F2N2NiO2)]
 Deg. of freedom   108
 Full point group                 C1      NOp   1
 Largest Abelian subgroup         C1      NOp   1
 Largest concise Abelian subgroup C1      NOp   1
                         Standard orientation:                         
 ---------------------------------------------------------------------
 Center     Atomic      Atomic             Coordinates (Angstroms)
 Number     Number       Type             X           Y           Z
 ---------------------------------------------------------------------
      1          6           0        5.060500   -1.968747    0.051164
      2          6           0        4.687013   -0.491520    0.219487
      3          6           0        3.196894   -0.177425    0.452297
      4          6           0        2.632108   -0.742713    1.761271
      5          6           0        2.329414   -0.545011   -0.774201
      6          6           0        1.941938   -2.042418   -0.952557
      7          8           0        0.506733   -2.094491   -0.660529
      8          6           0        0.121445   -0.816008   -0.542355
      9          6           0       -1.275041   -0.477883   -0.239536
     10          6           0       -2.301236   -1.402756   -0.212678
     11          6           0       -3.596415   -0.949057    0.092605
     12          8           0       -4.563891   -1.883462    0.107852
     13          6           0       -5.897472   -1.473699    0.408863
     14          6           0       -3.786209    0.414225    0.350965
     15          6           0       -2.681614    1.264006    0.298968
     16          7           0       -1.451372    0.839972    0.018469
     17          7           0        1.010828    0.097547   -0.654538
     18          1           0        4.695714   -2.575626    0.887484
     19          1           0        4.658925   -2.394742   -0.876333
     20          1           0        6.148544   -2.087665    0.009117
     21          1           0        5.033705    0.067564   -0.660823
     22          1           0        5.241338   -0.083360    1.073738
     23          1           0        3.104079    0.911385    0.544271
     24          1           0        1.695710   -0.228826    1.990588
     25          1           0        2.471870   -1.827408    1.735961
     26          1           0        3.326235   -0.535475    2.582906
     27          1           0        2.817850   -0.163516   -1.676962
     28          1           0        2.078344   -2.397303   -1.977116
     29          1           0        2.430611   -2.722116   -0.257768
     30          1           0       -2.121037   -2.450118   -0.421433
     31          1           0       -5.958072   -1.040225    1.413701
     32          1           0       -6.500422   -2.380358    0.363492
     33          1           0       -6.262533   -0.750598   -0.329467
     34          1           0       -4.759162    0.824108    0.588230
     35          1           0       -2.786158    2.327119    0.490776
     36         28           0        0.306768    1.940535   -0.105249
     37          9           0       -0.066553    3.068326   -1.470565
     38          9           0        1.071893    1.919142    1.565536
 ---------------------------------------------------------------------
 Rotational constants (GHZ):           0.4794312           0.1842608           0.1484489
 Basis read from rwf:  (6D, 7F)
 Pseudo-potential data read from rwf file.
 There are   398 symmetry adapted cartesian basis functions of A   symmetry.
 There are   395 symmetry adapted basis functions of A   symmetry.
   395 basis functions,   758 primitive gaussians,   398 cartesian basis functions
    82 alpha electrons       80 beta electrons
       nuclear repulsion energy      1880.3780248462 Hartrees.
 NAtoms=   38 NActive=   38 NUniq=   38 SFac= 1.00D+00 NAtFMM=   60 NAOKFM=F Big=F
 Integral buffers will be    131072 words long.
 Raffenetti 2 integral format.
 Two-electron integral symmetry is turned on.
 Nuclear repulsion after empirical dispersion term =     1880.2980040616 Hartrees.
 One-electron integrals computed using PRISM.
 PrsmSu:  requested number of processors reduced to:  12 ShMem   1 Linda.
   1 Symmetry operations used in ECPInt.
 ECPInt:  NShTT=    8911 NPrTT=   52776 LenC2=    7764 LenP2D=   27122.
 LDataN:  DoStor=T MaxTD1= 6 Len=  172
 NBasis=   395 RedAO= T EigKep=  1.11D-06  NBF=   395
 NBsUse=   395 1.00D-06 EigRej= -1.00D+00 NBFU=   395
 Initial guess from the checkpoint file:  "Lig2214_xyz_3.chk"
 B after Tr=    -0.000000    0.000000    0.000000
         Rot=    0.999999    0.001057   -0.000297   -0.000229 Ang=   0.13 deg.
 Initial guess <Sx>= 0.0000 <Sy>= 0.0000 <Sz>= 1.0000 <S**2>= 2.0065 S= 1.0022
 ExpMin= 2.40D-02 ExpMax= 7.14D+04 ExpMxC= 1.07D+04 IAcc=3 IRadAn=         5 AccDes= 0.00D+00
 Harris functional with IExCor=  402 and IRadAn=       5 diagonalized for initial guess.
 HarFok:  IExCor=  402 AccDes= 0.00D+00 IRadAn=         5 IDoV= 1 UseB2=F ITyADJ=14
 ICtDFT=  3500011 ScaDFX=  1.000000  1.000000  1.000000  1.000000
 FoFCou: FMM=F IPFlag=           0 FMFlag=      100000 FMFlg1=           0
         NFxFlg=           0 DoJE=T BraDBF=F KetDBF=T FulRan=T
         wScrn=  0.000000 ICntrl=       500 IOpCl=  0 I1Cent=   200000004 NGrid=           0
         NMat0=    1 NMatS0=      1 NMatT0=    0 NMatD0=    1 NMtDS0=    0 NMtDT0=    0
 Petite list used in FoFCou.
 Requested convergence on RMS density matrix=1.00D-08 within  32 cycles.
 Requested convergence on MAX density matrix=1.00D-06.
 Requested convergence on             energy=1.00D-06.
 No special actions if energy rises.
 Restarting incremental Fock formation.
 SCF Done:  E(UB3LYP) =  -1135.38314647     A.U. after   23 cycles
            NFock= 23  Conv=0.49D-08     -V/T= 2.0665
 <Sx>= 0.0000 <Sy>= 0.0000 <Sz>= 1.0000 <S**2>= 2.0065 S= 1.0022
 <L.S>=  0.00000000000    
 Annihilation of the first spin contaminant:
 S**2 before annihilation     2.0065,   after     2.0000
 QCSCF skips out because SCF is already converged.
 PrsmSu:  requested number of processors reduced to:  13 ShMem   1 Linda.
   1 Symmetry operations used in ECPInt.
 ECPInt:  NShTT=    8911 NPrTT=   52776 LenC2=    7764 LenP2D=   27122.
 LDataN:  DoStor=T MaxTD1= 7 Len=  274
 Calling FoFJK, ICntrl=      2127 FMM=F ISym2X=0 I1Cent= 0 IOpClX= 1 NMat=1 NMatS=1 NMatT=0.
 ***** Axes restored to original set *****
 -------------------------------------------------------------------
 Center     Atomic                   Forces (Hartrees/Bohr)
 Number     Number              X              Y              Z
 -------------------------------------------------------------------
      1        6          -0.000015787    0.000016312   -0.000036306
      2        6          -0.000029135   -0.000048615    0.000069275
      3        6          -0.000114418    0.000107641   -0.000029727
      4        6           0.000075042    0.000036075    0.000042307
      5        6           0.000059996    0.000094493   -0.000261672
      6        6          -0.000316715    0.000211631    0.000097955
      7        8           0.000280419   -0.000388949    0.000115151
      8        6          -0.000159721   -0.000009492    0.000108030
      9        6           0.000040262    0.000016650   -0.000131853
     10        6           0.000026764   -0.000110919    0.000034238
     11        6          -0.000105984    0.000149655   -0.000050523
     12        8           0.000012211   -0.000051041    0.000032136
     13        6           0.000019750    0.000018755   -0.000019702
     14        6           0.000019040    0.000035025   -0.000011812
     15        6           0.000086636   -0.000037542    0.000066401
     16        7           0.000022058   -0.000081188    0.000294007
     17        7           0.000050413    0.000026929   -0.000303773
     18        1          -0.000002968   -0.000023617   -0.000014240
     19        1           0.000015952   -0.000000440   -0.000007222
     20        1          -0.000009879    0.000002148   -0.000019892
     21        1          -0.000007628    0.000002809    0.000026220
     22        1          -0.000022078   -0.000006171   -0.000010061
     23        1           0.000006087   -0.000128010    0.000009851
     24        1          -0.000010369    0.000001090    0.000008004
     25        1           0.000010318   -0.000006606   -0.000057201
     26        1           0.000045420    0.000047771   -0.000030771
     27        1           0.000002803    0.000009839    0.000064659
     28        1          -0.000033908   -0.000080588   -0.000010151
     29        1           0.000051242   -0.000019751   -0.000037285
     30        1           0.000010962   -0.000027534    0.000005854
     31        1           0.000001094    0.000000934   -0.000018514
     32        1          -0.000022679   -0.000018947    0.000009864
     33        1           0.000006231    0.000011264    0.000021190
     34        1           0.000002377   -0.000014138    0.000011419
     35        1          -0.000014625    0.000023997    0.000042510
     36       28           0.000253167    0.000018394    0.000191867
     37        9           0.000141631    0.000073921   -0.000064398
     38        9          -0.000373981    0.000148213   -0.000135834
 -------------------------------------------------------------------
 Cartesian Forces:  Max     0.000388949 RMS     0.000102629

 GradGradGradGradGradGradGradGradGradGradGradGradGradGradGradGradGradGrad
 Berny optimization.
 Using GEDIIS/GDIIS optimizer.
 FormGI is forming the generalized inverse of G from B-inverse, IUseBI=4.
 Internal  Forces:  Max     0.000312765 RMS     0.000068078
 Search for a local minimum.
 Step number  13 out of a maximum of  228
 All quantities printed in internal units (Hartrees-Bohrs-Radians)
 Mixed Optimization -- En-DIIS/RFO-DIIS
 Swapping is turned off.
 Update second derivatives using D2CorX and points    6    7    8    9   10
                                                     11   12   13
 DE= -1.65D-05 DEPred=-7.19D-06 R= 2.30D+00
 TightC=F SS=  1.41D+00  RLast= 4.31D-02 DXNew= 1.7643D+00 1.2927D-01
 Trust test= 2.30D+00 RLast= 4.31D-02 DXMaxT set to 1.05D+00
 ITU=  1  1  1  1  1  0  1  0  1  1  1  1  0
     Eigenvalues ---    0.00192   0.00233   0.00254   0.00277   0.01047
     Eigenvalues ---    0.01376   0.01626   0.01821   0.01970   0.01987
     Eigenvalues ---    0.02022   0.02039   0.02121   0.02125   0.02191
     Eigenvalues ---    0.02221   0.02401   0.03047   0.03081   0.03238
     Eigenvalues ---    0.03423   0.03800   0.04112   0.04705   0.04779
     Eigenvalues ---    0.04959   0.05089   0.05136   0.05270   0.05359
     Eigenvalues ---    0.05468   0.05562   0.05918   0.06238   0.06865
     Eigenvalues ---    0.08925   0.09673   0.10163   0.10692   0.10789
     Eigenvalues ---    0.11483   0.12034   0.12692   0.14199   0.15904
     Eigenvalues ---    0.15982   0.15993   0.15999   0.16000   0.16004
     Eigenvalues ---    0.16007   0.16014   0.16042   0.16060   0.16478
     Eigenvalues ---    0.16660   0.17620   0.18701   0.19222   0.19804
     Eigenvalues ---    0.20516   0.21121   0.21899   0.22737   0.23569
     Eigenvalues ---    0.23956   0.24687   0.25009   0.25244   0.25403
     Eigenvalues ---    0.26126   0.27183   0.28040   0.28567   0.28750
     Eigenvalues ---    0.30822   0.31573   0.34522   0.34550   0.34598
     Eigenvalues ---    0.34625   0.34639   0.34677   0.34681   0.34732
     Eigenvalues ---    0.34777   0.34794   0.34808   0.34877   0.34991
     Eigenvalues ---    0.35061   0.35515   0.35656   0.36005   0.36202
     Eigenvalues ---    0.36663   0.38907   0.40976   0.41127   0.42170
     Eigenvalues ---    0.42796   0.45384   0.46358   0.48181   0.49629
     Eigenvalues ---    0.51017   0.54714   0.68590
 En-DIIS/RFO-DIIS/Sim-DIIS IScMMF=       -3 using points:    13   12   11   10    9    8
 RFO step:  Lambda=-2.30001808D-05.
 DidBck=F Rises=F RFO-DIIS coefs:    1.98630    0.45636   -1.33144   -0.41504    0.26379
                  RFO-DIIS coefs:    0.04004
 Iteration  1 RMS(Cart)=  0.01376381 RMS(Int)=  0.00003881
 Iteration  2 RMS(Cart)=  0.00007185 RMS(Int)=  0.00001220
 Iteration  3 RMS(Cart)=  0.00000000 RMS(Int)=  0.00001220
 Variable       Old X    -DE/DX   Delta X   Delta X   Delta X     New X
                                 (Linear)    (Quad)   (Total)
    R1        2.89691  -0.00002   0.00014  -0.00016  -0.00002   2.89689
    R2        2.07078   0.00002  -0.00010   0.00007  -0.00002   2.07076
    R3        2.07267   0.00001   0.00004  -0.00003   0.00001   2.07267
    R4        2.06987   0.00001  -0.00006   0.00002  -0.00003   2.06984
    R5        2.91123   0.00005   0.00030  -0.00024   0.00005   2.91128
    R6        2.07674   0.00002  -0.00000  -0.00002  -0.00002   2.07672
    R7        2.07321   0.00001   0.00002  -0.00000   0.00001   2.07322
    R8        2.89810  -0.00004   0.00151  -0.00105   0.00045   2.89855
    R9        2.92263   0.00001   0.00007  -0.00003   0.00004   2.92267
   R10        2.07232  -0.00008   0.00011  -0.00007   0.00004   2.07236
   R11        2.06448  -0.00002   0.00060  -0.00037   0.00023   2.06471
   R12        2.07257  -0.00001  -0.00028   0.00031   0.00003   2.07260
   R13        2.06996   0.00001   0.00035  -0.00033   0.00002   2.06998
   R14        2.94226   0.00019   0.00150  -0.00011   0.00136   2.94362
   R15        2.78109   0.00009  -0.00041   0.00024  -0.00018   2.78091
   R16        2.06930   0.00005   0.00045  -0.00008   0.00036   2.06967
   R17        2.76947   0.00031   0.00009   0.00084   0.00093   2.77040
   R18        2.06514  -0.00001  -0.00023  -0.00010  -0.00033   2.06482
   R19        2.05583  -0.00003  -0.00005   0.00010   0.00005   2.05588
   R20        2.53317   0.00002  -0.00004  -0.00020  -0.00022   2.53295
   R21        2.77488   0.00000   0.00063   0.00005   0.00069   2.77557
   R22        2.41868   0.00016  -0.00071   0.00028  -0.00041   2.41827
   R23        2.61110   0.00005  -0.00006   0.00003  -0.00003   2.61107
   R24        2.55945  -0.00004  -0.00104   0.00028  -0.00076   2.55869
   R25        2.65675  -0.00010   0.00044  -0.00016   0.00028   2.65703
   R26        2.04669   0.00001   0.00007  -0.00005   0.00002   2.04670
   R27        2.54191   0.00005  -0.00032   0.00020  -0.00012   2.54180
   R28        2.64650  -0.00001  -0.00004   0.00006   0.00001   2.64651
   R29        2.69705  -0.00000   0.00038  -0.00001   0.00037   2.69742
   R30        2.07119   0.00002  -0.00006   0.00001  -0.00006   2.07113
   R31        2.05940   0.00002  -0.00001   0.00001  -0.00001   2.05939
   R32        2.07119   0.00002  -0.00002  -0.00000  -0.00002   2.07117
   R33        2.63545  -0.00004   0.00048  -0.00021   0.00027   2.63572
   R34        2.04487   0.00001   0.00008  -0.00003   0.00005   2.04492
   R35        2.51552   0.00005  -0.00054   0.00031  -0.00023   2.51529
   R36        2.05097  -0.00002  -0.00011   0.00003  -0.00008   2.05088
   R37        3.92663   0.00020  -0.00407   0.00209  -0.00198   3.92465
   R38        3.87003   0.00003   0.00235   0.00049   0.00285   3.87287
   R39        3.42002   0.00009   0.00024  -0.00025  -0.00001   3.42001
   R40        3.47288   0.00028  -0.00073   0.00016  -0.00057   3.47231
    A1        1.94848   0.00002  -0.00033   0.00025  -0.00009   1.94840
    A2        1.95835  -0.00004  -0.00016  -0.00030  -0.00046   1.95788
    A3        1.92927  -0.00000   0.00023  -0.00002   0.00020   1.92948
    A4        1.88431   0.00001   0.00027  -0.00014   0.00013   1.88444
    A5        1.87533  -0.00000  -0.00011   0.00012   0.00001   1.87534
    A6        1.86405   0.00002   0.00013   0.00010   0.00023   1.86428
    A7        2.03613   0.00003  -0.00053  -0.00024  -0.00077   2.03536
    A8        1.90225  -0.00002   0.00012  -0.00001   0.00011   1.90236
    A9        1.89748  -0.00002   0.00072  -0.00030   0.00042   1.89790
   A10        1.89914  -0.00001  -0.00010  -0.00009  -0.00018   1.89896
   A11        1.87046   0.00000  -0.00016   0.00056   0.00040   1.87086
   A12        1.84945   0.00001  -0.00002   0.00012   0.00011   1.84956
   A13        1.99330   0.00004   0.00125  -0.00067   0.00059   1.99390
   A14        1.95437  -0.00007  -0.00046  -0.00025  -0.00070   1.95366
   A15        1.87232   0.00006  -0.00122   0.00096  -0.00027   1.87204
   A16        1.96352   0.00005   0.00093  -0.00052   0.00042   1.96394
   A17        1.83715  -0.00008   0.00121  -0.00079   0.00041   1.83757
   A18        1.82867  -0.00001  -0.00206   0.00154  -0.00052   1.82815
   A19        1.89804  -0.00000  -0.00241   0.00163  -0.00078   1.89726
   A20        1.98084   0.00007  -0.00024  -0.00015  -0.00039   1.98046
   A21        1.91465  -0.00005   0.00196  -0.00140   0.00056   1.91521
   A22        1.92285  -0.00003  -0.00021   0.00032   0.00011   1.92296
   A23        1.87205  -0.00000   0.00299  -0.00160   0.00139   1.87343
   A24        1.87235   0.00000  -0.00182   0.00106  -0.00076   1.87159
   A25        2.04768  -0.00001   0.00085  -0.00064   0.00023   2.04792
   A26        1.91165   0.00004   0.00158   0.00023   0.00183   1.91348
   A27        1.89737  -0.00000  -0.00060   0.00003  -0.00058   1.89679
   A28        1.77854  -0.00002   0.00077   0.00000   0.00072   1.77925
   A29        1.93010  -0.00002  -0.00068  -0.00005  -0.00072   1.92938
   A30        1.89080   0.00001  -0.00207   0.00054  -0.00151   1.88928
   A31        1.82871   0.00005   0.00054   0.00004   0.00050   1.82921
   A32        1.96996   0.00005   0.00132   0.00022   0.00156   1.97152
   A33        1.99976  -0.00002  -0.00108  -0.00036  -0.00142   1.99834
   A34        1.87288  -0.00006   0.00021  -0.00014   0.00009   1.87298
   A35        1.86548  -0.00002  -0.00024  -0.00008  -0.00029   1.86519
   A36        1.91750  -0.00001  -0.00069   0.00029  -0.00041   1.91709
   A37        1.83916  -0.00015   0.00063  -0.00009   0.00048   1.83964
   A38        2.10731  -0.00010   0.00026   0.00002   0.00028   2.10759
   A39        2.06382   0.00016   0.00053   0.00005   0.00056   2.06439
   A40        2.11130  -0.00006  -0.00066  -0.00009  -0.00075   2.11055
   A41        2.16059  -0.00003   0.00146  -0.00020   0.00126   2.16186
   A42        1.96834   0.00002  -0.00123   0.00020  -0.00103   1.96731
   A43        2.15424   0.00001  -0.00022  -0.00000  -0.00023   2.15401
   A44        2.06282  -0.00004  -0.00031  -0.00002  -0.00033   2.06250
   A45        2.11762   0.00005   0.00052   0.00004   0.00056   2.11818
   A46        2.10274  -0.00001  -0.00022  -0.00002  -0.00024   2.10250
   A47        2.02739  -0.00005  -0.00015  -0.00005  -0.00021   2.02718
   A48        2.07037   0.00006   0.00013   0.00015   0.00028   2.07066
   A49        2.18542  -0.00001   0.00002  -0.00010  -0.00008   2.18534
   A50        2.06577   0.00003  -0.00036   0.00015  -0.00021   2.06556
   A51        1.93754   0.00000  -0.00014  -0.00003  -0.00017   1.93737
   A52        1.84350  -0.00004  -0.00036   0.00015  -0.00021   1.84329
   A53        1.93753  -0.00000  -0.00029   0.00007  -0.00021   1.93732
   A54        1.91412   0.00001   0.00027  -0.00008   0.00019   1.91430
   A55        1.91586   0.00002   0.00024  -0.00005   0.00019   1.91605
   A56        1.91405   0.00001   0.00027  -0.00006   0.00020   1.91425
   A57        2.07023  -0.00002   0.00006  -0.00007  -0.00001   2.07022
   A58        2.13061  -0.00001   0.00015  -0.00012   0.00003   2.13065
   A59        2.08234   0.00003  -0.00021   0.00019  -0.00002   2.08232
   A60        2.14808   0.00000  -0.00087   0.00011  -0.00077   2.14731
   A61        2.11061   0.00002   0.00008   0.00016   0.00023   2.11084
   A62        2.02449  -0.00002   0.00080  -0.00026   0.00054   2.02503
   A63        2.06055  -0.00001   0.00120  -0.00017   0.00104   2.06159
   A64        1.97563   0.00004   0.00271  -0.00018   0.00252   1.97815
   A65        2.24696  -0.00002  -0.00391   0.00035  -0.00355   2.24341
   A66        1.89450  -0.00004   0.00096   0.00008   0.00098   1.89548
   A67        2.37857  -0.00001   0.00180  -0.00068   0.00112   2.37969
   A68        1.96052   0.00006   0.00035   0.00047   0.00080   1.96132
   A69        1.40018  -0.00006  -0.00118  -0.00037  -0.00154   1.39864
   A70        1.77260   0.00001  -0.00797   0.00100  -0.00692   1.76568
   A71        1.86709   0.00025   0.00846   0.00206   0.01054   1.87762
   A72        2.01459   0.00018   0.00765   0.00071   0.00834   2.02293
   A73        1.66116  -0.00023   0.00226  -0.00260  -0.00032   1.66084
   A74        2.46385  -0.00010  -0.00637  -0.00044  -0.00683   2.45702
    D1       -0.94006   0.00000  -0.00253  -0.00080  -0.00333  -0.94339
    D2       -3.09852   0.00000  -0.00210  -0.00049  -0.00260  -3.10111
    D3        1.17630   0.00001  -0.00254  -0.00047  -0.00301   1.17329
    D4        1.17795  -0.00000  -0.00253  -0.00102  -0.00355   1.17440
    D5       -0.98051  -0.00000  -0.00211  -0.00071  -0.00282  -0.98332
    D6       -2.98888   0.00001  -0.00254  -0.00069  -0.00323  -2.99211
    D7       -3.02653  -0.00001  -0.00232  -0.00110  -0.00342  -3.02996
    D8        1.09820  -0.00001  -0.00189  -0.00080  -0.00269   1.09551
    D9       -0.91018   0.00000  -0.00233  -0.00077  -0.00310  -0.91328
   D10        1.11914   0.00003   0.00303  -0.00109   0.00194   1.12108
   D11       -1.13827  -0.00001   0.00100   0.00046   0.00146  -1.13681
   D12       -3.13536  -0.00001   0.00443  -0.00182   0.00261  -3.13275
   D13       -3.00399   0.00002   0.00271  -0.00135   0.00135  -3.00264
   D14        1.02179  -0.00002   0.00068   0.00019   0.00088   1.02267
   D15       -0.97531  -0.00001   0.00411  -0.00209   0.00203  -0.97328
   D16       -1.01140   0.00003   0.00256  -0.00097   0.00160  -1.00981
   D17        3.01438  -0.00001   0.00053   0.00058   0.00112   3.01550
   D18        1.01728  -0.00000   0.00397  -0.00170   0.00227   1.01955
   D19        2.84083   0.00002  -0.00078   0.00080   0.00002   2.84085
   D20       -1.29562   0.00004  -0.00300   0.00232  -0.00067  -1.29629
   D21        0.79836   0.00005  -0.00410   0.00258  -0.00151   0.79685
   D22       -1.18954   0.00001   0.00057  -0.00062  -0.00005  -1.18959
   D23        0.95720   0.00002  -0.00165   0.00090  -0.00075   0.95645
   D24        3.05118   0.00004  -0.00275   0.00116  -0.00159   3.04959
   D25        0.79184  -0.00003  -0.00073   0.00051  -0.00023   0.79161
   D26        2.93858  -0.00001  -0.00296   0.00203  -0.00093   2.93765
   D27       -1.25062   0.00001  -0.00406   0.00229  -0.00177  -1.25239
   D28        1.39455  -0.00003   0.00106  -0.00334  -0.00226   1.39228
   D29       -2.87382  -0.00003   0.00376  -0.00357   0.00018  -2.87364
   D30       -0.81086  -0.00000   0.00184  -0.00277  -0.00094  -0.81180
   D31       -0.87831  -0.00007  -0.00111  -0.00174  -0.00284  -0.88114
   D32        1.13652  -0.00007   0.00159  -0.00197  -0.00040   1.13612
   D33       -3.08371  -0.00004  -0.00034  -0.00117  -0.00151  -3.08522
   D34       -2.86488   0.00001  -0.00181  -0.00143  -0.00323  -2.86811
   D35       -0.85006   0.00001   0.00090  -0.00167  -0.00079  -0.85085
   D36        1.21290   0.00004  -0.00103  -0.00087  -0.00190   1.21100
   D37        1.90605   0.00004   0.01826   0.00036   0.01863   1.92468
   D38       -2.34493   0.00003   0.01951   0.00033   0.01983  -2.32510
   D39       -0.13256   0.00005   0.01877   0.00062   0.01940  -0.11316
   D40       -0.18079   0.00001   0.01529   0.00042   0.01571  -0.16508
   D41        1.85142  -0.00000   0.01654   0.00038   0.01691   1.86832
   D42       -2.21940   0.00001   0.01580   0.00068   0.01648  -2.20292
   D43       -2.18788   0.00002   0.01754  -0.00018   0.01736  -2.17051
   D44       -0.15567   0.00000   0.01879  -0.00022   0.01857  -0.13711
   D45        2.05670   0.00002   0.01805   0.00008   0.01814   2.07483
   D46       -2.01448  -0.00003  -0.01464   0.00039  -0.01426  -2.02874
   D47        0.75271   0.00002  -0.00345   0.00009  -0.00336   0.74936
   D48        0.16587  -0.00003  -0.01239  -0.00024  -0.01264   0.15323
   D49        2.93306   0.00002  -0.00120  -0.00055  -0.00174   2.93132
   D50        2.20166  -0.00005  -0.01362  -0.00009  -0.01372   2.18794
   D51       -1.31433  -0.00000  -0.00243  -0.00039  -0.00282  -1.31715
   D52        0.13804  -0.00001  -0.01318  -0.00042  -0.01360   0.12444
   D53       -1.96006  -0.00006  -0.01508  -0.00063  -0.01570  -1.97577
   D54        2.26696  -0.00001  -0.01426  -0.00086  -0.01513   2.25183
   D55       -3.13639  -0.00003   0.00262   0.00086   0.00348  -3.13291
   D56       -0.03619  -0.00001   0.00592   0.00031   0.00624  -0.02995
   D57       -0.13793   0.00003   0.00410  -0.00006   0.00404  -0.13389
   D58        2.99812   0.00000   0.00630  -0.00072   0.00556   3.00368
   D59        3.04619   0.00001   0.00068   0.00050   0.00117   3.04736
   D60       -0.10095  -0.00002   0.00288  -0.00016   0.00270  -0.09825
   D61       -0.09167   0.00003   0.00472  -0.00002   0.00471  -0.08696
   D62       -2.95651  -0.00000  -0.00387   0.00046  -0.00341  -2.95992
   D63        3.00843   0.00004   0.00805  -0.00056   0.00750   3.01593
   D64        0.14359   0.00001  -0.00054  -0.00008  -0.00062   0.14297
   D65        3.14075  -0.00005   0.00255  -0.00079   0.00176  -3.14067
   D66       -0.00241  -0.00004   0.00218  -0.00060   0.00158  -0.00083
   D67        0.00529  -0.00002   0.00012  -0.00005   0.00007   0.00535
   D68       -3.13788  -0.00001  -0.00024   0.00014  -0.00010  -3.13799
   D69        3.13497   0.00006  -0.00320   0.00071  -0.00248   3.13249
   D70        0.00281   0.00002  -0.00362   0.00037  -0.00325  -0.00044
   D71       -0.01215   0.00004  -0.00100   0.00005  -0.00095  -0.01310
   D72        3.13888  -0.00000  -0.00142  -0.00029  -0.00172   3.13716
   D73       -3.14128  -0.00000   0.00039   0.00004   0.00043  -3.14085
   D74        0.00275  -0.00001   0.00052   0.00015   0.00067   0.00343
   D75        0.00187  -0.00001   0.00075  -0.00015   0.00060   0.00247
   D76       -3.13728  -0.00002   0.00088  -0.00004   0.00084  -3.13643
   D77       -3.13871  -0.00000  -0.00139   0.00012  -0.00126  -3.13997
   D78        0.00026   0.00000  -0.00153   0.00001  -0.00152  -0.00126
   D79       -0.00368   0.00001  -0.00030  -0.00024  -0.00054  -0.00422
   D80        3.13794   0.00001  -0.00081   0.00017  -0.00064   3.13730
   D81        3.14060   0.00001  -0.00016  -0.00012  -0.00028   3.14032
   D82       -0.00096   0.00000  -0.00066   0.00028  -0.00038  -0.00134
   D83       -1.06931  -0.00001   0.00210  -0.00011   0.00198  -1.06733
   D84        3.14031   0.00000   0.00206  -0.00009   0.00197  -3.14090
   D85        1.06682   0.00001   0.00211  -0.00014   0.00197   1.06879
   D86       -0.00340   0.00001  -0.00060   0.00025  -0.00035  -0.00375
   D87        3.13941  -0.00001  -0.00160   0.00058  -0.00101   3.13839
   D88        3.13816   0.00001  -0.00011  -0.00015  -0.00026   3.13791
   D89       -0.00222  -0.00001  -0.00111   0.00019  -0.00092  -0.00314
   D90        0.01110  -0.00003   0.00124  -0.00015   0.00109   0.01219
   D91        3.14158   0.00002   0.00178   0.00025   0.00203  -3.13958
   D92       -3.13165  -0.00001   0.00219  -0.00047   0.00172  -3.12993
   D93       -0.00117   0.00003   0.00273  -0.00007   0.00266   0.00149
   D94        0.05151  -0.00001   0.00271  -0.00034   0.00236   0.05387
   D95        2.04418   0.00017   0.01114   0.00023   0.01138   2.05556
   D96       -1.56244   0.00029   0.00199   0.00285   0.00486  -1.55758
   D97       -3.07941  -0.00006   0.00219  -0.00073   0.00146  -3.07795
   D98       -1.08674   0.00012   0.01063  -0.00015   0.01048  -1.07626
   D99        1.58982   0.00024   0.00148   0.00247   0.00396   1.59378
   D100      -2.86082  -0.00004  -0.01276   0.00060  -0.01216  -2.87298
   D101       1.70777   0.00000  -0.00259  -0.00026  -0.00283   1.70494
   D102      -1.00428   0.00025  -0.00453   0.00308  -0.00147  -1.00574
   D103      -0.10344   0.00000  -0.00117   0.00023  -0.00094  -0.10438
   D104      -1.81803   0.00004   0.00899  -0.00064   0.00838  -1.80965
   D105       1.75311   0.00029   0.00706   0.00270   0.00975   1.76285
         Item               Value     Threshold  Converged?
 Maximum Force            0.000313     0.000450     YES
 RMS     Force            0.000068     0.000300     YES
 Maximum Displacement     0.046861     0.001800     NO 
 RMS     Displacement     0.013756     0.001200     NO 
 Predicted change in Energy=-1.106652D-05
 GradGradGradGradGradGradGradGradGradGradGradGradGradGradGradGradGradGrad

                          Input orientation:                          
 ---------------------------------------------------------------------
 Center     Atomic      Atomic             Coordinates (Angstroms)
 Number     Number       Type             X           Y           Z
 ---------------------------------------------------------------------
      1          6           0       -6.038903    1.496461   -2.494862
      2          6           0       -4.913338    2.275773   -3.184618
      3          6           0       -3.551402    1.564885   -3.299380
      4          6           0       -3.570481    0.304621   -4.173482
      5          6           0       -2.911374    1.315236   -1.913725
      6          6           0       -3.433132    0.098028   -1.093607
      7          8           0       -2.324136   -0.860793   -1.099568
      8          6           0       -1.296537   -0.213087   -1.666262
      9          6           0       -0.000130   -0.878003   -1.851979
     10          6           0        0.307317   -2.123012   -1.337616
     11          6           0        1.587862   -2.646923   -1.587936
     12          8           0        1.843259   -3.861376   -1.069221
     13          6           0        3.130105   -4.437054   -1.293136
     14          6           0        2.489917   -1.884173   -2.340159
     15          6           0        2.078543   -0.638562   -2.814070
     16          7           0        0.864833   -0.141026   -2.588197
     17          7           0       -1.487392    0.982949   -2.079406
     18          1           0       -6.190715    0.513654   -2.955098
     19          1           0       -5.842160    1.343204   -1.426779
     20          1           0       -6.985404    2.042876   -2.567494
     21          1           0       -4.770384    3.233275   -2.664572
     22          1           0       -5.233235    2.530044   -4.202774
     23          1           0       -2.865096    2.255941   -3.803416
     24          1           0       -2.543146    0.051906   -4.446404
     25          1           0       -4.056103   -0.553209   -3.692637
     26          1           0       -4.114675    0.506965   -5.102342
     27          1           0       -2.982467    2.235166   -1.323655
     28          1           0       -3.643338    0.345603   -0.050336
     29          1           0       -4.290207   -0.407894   -1.532976
     30          1           0       -0.411963   -2.685628   -0.755261
     31          1           0        3.315233   -4.580817   -2.363774
     32          1           0        3.110213   -5.404058   -0.791006
     33          1           0        3.920323   -3.812774   -0.860611
     34          1           0        3.490357   -2.231517   -2.562564
     35          1           0        2.747704   -0.014948   -3.398160
     36         28           0        0.075507    1.676889   -3.209000
     37          9           0        1.189613    2.841946   -2.386342
     38          9           0       -0.752865    1.399229   -4.825474
 ---------------------------------------------------------------------
                    Distance matrix (angstroms):
                    1          2          3          4          5
     1  C    0.000000
     2  C    1.532967   0.000000
     3  C    2.615261   1.540585   0.000000
     4  C    3.214242   2.581968   1.533846   0.000000
     5  C    3.186221   2.558449   1.546610   2.561692   0.000000
     6  C    3.272487   3.362427   2.651621   3.089850   1.557697
     7  O    4.615515   4.570497   3.497037   3.515752   2.396414
     8  C    5.108734   4.645544   3.303434   3.424178   2.237120
     9  C    6.520595   5.988476   4.546890   4.419885   3.645470
    10  C    7.396912   7.072197   5.686723   5.382644   4.744831
    11  C    8.726838   8.309509   6.861517   6.481140   6.003996
    12  O    9.636771   9.369692   7.969962   7.503370   7.079339
    13  C   10.987331  10.645972   9.202762   8.699294   8.365012
    14  C    9.175695   8.533841   7.022367   6.699277   6.292217
    15  C    8.399591   7.584000   6.065228   5.886346   5.433895
    16  N    7.095889   6.291573   4.787384   4.731146   4.103090
    17  N    4.599190   3.824918   2.467210   3.030601   1.471594
    18  H    1.095798   2.188477   2.861745   2.897202   3.532856
    19  H    1.096812   2.195995   2.967044   3.712621   2.971096
    20  H    1.095312   2.174521   3.543515   4.154807   4.189821
    21  H    2.157421   1.098951   2.161578   3.506221   2.774629
    22  H    2.152756   1.097100   2.139208   2.778149   3.479446
    23  H    3.515988   2.139767   1.096643   2.107644   2.111398
    24  H    4.256239   3.486474   2.149733   1.092597   2.854130
    25  H    3.093106   2.999346   2.212622   1.096774   2.822413
    26  H    3.388319   2.728408   2.164981   1.095386   3.502644
    27  H    3.355475   2.681995   2.162512   3.492031   1.095221
    28  H    3.610943   3.893864   3.471511   4.123993   2.224450
    29  H    2.758574   3.212208   2.749159   2.828065   2.239493
    30  H    7.223471   7.125985   5.864767   5.531913   4.857572
    31  H   11.155732  10.742253   9.262597   8.634559   8.587003
    32  H   11.585621  11.361627   9.961688   9.416041   9.092245
    33  H   11.403725  10.977477   9.523314   9.167345   8.606836
    34  H   10.232751   9.556396   8.033800   7.673492   7.347285
    35  H    8.961292   7.999035   6.494949   6.373595   5.999841
    36  Ni   6.158617   5.024722   3.629764   4.013300   3.275666
    37  F    7.353471   6.180922   4.994171   5.682462   4.401397
    38  F    5.777837   4.557441   3.191898   3.092284   3.625534
                    6          7          8          9         10
     6  C    0.000000
     7  O    1.466030   0.000000
     8  C    2.233778   1.340382   0.000000
     9  C    3.648735   2.442831   1.468767   0.000000
    10  C    4.357007   2.928209   2.515585   1.381716   0.000000
    11  C    5.743649   4.328106   3.774845   2.391761   1.406037
    12  O    6.596801   5.135329   4.850237   3.593231   2.335180
    13  C    7.980154   6.525018   6.129949   4.772580   3.650329
    14  C    6.369106   5.075577   4.193316   2.729658   2.413686
    15  C    5.820748   4.729956   3.590217   2.303005   2.742399
    16  N    4.556693   3.592159   2.350889   1.354000   2.408952
    17  N    2.353888   2.249357   1.279694   2.393076   3.663090
    18  H    3.352933   4.503612   5.112947   6.440258   7.196712
    19  H    2.732194   4.164272   4.810622   6.264493   7.059651
    20  H    4.309688   5.684498   6.185854   7.605100   8.488286
    21  H    3.753125   5.019438   4.994161   6.349664   7.498911
    22  H    4.338432   5.439716   5.427361   6.672811   7.781887
    23  H    3.510316   4.161425   3.622693   4.673086   5.943029
    24  H    3.469214   3.475959   3.058340   3.750027   4.745521
    25  H    2.750847   3.133420   3.440505   4.465918   5.200945
    26  H    4.086770   4.593363   4.501891   5.423327   6.375261
    27  H    2.196219   3.173102   2.992270   4.343418   5.460456
    28  H    1.092654   2.072817   2.903588   4.244537   4.833096
    29  H    1.087925   2.063588   3.002961   4.327531   4.910909
    30  H    4.121975   2.665517   2.779542   2.154044   1.083068
    31  H    8.309353   6.873084   6.389993   4.996439   4.017632
    32  H    8.554524   7.090037   6.865253   5.593306   4.349744
    33  H    8.331985   6.911192   6.389245   4.996564   4.017045
    34  H    7.451128   6.150412   5.271790   3.810568   3.412333
    35  H    6.597458   5.632277   4.403932   3.268965   3.826913
    36  Ni   4.390699   4.080174   2.799028   2.893908   4.242059
    37  F    5.529016   5.264266   4.004083   3.941960   5.150639
    38  F    4.775331   4.632383   3.588282   3.820219   5.069056
                   11         12         13         14         15
    11  C    0.000000
    12  O    1.345061   0.000000
    13  C    2.381173   1.427415   0.000000
    14  C    1.400475   2.437783   2.832543   0.000000
    15  C    2.403682   3.672382   4.224637   1.394764   0.000000
    16  N    2.793353   4.135894   5.026380   2.396035   1.331034
    17  N    4.782751   5.964998   7.163514   4.909925   3.985589
    18  H    8.506741   9.340351  10.684068   9.026687   8.350336
    19  H    8.435184   9.288766  10.673836   8.981856   8.281878
    20  H    9.821133  10.726151  12.080438  10.259391   9.455477
    21  H    8.727152   9.829522  11.096508   8.888503   7.869007
    22  H    8.953532  10.037239  11.267293   9.088548   8.088921
    23  H    6.983929   8.189383   9.329529   6.925158   5.813476
    24  H    5.702609   6.779358   7.891745   5.789334   4.949876
    25  H    6.377127   7.254568   8.513720   6.815499   6.197825
    26  H    7.403850   8.416974   9.562437   7.547703   6.701072
    27  H    6.692724   7.779473   9.048921   6.924537   6.007784
    28  H    6.219718   6.988530   8.384383   6.916069   6.430142
    29  H    6.290308   7.054149   8.447052   6.985773   6.500414
    30  H    2.166598   2.562612   3.987862   3.402225   3.825152
    31  H    2.706599   2.088102   1.095995   2.820212   4.156145
    32  H    3.248760   2.015550   1.089783   3.895412   5.278928
    33  H    2.707136   2.088079   1.096014   2.820395   4.157377
    34  H    2.177601   2.756709   2.570140   1.082124   2.143357
    35  H    3.398446   4.586610   4.912471   2.163289   1.085280
    36  Ni   4.859056   6.194836   7.097985   4.389239   3.086978
    37  F    5.560912   6.862696   7.612125   4.901951   3.617607
    38  F    5.686125   6.965865   7.849654   5.241484   4.026812
                   16         17         18         19         20
    16  N    0.000000
    17  N    2.656153   0.000000
    18  H    7.095349   4.807111   0.000000
    19  H    6.966749   4.418112   1.773529   0.000000
    20  H    8.148379   5.620481   1.766433   1.760051   0.000000
    21  H    6.568669   4.022987   3.081896   2.500641   2.516503
    22  H    6.850394   4.575318   2.557203   3.079858   2.445725
    23  H    4.597235   2.547702   3.849019   3.917194   4.306953
    24  H    3.886448   2.753931   3.967614   4.655006   5.218038
    25  H    5.060167   3.400083   2.497745   3.452607   4.072641
    26  H    5.615720   4.033276   2.986744   4.146476   4.126204
    27  H    4.695431   2.091520   3.989745   2.997345   4.196143
    28  H    5.196263   3.028438   3.867171   2.779320   4.515110
    29  H    5.268695   3.176287   2.546293   2.342260   3.786896
    30  H    3.385981   4.045784   6.961944   6.794812   8.297775
    31  H    5.076079   7.355377  10.801219  10.946682  12.248181
    32  H    5.997594   7.974447  11.234317  11.228301  12.670210
    33  H    5.079598   7.329926  11.195443  11.054897  12.495478
    34  H    3.356216   5.945100  10.070412  10.058057  11.314240
    35  H    2.053567   4.546531   8.964990   8.917213   9.982887
    36  Ni   2.076835   2.049437   6.378332   6.189220   7.099433
    37  F    3.007382   3.273596   7.759746   7.253469   8.215974
    38  F    3.161446   2.872927   5.818312   6.120065   6.660127
                   21         22         23         24         25
    21  H    0.000000
    22  H    1.753519   0.000000
    23  H    2.425340   2.417168   0.000000
    24  H    4.272777   3.665665   2.318373   0.000000
    25  H    3.988054   3.339510   3.053210   1.795374   0.000000
    26  H    3.715568   2.480574   2.511488   1.762678   1.764842
    27  H    2.447638   3.666366   2.482625   3.835517   3.813109
    28  H    4.055011   4.954018   4.282600   4.541155   3.774200
    29  H    3.843070   4.080269   3.779134   3.428075   2.177166
    30  H    7.594387   7.895140   6.303032   5.065626   5.143456
    31  H   11.248454  11.270429   9.327930   7.753714   8.504357
    32  H   11.841350  12.008466  10.171259   8.665446   9.127227
    33  H   11.332673  11.627081   9.567200   8.340869   9.070199
    34  H    9.905261  10.072924   7.878373   6.720568   7.812991
    35  H    8.222575   8.415448   6.068334   5.394106   6.831414
    36  Ni   5.118730   5.467925   3.055450   3.321007   4.719899
    37  F    5.979307   6.682041   4.334992   5.095259   6.383652
    38  F    4.916673   4.662639   2.498014   2.272461   4.000839
                   26         27         28         29         30
    26  H    0.000000
    27  H    4.306629   0.000000
    28  H    5.076510   2.372454   0.000000
    29  H    3.688922   2.956309   1.784494   0.000000
    30  H    6.542159   5.580750   4.486320   4.564394   0.000000
    31  H    9.412163   9.338120   8.834213   8.714714   4.480072
    32  H   10.282355   9.785816   8.900430   8.959821   4.449366
    33  H   10.060498   9.189151   8.669350   8.913927   4.477752
    34  H    8.472677   7.961382   7.990146   8.057470   4.324426
    35  H    7.090054   6.496263   7.223803   7.291468   4.909271
    36  Ni   4.744586   3.635575   5.057597   5.120043   5.028918
    37  F    6.400332   4.347842   5.919972   6.427917   5.981600
    38  F    3.489205   4.234697   5.680397   5.159363   5.776583
                   31         32         33         34         35
    31  H    0.000000
    32  H    1.786997   0.000000
    33  H    1.793188   1.786982   0.000000
    34  H    2.364190   3.653484   2.362602   0.000000
    35  H    4.715846   5.997597   4.715684   2.482525   0.000000
    36  Ni   7.097120   8.074401   7.101686   5.230174   3.168395
    37  F    7.721151   8.615706   7.353226   5.573554   3.407824
    38  F    7.640049   8.802558   8.045111   6.025613   4.036225
                   36         37         38
    36  Ni   0.000000
    37  F    1.809794   0.000000
    38  F    1.837468   3.435698   0.000000
 Stoichiometry    C13H18F2N2NiO2(3)
 Framework group  C1[X(C13H18F2N2NiO2)]
 Deg. of freedom   108
 Full point group                 C1      NOp   1
 Largest Abelian subgroup         C1      NOp   1
 Largest concise Abelian subgroup C1      NOp   1
                         Standard orientation:                         
 ---------------------------------------------------------------------
 Center     Atomic      Atomic             Coordinates (Angstroms)
 Number     Number       Type             X           Y           Z
 ---------------------------------------------------------------------
      1          6           0        5.066986   -1.963858    0.038824
      2          6           0        4.695391   -0.485106    0.197559
      3          6           0        3.207622   -0.169846    0.443642
      4          6           0        2.657262   -0.720959    1.765028
      5          6           0        2.327769   -0.551433   -0.769722
      6          6           0        1.942501   -2.052180   -0.930179
      7          8           0        0.504869   -2.102198   -0.647417
      8          6           0        0.119999   -0.823448   -0.532098
      9          6           0       -1.277505   -0.483628   -0.234139
     10          6           0       -2.304924   -1.407029   -0.204457
     11          6           0       -3.600496   -0.949238    0.093642
     12          8           0       -4.569158   -1.882258    0.112514
     13          6           0       -5.902964   -1.468607    0.408092
     14          6           0       -3.789510    0.416114    0.341472
     15          6           0       -2.683555    1.264225    0.287266
     16          7           0       -1.453261    0.835684    0.014540
     17          7           0        1.009119    0.089909   -0.645503
     18          1           0        4.714214   -2.562300    0.886286
     19          1           0        4.652123   -2.398846   -0.878602
     20          1           0        6.154324   -2.083171   -0.017487
     21          1           0        5.031766    0.065746   -0.691883
     22          1           0        5.259052   -0.068647    1.041642
     23          1           0        3.114888    0.919914    0.523948
     24          1           0        1.722941   -0.204661    1.997946
     25          1           0        2.497104   -1.805908    1.752902
     26          1           0        3.360360   -0.505751    2.576945
     27          1           0        2.806310   -0.177868   -1.681291
     28          1           0        2.086831   -2.422824   -1.947866
     29          1           0        2.427033   -2.720538   -0.221584
     30          1           0       -2.125972   -2.456081   -0.405706
     31          1           0       -5.964536   -1.027011    1.409295
     32          1           0       -6.506626   -2.375079    0.369002
     33          1           0       -6.265849   -0.751111   -0.336732
     34          1           0       -4.762812    0.828943    0.572223
     35          1           0       -2.787348    2.328955    0.470052
     36         28           0        0.303426    1.936911   -0.106271
     37          9           0       -0.082678    3.064371   -1.468295
     38          9           0        1.078469    1.929981    1.559727
 ---------------------------------------------------------------------
 Rotational constants (GHZ):           0.4804364           0.1838659           0.1481094
 Basis read from rwf:  (6D, 7F)
 Pseudo-potential data read from rwf file.
 There are   398 symmetry adapted cartesian basis functions of A   symmetry.
 There are   395 symmetry adapted basis functions of A   symmetry.
   395 basis functions,   758 primitive gaussians,   398 cartesian basis functions
    82 alpha electrons       80 beta electrons
       nuclear repulsion energy      1879.6038426726 Hartrees.
 NAtoms=   38 NActive=   38 NUniq=   38 SFac= 1.00D+00 NAtFMM=   60 NAOKFM=F Big=F
 Integral buffers will be    131072 words long.
 Raffenetti 2 integral format.
 Two-electron integral symmetry is turned on.
 Nuclear repulsion after empirical dispersion term =     1879.5238720574 Hartrees.
 One-electron integrals computed using PRISM.
 PrsmSu:  requested number of processors reduced to:  12 ShMem   1 Linda.
   1 Symmetry operations used in ECPInt.
 ECPInt:  NShTT=    8911 NPrTT=   52776 LenC2=    7764 LenP2D=   27108.
 LDataN:  DoStor=T MaxTD1= 6 Len=  172
 NBasis=   395 RedAO= T EigKep=  1.11D-06  NBF=   395
 NBsUse=   395 1.00D-06 EigRej= -1.00D+00 NBFU=   395
 Initial guess from the checkpoint file:  "Lig2214_xyz_3.chk"
 B after Tr=    -0.000000    0.000000   -0.000000
         Rot=    0.999998    0.001782   -0.000551   -0.000332 Ang=   0.22 deg.
 Initial guess <Sx>= 0.0000 <Sy>= 0.0000 <Sz>= 1.0000 <S**2>= 2.0065 S= 1.0022
 ExpMin= 2.40D-02 ExpMax= 7.14D+04 ExpMxC= 1.07D+04 IAcc=3 IRadAn=         5 AccDes= 0.00D+00
 Harris functional with IExCor=  402 and IRadAn=       5 diagonalized for initial guess.
 HarFok:  IExCor=  402 AccDes= 0.00D+00 IRadAn=         5 IDoV= 1 UseB2=F ITyADJ=14
 ICtDFT=  3500011 ScaDFX=  1.000000  1.000000  1.000000  1.000000
 FoFCou: FMM=F IPFlag=           0 FMFlag=      100000 FMFlg1=           0
         NFxFlg=           0 DoJE=T BraDBF=F KetDBF=T FulRan=T
         wScrn=  0.000000 ICntrl=       500 IOpCl=  0 I1Cent=   200000004 NGrid=           0
         NMat0=    1 NMatS0=      1 NMatT0=    0 NMatD0=    1 NMtDS0=    0 NMtDT0=    0
 Petite list used in FoFCou.
 Requested convergence on RMS density matrix=1.00D-08 within  32 cycles.
 Requested convergence on MAX density matrix=1.00D-06.
 Requested convergence on             energy=1.00D-06.
 No special actions if energy rises.
 Restarting incremental Fock formation.
 SCF Done:  E(UB3LYP) =  -1135.38316802     A.U. after   28 cycles
            NFock= 28  Conv=0.24D-08     -V/T= 2.0665
 <Sx>= 0.0000 <Sy>= 0.0000 <Sz>= 1.0000 <S**2>= 2.0065 S= 1.0021
 <L.S>=  0.00000000000    
 Annihilation of the first spin contaminant:
 S**2 before annihilation     2.0065,   after     2.0000
 QCSCF skips out because SCF is already converged.
 PrsmSu:  requested number of processors reduced to:  13 ShMem   1 Linda.
   1 Symmetry operations used in ECPInt.
 ECPInt:  NShTT=    8911 NPrTT=   52776 LenC2=    7764 LenP2D=   27108.
 LDataN:  DoStor=T MaxTD1= 7 Len=  274
 Calling FoFJK, ICntrl=      2127 FMM=F ISym2X=0 I1Cent= 0 IOpClX= 1 NMat=1 NMatS=1 NMatT=0.
 ***** Axes restored to original set *****
 -------------------------------------------------------------------
 Center     Atomic                   Forces (Hartrees/Bohr)
 Number     Number              X              Y              Z
 -------------------------------------------------------------------
      1        6          -0.000006877    0.000039904   -0.000067927
      2        6          -0.000011990   -0.000129505    0.000062380
      3        6          -0.000061072    0.000098786   -0.000068908
      4        6           0.000114232    0.000086990    0.000219258
      5        6           0.000076261   -0.000026350   -0.000116186
      6        6          -0.000148736    0.000161302   -0.000017365
      7        8           0.000106364   -0.000258221    0.000060662
      8        6          -0.000015038   -0.000283542    0.000170115
      9        6          -0.000202987    0.000014631   -0.000020600
     10        6           0.000083249   -0.000114845    0.000024759
     11        6          -0.000189835    0.000206984   -0.000040973
     12        8           0.000122635   -0.000146860    0.000012049
     13        6          -0.000110453    0.000058416    0.000034756
     14        6           0.000025919    0.000137966   -0.000075452
     15        6           0.000152400   -0.000363423    0.000236018
     16        7           0.000248089    0.000173549   -0.000041517
     17        7          -0.000009132    0.000331093   -0.000433547
     18        1           0.000013721   -0.000037826    0.000005583
     19        1          -0.000018020   -0.000005079   -0.000012682
     20        1          -0.000015639    0.000009090   -0.000011701
     21        1          -0.000020187    0.000008763    0.000034236
     22        1          -0.000032437   -0.000008955    0.000005244
     23        1           0.000019257   -0.000147774   -0.000007067
     24        1          -0.000098361   -0.000000080   -0.000051838
     25        1           0.000037620   -0.000036221   -0.000016496
     26        1           0.000123519    0.000103093   -0.000047928
     27        1          -0.000029772   -0.000005110   -0.000009117
     28        1           0.000019993   -0.000029757   -0.000002849
     29        1           0.000023821   -0.000045735   -0.000037352
     30        1          -0.000003972   -0.000003897   -0.000000042
     31        1           0.000014983   -0.000010126   -0.000022086
     32        1           0.000001180   -0.000018844    0.000007253
     33        1           0.000021585   -0.000000681    0.000012986
     34        1          -0.000012839   -0.000012495    0.000028584
     35        1          -0.000048472    0.000049628    0.000005957
     36       28           0.000159892    0.000047771    0.000267463
     37        9           0.000100986    0.000047470   -0.000068515
     38        9          -0.000429887    0.000109891   -0.000017161
 -------------------------------------------------------------------
 Cartesian Forces:  Max     0.000433547 RMS     0.000118359

 GradGradGradGradGradGradGradGradGradGradGradGradGradGradGradGradGradGrad
 Berny optimization.
 Using GEDIIS/GDIIS optimizer.
 FormGI is forming the generalized inverse of G from B-inverse, IUseBI=4.
 Internal  Forces:  Max     0.000369617 RMS     0.000083270
 Search for a local minimum.
 Step number  14 out of a maximum of  228
 All quantities printed in internal units (Hartrees-Bohrs-Radians)
 Mixed Optimization -- En-DIIS/RFO-DIIS
 Swapping is turned off.
 Update second derivatives using D2CorX and points    6    7    8    9   10
                                                     11   12   13   14
 DE= -2.15D-05 DEPred=-1.11D-05 R= 1.95D+00
 TightC=F SS=  1.41D+00  RLast= 7.41D-02 DXNew= 1.7643D+00 2.2242D-01
 Trust test= 1.95D+00 RLast= 7.41D-02 DXMaxT set to 1.05D+00
 ITU=  1  1  1  1  1  1  0  1  0  1  1  1  1  0
     Eigenvalues ---    0.00172   0.00225   0.00234   0.00266   0.01030
     Eigenvalues ---    0.01376   0.01610   0.01820   0.01970   0.01986
     Eigenvalues ---    0.02022   0.02039   0.02119   0.02125   0.02191
     Eigenvalues ---    0.02221   0.02398   0.03033   0.03092   0.03230
     Eigenvalues ---    0.03356   0.03752   0.04115   0.04695   0.04708
     Eigenvalues ---    0.04970   0.04985   0.05101   0.05262   0.05340
     Eigenvalues ---    0.05467   0.05546   0.05925   0.06228   0.06839
     Eigenvalues ---    0.08251   0.09073   0.10141   0.10694   0.10824
     Eigenvalues ---    0.11494   0.12078   0.12686   0.14189   0.15891
     Eigenvalues ---    0.15988   0.15991   0.15999   0.16000   0.16006
     Eigenvalues ---    0.16008   0.16016   0.16055   0.16060   0.16479
     Eigenvalues ---    0.16867   0.17614   0.18524   0.19165   0.19686
     Eigenvalues ---    0.20408   0.20618   0.21800   0.22835   0.23566
     Eigenvalues ---    0.24104   0.24590   0.25023   0.25239   0.25461
     Eigenvalues ---    0.26328   0.26789   0.28142   0.28453   0.28737
     Eigenvalues ---    0.30319   0.31955   0.34503   0.34545   0.34603
     Eigenvalues ---    0.34622   0.34641   0.34678   0.34691   0.34734
     Eigenvalues ---    0.34780   0.34795   0.34809   0.34879   0.34949
     Eigenvalues ---    0.35063   0.35503   0.35702   0.36053   0.36229
     Eigenvalues ---    0.37549   0.38327   0.40917   0.41193   0.42208
     Eigenvalues ---    0.42967   0.45476   0.46658   0.48222   0.49608
     Eigenvalues ---    0.51112   0.54865   0.68866
 En-DIIS/RFO-DIIS/Sim-DIIS IScMMF=       -3 using points:    14   13   12   11   10    9    8
 RFO step:  Lambda=-1.48521967D-05.
 DidBck=F Rises=F RFO-DIIS coefs:    1.88746   -2.00000    1.22210   -0.07116   -0.06962
                  RFO-DIIS coefs:    0.01588    0.01533
 Iteration  1 RMS(Cart)=  0.00974771 RMS(Int)=  0.00002167
 Iteration  2 RMS(Cart)=  0.00003635 RMS(Int)=  0.00000197
 Iteration  3 RMS(Cart)=  0.00000000 RMS(Int)=  0.00000197
 Variable       Old X    -DE/DX   Delta X   Delta X   Delta X     New X
                                 (Linear)    (Quad)   (Total)
    R1        2.89689  -0.00002  -0.00001   0.00009   0.00008   2.89696
    R2        2.07076   0.00002  -0.00000  -0.00001  -0.00002   2.07074
    R3        2.07267  -0.00001  -0.00003  -0.00000  -0.00003   2.07265
    R4        2.06984   0.00002  -0.00000  -0.00001  -0.00001   2.06983
    R5        2.91128   0.00003   0.00010   0.00000   0.00010   2.91138
    R6        2.07672   0.00002   0.00000   0.00001   0.00001   2.07673
    R7        2.07322   0.00000  -0.00001   0.00001  -0.00000   2.07321
    R8        2.89855  -0.00018   0.00014  -0.00018  -0.00004   2.89851
    R9        2.92267  -0.00011  -0.00011  -0.00007  -0.00018   2.92249
   R10        2.07236  -0.00008  -0.00011  -0.00006  -0.00018   2.07218
   R11        2.06471  -0.00009  -0.00000  -0.00007  -0.00007   2.06464
   R12        2.07260   0.00001  -0.00002   0.00004   0.00002   2.07262
   R13        2.06998  -0.00000   0.00005  -0.00002   0.00004   2.07002
   R14        2.94362   0.00005   0.00043   0.00045   0.00088   2.94450
   R15        2.78091  -0.00005  -0.00006  -0.00013  -0.00019   2.78072
   R16        2.06967  -0.00000   0.00012   0.00014   0.00026   2.06993
   R17        2.77040   0.00013   0.00041   0.00063   0.00104   2.77144
   R18        2.06482  -0.00001  -0.00013  -0.00018  -0.00032   2.06450
   R19        2.05588   0.00001  -0.00000  -0.00001  -0.00001   2.05587
   R20        2.53295   0.00000  -0.00003  -0.00018  -0.00021   2.53274
   R21        2.77557  -0.00014   0.00023   0.00011   0.00034   2.77591
   R22        2.41827   0.00028  -0.00016  -0.00000  -0.00016   2.41811
   R23        2.61107   0.00002   0.00003   0.00003   0.00007   2.61113
   R24        2.55869   0.00018  -0.00028  -0.00009  -0.00037   2.55832
   R25        2.65703  -0.00015   0.00002  -0.00008  -0.00007   2.65696
   R26        2.04670   0.00000   0.00000  -0.00001  -0.00000   2.04670
   R27        2.54180   0.00014   0.00008   0.00010   0.00018   2.54197
   R28        2.64651   0.00002   0.00003   0.00000   0.00004   2.64655
   R29        2.69742  -0.00009   0.00010  -0.00002   0.00008   2.69751
   R30        2.07113   0.00002  -0.00002   0.00001  -0.00001   2.07112
   R31        2.05939   0.00002   0.00001   0.00002   0.00002   2.05942
   R32        2.07117   0.00002  -0.00001   0.00001  -0.00000   2.07117
   R33        2.63572  -0.00012   0.00007  -0.00007   0.00000   2.63572
   R34        2.04492  -0.00001  -0.00000   0.00000   0.00000   2.04492
   R35        2.51529   0.00014  -0.00002   0.00009   0.00007   2.51536
   R36        2.05088  -0.00000  -0.00004  -0.00003  -0.00007   2.05081
   R37        3.92465   0.00028  -0.00007   0.00037   0.00029   3.92494
   R38        3.87287  -0.00013   0.00089   0.00135   0.00224   3.87511
   R39        3.42001   0.00005   0.00001  -0.00029  -0.00027   3.41974
   R40        3.47231   0.00021   0.00025  -0.00003   0.00022   3.47253
    A1        1.94840   0.00002  -0.00001   0.00016   0.00015   1.94855
    A2        1.95788   0.00000  -0.00013  -0.00008  -0.00021   1.95767
    A3        1.92948  -0.00001   0.00006  -0.00004   0.00002   1.92950
    A4        1.88444  -0.00002   0.00002  -0.00001   0.00001   1.88445
    A5        1.87534   0.00001   0.00005  -0.00003   0.00002   1.87536
    A6        1.86428  -0.00000   0.00002  -0.00000   0.00001   1.86429
    A7        2.03536   0.00007  -0.00006   0.00010   0.00004   2.03540
    A8        1.90236  -0.00004  -0.00000  -0.00014  -0.00014   1.90222
    A9        1.89790  -0.00005  -0.00005  -0.00002  -0.00008   1.89782
   A10        1.89896  -0.00000   0.00009  -0.00011  -0.00002   1.89893
   A11        1.87086  -0.00001   0.00002   0.00017   0.00020   1.87106
   A12        1.84956   0.00002   0.00001  -0.00001   0.00001   1.84956
   A13        1.99390   0.00002   0.00025   0.00009   0.00034   1.99424
   A14        1.95366   0.00002  -0.00008  -0.00015  -0.00022   1.95344
   A15        1.87204   0.00007   0.00016   0.00027   0.00043   1.87248
   A16        1.96394  -0.00003   0.00009   0.00015   0.00024   1.96418
   A17        1.83757  -0.00007  -0.00006  -0.00034  -0.00040   1.83716
   A18        1.82815  -0.00001  -0.00042  -0.00004  -0.00046   1.82769
   A19        1.89726   0.00008  -0.00045   0.00031  -0.00014   1.89712
   A20        1.98046   0.00007   0.00016   0.00007   0.00022   1.98068
   A21        1.91521  -0.00011   0.00018  -0.00038  -0.00020   1.91501
   A22        1.92296  -0.00005  -0.00003   0.00007   0.00004   1.92300
   A23        1.87343  -0.00006   0.00037  -0.00033   0.00004   1.87347
   A24        1.87159   0.00007  -0.00019   0.00022   0.00003   1.87162
   A25        2.04792  -0.00001  -0.00016  -0.00037  -0.00053   2.04739
   A26        1.91348  -0.00007   0.00087   0.00074   0.00161   1.91509
   A27        1.89679   0.00002  -0.00012  -0.00005  -0.00017   1.89663
   A28        1.77925   0.00003   0.00029   0.00040   0.00069   1.77994
   A29        1.92938  -0.00001  -0.00031  -0.00021  -0.00053   1.92885
   A30        1.88928   0.00005  -0.00056  -0.00050  -0.00106   1.88823
   A31        1.82921   0.00008   0.00010   0.00022   0.00032   1.82953
   A32        1.97152  -0.00002   0.00060   0.00085   0.00145   1.97296
   A33        1.99834   0.00001  -0.00033  -0.00080  -0.00112   1.99721
   A34        1.87298  -0.00003  -0.00004  -0.00013  -0.00017   1.87280
   A35        1.86519  -0.00007  -0.00035  -0.00023  -0.00058   1.86461
   A36        1.91709   0.00002  -0.00003   0.00007   0.00005   1.91714
   A37        1.83964  -0.00013  -0.00002   0.00010   0.00008   1.83972
   A38        2.10759  -0.00006  -0.00011  -0.00003  -0.00014   2.10744
   A39        2.06439   0.00011   0.00038   0.00034   0.00072   2.06511
   A40        2.11055  -0.00005  -0.00024  -0.00026  -0.00050   2.11005
   A41        2.16186  -0.00012   0.00026   0.00015   0.00041   2.16227
   A42        1.96731   0.00009  -0.00016  -0.00011  -0.00027   1.96704
   A43        2.15401   0.00004  -0.00010  -0.00004  -0.00013   2.15388
   A44        2.06250   0.00000  -0.00009  -0.00012  -0.00021   2.06229
   A45        2.11818  -0.00000   0.00019   0.00018   0.00037   2.11856
   A46        2.10250   0.00000  -0.00010  -0.00006  -0.00016   2.10234
   A47        2.02718  -0.00006  -0.00012  -0.00008  -0.00021   2.02698
   A48        2.07066   0.00005   0.00011   0.00019   0.00030   2.07095
   A49        2.18534   0.00001   0.00001  -0.00010  -0.00009   2.18525
   A50        2.06556   0.00010   0.00007  -0.00003   0.00003   2.06559
   A51        1.93737   0.00001  -0.00003   0.00003  -0.00000   1.93737
   A52        1.84329  -0.00001  -0.00004  -0.00007  -0.00011   1.84318
   A53        1.93732   0.00002  -0.00004  -0.00000  -0.00004   1.93727
   A54        1.91430  -0.00001   0.00002  -0.00001   0.00001   1.91431
   A55        1.91605  -0.00000   0.00008   0.00004   0.00012   1.91616
   A56        1.91425  -0.00001   0.00002   0.00001   0.00002   1.91428
   A57        2.07022  -0.00000  -0.00002  -0.00007  -0.00010   2.07013
   A58        2.13065  -0.00003  -0.00001  -0.00011  -0.00012   2.13053
   A59        2.08232   0.00003   0.00004   0.00018   0.00022   2.08253
   A60        2.14731   0.00008  -0.00025  -0.00010  -0.00035   2.14696
   A61        2.11084   0.00003   0.00010   0.00027   0.00038   2.11122
   A62        2.02503  -0.00010   0.00015  -0.00017  -0.00002   2.02501
   A63        2.06159  -0.00016   0.00035   0.00014   0.00048   2.06207
   A64        1.97815  -0.00012   0.00058   0.00066   0.00124   1.97939
   A65        2.24341   0.00027  -0.00093  -0.00079  -0.00172   2.24169
   A66        1.89548  -0.00009   0.00011   0.00030   0.00041   1.89589
   A67        2.37969   0.00004   0.00043   0.00066   0.00108   2.38077
   A68        1.96132   0.00005   0.00030   0.00045   0.00075   1.96207
   A69        1.39864   0.00003  -0.00048  -0.00067  -0.00114   1.39750
   A70        1.76568   0.00003  -0.00218  -0.00377  -0.00594   1.75974
   A71        1.87762   0.00020   0.00362   0.00686   0.01048   1.88810
   A72        2.02293   0.00019   0.00277   0.00533   0.00811   2.03104
   A73        1.66084  -0.00037  -0.00120  -0.00292  -0.00409   1.65674
   A74        2.45702  -0.00001  -0.00166  -0.00301  -0.00466   2.45237
    D1       -0.94339   0.00002   0.00085  -0.00105  -0.00020  -0.94359
    D2       -3.10111  -0.00000   0.00078  -0.00086  -0.00008  -3.10119
    D3        1.17329   0.00002   0.00079  -0.00077   0.00003   1.17332
    D4        1.17440   0.00002   0.00077  -0.00100  -0.00023   1.17417
    D5       -0.98332  -0.00001   0.00070  -0.00081  -0.00011  -0.98343
    D6       -2.99211   0.00002   0.00072  -0.00072  -0.00000  -2.99211
    D7       -3.02996   0.00001   0.00075  -0.00108  -0.00034  -3.03029
    D8        1.09551  -0.00002   0.00067  -0.00089  -0.00022   1.09529
    D9       -0.91328   0.00001   0.00069  -0.00080  -0.00011  -0.91339
   D10        1.12108  -0.00000   0.00020   0.00015   0.00035   1.12142
   D11       -1.13681   0.00001  -0.00008  -0.00001  -0.00009  -1.13690
   D12       -3.13275  -0.00003   0.00037  -0.00005   0.00032  -3.13243
   D13       -3.00264   0.00000   0.00022  -0.00005   0.00017  -3.00246
   D14        1.02267   0.00001  -0.00006  -0.00021  -0.00027   1.02240
   D15       -0.97328  -0.00003   0.00040  -0.00025   0.00015  -0.97313
   D16       -1.00981   0.00002   0.00030  -0.00003   0.00027  -1.00954
   D17        3.01550   0.00003   0.00001  -0.00019  -0.00017   3.01532
   D18        1.01955  -0.00001   0.00047  -0.00022   0.00024   1.01979
   D19        2.84085  -0.00001   0.00330   0.00095   0.00425   2.84510
   D20       -1.29629   0.00002   0.00303   0.00132   0.00435  -1.29194
   D21        0.79685   0.00007   0.00301   0.00138   0.00440   0.80125
   D22       -1.18959  -0.00000   0.00350   0.00096   0.00446  -1.18514
   D23        0.95645   0.00003   0.00323   0.00133   0.00456   0.96100
   D24        3.04959   0.00009   0.00321   0.00139   0.00461   3.05420
   D25        0.79161  -0.00007   0.00300   0.00080   0.00380   0.79541
   D26        2.93765  -0.00003   0.00273   0.00117   0.00390   2.94155
   D27       -1.25239   0.00002   0.00272   0.00123   0.00395  -1.24844
   D28        1.39228  -0.00006  -0.00154  -0.00163  -0.00318   1.38910
   D29       -2.87364  -0.00008  -0.00063  -0.00080  -0.00143  -2.87507
   D30       -0.81180  -0.00005  -0.00088  -0.00100  -0.00188  -0.81368
   D31       -0.88114  -0.00008  -0.00191  -0.00176  -0.00367  -0.88481
   D32        1.13612  -0.00009  -0.00099  -0.00093  -0.00192   1.13420
   D33       -3.08522  -0.00007  -0.00124  -0.00113  -0.00237  -3.08759
   D34       -2.86811   0.00002  -0.00163  -0.00141  -0.00304  -2.87115
   D35       -0.85085   0.00001  -0.00072  -0.00058  -0.00129  -0.85214
   D36        1.21100   0.00003  -0.00097  -0.00078  -0.00175   1.20925
   D37        1.92468  -0.00005   0.00607   0.00792   0.01399   1.93867
   D38       -2.32510  -0.00004   0.00639   0.00832   0.01471  -2.31039
   D39       -0.11316  -0.00002   0.00660   0.00848   0.01508  -0.09808
   D40       -0.16508   0.00002   0.00487   0.00690   0.01178  -0.15331
   D41        1.86832   0.00003   0.00519   0.00731   0.01250   1.88082
   D42       -2.20292   0.00005   0.00540   0.00746   0.01286  -2.19006
   D43       -2.17051  -0.00004   0.00549   0.00735   0.01285  -2.15766
   D44       -0.13711  -0.00003   0.00581   0.00776   0.01357  -0.12354
   D45        2.07483  -0.00001   0.00602   0.00792   0.01393   2.08877
   D46       -2.02874  -0.00001  -0.00421  -0.00562  -0.00983  -2.03856
   D47        0.74936   0.00000  -0.00092  -0.00023  -0.00115   0.74821
   D48        0.15323  -0.00004  -0.00379  -0.00544  -0.00923   0.14400
   D49        2.93132  -0.00002  -0.00050  -0.00005  -0.00055   2.93077
   D50        2.18794  -0.00002  -0.00423  -0.00569  -0.00992   2.17802
   D51       -1.31715  -0.00000  -0.00094  -0.00030  -0.00124  -1.31839
   D52        0.12444  -0.00003  -0.00437  -0.00611  -0.01048   0.11396
   D53       -1.97577  -0.00004  -0.00509  -0.00714  -0.01223  -1.98799
   D54        2.25183  -0.00001  -0.00487  -0.00703  -0.01190   2.23993
   D55       -3.13291   0.00002   0.00115   0.00161   0.00276  -3.13015
   D56       -0.02995   0.00001   0.00221   0.00298   0.00519  -0.02476
   D57       -0.13389   0.00002   0.00130   0.00216   0.00347  -0.13043
   D58        3.00368  -0.00003   0.00189   0.00287   0.00476   3.00844
   D59        3.04736   0.00002   0.00020   0.00074   0.00094   3.04830
   D60       -0.09825  -0.00002   0.00079   0.00144   0.00223  -0.09601
   D61       -0.08696   0.00002   0.00120   0.00185   0.00305  -0.08392
   D62       -2.95992   0.00000  -0.00127  -0.00219  -0.00346  -2.96338
   D63        3.01593   0.00001   0.00226   0.00323   0.00549   3.02141
   D64        0.14297  -0.00001  -0.00021  -0.00081  -0.00102   0.14195
   D65       -3.14067  -0.00007   0.00052   0.00090   0.00142  -3.13926
   D66       -0.00083  -0.00005   0.00036   0.00074   0.00110   0.00027
   D67        0.00535  -0.00002  -0.00013   0.00013  -0.00001   0.00535
   D68       -3.13799  -0.00000  -0.00029  -0.00004  -0.00033  -3.13831
   D69        3.13249   0.00009  -0.00065  -0.00114  -0.00179   3.13070
   D70       -0.00044   0.00006  -0.00093  -0.00125  -0.00217  -0.00261
   D71       -0.01310   0.00004  -0.00006  -0.00044  -0.00050  -0.01360
   D72        3.13716   0.00001  -0.00034  -0.00055  -0.00089   3.13627
   D73       -3.14085  -0.00000  -0.00010   0.00019   0.00010  -3.14076
   D74        0.00343  -0.00001   0.00018   0.00019   0.00037   0.00379
   D75        0.00247  -0.00002   0.00006   0.00036   0.00041   0.00288
   D76       -3.13643  -0.00003   0.00033   0.00035   0.00068  -3.13575
   D77       -3.13997   0.00000  -0.00014  -0.00038  -0.00052  -3.14049
   D78       -0.00126   0.00001  -0.00043  -0.00038  -0.00081  -0.00207
   D79       -0.00422   0.00001  -0.00004  -0.00019  -0.00023  -0.00445
   D80        3.13730   0.00001  -0.00024  -0.00026  -0.00050   3.13680
   D81        3.14032   0.00001   0.00026  -0.00019   0.00007   3.14039
   D82       -0.00134   0.00000   0.00006  -0.00026  -0.00021  -0.00155
   D83       -1.06733  -0.00001   0.00053   0.00054   0.00107  -1.06626
   D84       -3.14090  -0.00000   0.00055   0.00057   0.00112  -3.13978
   D85        1.06879   0.00001   0.00057   0.00061   0.00118   1.06997
   D86       -0.00375   0.00001  -0.00016  -0.00013  -0.00030  -0.00405
   D87        3.13839  -0.00000  -0.00047  -0.00040  -0.00088   3.13751
   D88        3.13791   0.00002   0.00004  -0.00006  -0.00003   3.13788
   D89       -0.00314   0.00000  -0.00027  -0.00033  -0.00061  -0.00374
   D90        0.01219  -0.00004   0.00021   0.00044   0.00066   0.01284
   D91       -3.13958  -0.00001   0.00055   0.00058   0.00113  -3.13845
   D92       -3.12993  -0.00003   0.00051   0.00070   0.00121  -3.12872
   D93        0.00149   0.00001   0.00085   0.00084   0.00168   0.00318
   D94        0.05387  -0.00005   0.00066   0.00069   0.00135   0.05522
   D95        2.05556   0.00015   0.00366   0.00644   0.01010   2.06566
   D96       -1.55758   0.00037   0.00267   0.00510   0.00777  -1.54982
   D97       -3.07795  -0.00008   0.00034   0.00056   0.00090  -3.07705
   D98       -1.07626   0.00011   0.00334   0.00631   0.00965  -1.06661
   D99        1.59378   0.00033   0.00234   0.00497   0.00732   1.60110
   D100      -2.87298   0.00003  -0.00359  -0.00545  -0.00905  -2.88203
   D101       1.70494   0.00000  -0.00061  -0.00034  -0.00095   1.70399
   D102      -1.00574   0.00029   0.00025   0.00194   0.00219  -1.00356
   D103      -0.10438   0.00003  -0.00025   0.00006  -0.00019  -0.10457
   D104      -1.80965   0.00000   0.00274   0.00517   0.00791  -1.80174
   D105       1.76285   0.00029   0.00360   0.00745   0.01105   1.77390
         Item               Value     Threshold  Converged?
 Maximum Force            0.000370     0.000450     YES
 RMS     Force            0.000083     0.000300     YES
 Maximum Displacement     0.038654     0.001800     NO 
 RMS     Displacement     0.009744     0.001200     NO 
 Predicted change in Energy=-7.190092D-06
 GradGradGradGradGradGradGradGradGradGradGradGradGradGradGradGradGradGrad

                          Input orientation:                          
 ---------------------------------------------------------------------
 Center     Atomic      Atomic             Coordinates (Angstroms)
 Number     Number       Type             X           Y           Z
 ---------------------------------------------------------------------
      1          6           0       -6.040091    1.498951   -2.487020
      2          6           0       -4.916038    2.281251   -3.175947
      3          6           0       -3.555333    1.569478   -3.300142
      4          6           0       -3.578481    0.314992   -4.182381
      5          6           0       -2.910831    1.310628   -1.918362
      6          6           0       -3.434888    0.091050   -1.102360
      7          8           0       -2.322742   -0.864977   -1.100462
      8          6           0       -1.296704   -0.218795   -1.671446
      9          6           0        0.000712   -0.882893   -1.854438
     10          6           0        0.309545   -2.126303   -1.336949
     11          6           0        1.591615   -2.648008   -1.583857
     12          8           0        1.848303   -3.861054   -1.062254
     13          6           0        3.136489   -4.435050   -1.283037
     14          6           0        2.493927   -1.884936   -2.335483
     15          6           0        2.081144   -0.641009   -2.812580
     16          7           0        0.865703   -0.145977   -2.590327
     17          7           0       -1.488162    0.975587   -2.088814
     18          1           0       -6.195027    0.519303   -2.952893
     19          1           0       -5.839372    1.338654   -1.420727
     20          1           0       -6.986108    2.047096   -2.552475
     21          1           0       -4.770054    3.235202   -2.650236
     22          1           0       -5.239461    2.542474   -4.191222
     23          1           0       -2.869651    2.262635   -3.801933
     24          1           0       -2.551931    0.060714   -4.456652
     25          1           0       -4.067146   -0.544407   -3.707429
     26          1           0       -4.121708    0.525438   -5.110029
     27          1           0       -2.977153    2.227790   -1.323196
     28          1           0       -3.654511    0.336110   -0.060612
     29          1           0       -4.286491   -0.417176   -1.549633
     30          1           0       -0.409424   -2.689290   -0.754571
     31          1           0        3.323925   -4.579685   -2.353150
     32          1           0        3.116938   -5.401557   -0.779910
     33          1           0        3.924876   -3.809142   -0.849526
     34          1           0        3.495585   -2.230794   -2.554712
     35          1           0        2.750318   -0.016525   -3.395660
     36         28           0        0.075931    1.669174   -3.219121
     37          9           0        1.202218    2.829534   -2.406797
     38          9           0       -0.763723    1.401315   -4.831556
 ---------------------------------------------------------------------
                    Distance matrix (angstroms):
                    1          2          3          4          5
     1  C    0.000000
     2  C    1.533007   0.000000
     3  C    2.615371   1.540637   0.000000
     4  C    3.214893   2.582275   1.533825   0.000000
     5  C    3.186080   2.558219   1.546513   2.561802   0.000000
     6  C    3.269029   3.360141   2.651509   3.091488   1.558160
     7  O    4.618374   4.575103   3.504916   3.530925   2.397512
     8  C    5.110335   4.649014   3.309377   3.434564   2.237299
     9  C    6.524159   5.994383   4.555178   4.434509   3.645916
    10  C    7.401554   7.079206   5.696508   5.401218   4.745667
    11  C    8.732463   8.317565   6.871964   6.500891   6.004557
    12  O    9.642944   9.378268   7.981109   7.524927   7.080153
    13  C   10.994160  10.655280   9.214312   8.721233   8.365795
    14  C    9.181673   8.542311   7.032574   6.717504   6.292617
    15  C    8.404752   7.591586   6.074029   5.900986   5.433997
    16  N    7.099750   6.297850   4.795016   4.743195   4.103102
    17  N    4.599189   3.825827   2.468445   3.031311   1.471494
    18  H    1.095789   2.188614   2.862069   2.898224   3.533043
    19  H    1.096797   2.195867   2.966869   3.712983   2.970653
    20  H    1.095306   2.174566   3.543634   4.155563   4.189555
    21  H    2.157359   1.098957   2.161611   3.506415   2.774227
    22  H    2.152732   1.097098   2.139400   2.778598   3.479347
    23  H    3.516233   2.140070   1.096549   2.107249   2.110889
    24  H    4.256200   3.487118   2.149582   1.092559   2.852019
    25  H    3.091476   2.997905   2.212769   1.096786   2.824709
    26  H    3.392359   2.730296   2.164831   1.095406   3.502783
    27  H    3.356676   2.682315   2.162401   3.492182   1.095358
    28  H    3.595921   3.883341   3.467793   4.122525   2.225754
    29  H    2.761404   3.212901   2.746938   2.822891   2.239130
    30  H    7.228219   7.132945   5.874843   5.551442   4.859093
    31  H   11.164789  10.753902   9.275407   8.657202   8.588189
    32  H   11.592343  11.370806   9.973269   9.438452   9.093047
    33  H   11.408672  10.984847   9.533551   9.187860   8.607052
    34  H   10.239369   9.565556   8.044450   7.692382   7.347705
    35  H    8.966246   8.006313   6.502750   6.386120   5.999362
    36  Ni   6.162035   5.029539   3.633536   4.014525   3.277389
    37  F    7.363961   6.190740   5.002009   5.686010   4.411669
    38  F    5.774638   4.555990   3.188510   3.086161   3.620082
                    6          7          8          9         10
     6  C    0.000000
     7  O    1.466581   0.000000
     8  C    2.234209   1.340271   0.000000
     9  C    3.649320   2.442794   1.468946   0.000000
    10  C    4.358035   2.928448   2.516051   1.381752   0.000000
    11  C    5.744564   4.328402   3.775068   2.391614   1.406003
    12  O    6.597942   5.135713   4.850591   3.593130   2.335079
    13  C    7.981304   6.525485   6.130324   4.772568   3.650319
    14  C    6.369926   5.076012   4.193550   2.729764   2.413887
    15  C    5.821286   4.730298   3.590308   2.303202   2.742653
    16  N    4.556897   3.592052   2.350670   1.353804   2.408725
    17  N    2.354833   2.249675   1.279609   2.392828   3.663164
    18  H    3.350558   4.510246   5.116685   6.446701   7.205552
    19  H    2.727529   4.162360   4.808777   6.263382   7.058479
    20  H    4.305823   5.686430   6.187067   7.608400   8.492427
    21  H    3.750237   5.020219   4.995226   6.352340   7.501519
    22  H    4.336707   5.447088   5.433158   6.682299   7.793319
    23  H    3.510408   4.168814   3.629137   4.682529   5.953672
    24  H    3.468689   3.489045   3.067751   3.765355   4.764833
    25  H    2.754984   3.153092   3.453491   4.482814   5.222739
    26  H    4.089233   4.609355   4.512027   5.438439   6.395613
    27  H    2.196349   3.169081   2.988472   4.338923   5.455337
    28  H    1.092487   2.073043   2.908944   4.250228   4.838001
    29  H    1.087921   2.063635   2.998836   4.323183   4.908146
    30  H    4.123673   2.666186   2.780516   2.154295   1.083067
    31  H    8.310342   6.874091   6.390015   4.995870   4.017242
    32  H    8.555649   7.090376   6.865573   5.593192   4.349602
    33  H    8.333159   6.911136   6.389917   4.997183   4.017480
    34  H    7.451962   6.150872   5.272033   3.810689   3.412435
    35  H    6.597542   5.632383   4.403659   3.268989   3.827116
    36  Ni   4.392836   4.082189   2.800688   2.895007   4.242969
    37  F    5.541083   5.270794   4.009697   3.940918   5.147986
    38  F    4.770620   4.635480   3.590978   3.829517   5.080184
                   11         12         13         14         15
    11  C    0.000000
    12  O    1.345154   0.000000
    13  C    2.381312   1.427460   0.000000
    14  C    1.400495   2.437824   2.832598   0.000000
    15  C    2.403632   3.672404   4.224690   1.394764   0.000000
    16  N    2.792864   4.135493   5.026094   2.395838   1.331071
    17  N    4.782305   5.964806   7.163216   4.909223   3.984615
    18  H    8.516920   9.351855  10.696319   9.036564   8.358290
    19  H    8.434432   9.287938  10.673363   8.981769   8.281961
    20  H    9.826472  10.731906  12.087045  10.265429   9.460899
    21  H    8.730416   9.832659  11.100244   8.892711   7.873390
    22  H    8.966775  10.051467  11.282726   9.102253   8.101016
    23  H    6.995511   8.201494   9.342245   6.936916   5.824117
    24  H    5.723557   6.801783   7.914660   5.809096   4.965961
    25  H    6.399709   7.279398   8.538568   6.835711   6.213820
    26  H    7.426083   8.441968   9.588208   7.568001   6.716713
    27  H    6.686928   7.773490   9.042769   6.918957   6.002886
    28  H    6.224715   6.992884   8.389039   6.921804   6.436289
    29  H    6.287282   7.052200   8.444822   6.981830   6.495529
    30  H    2.166466   2.562231   3.987537   3.402310   3.825413
    31  H    2.706304   2.088134   1.095990   2.819730   4.155569
    32  H    3.248842   2.015516   1.089796   3.895455   5.278962
    33  H    2.707689   2.088086   1.096014   2.821037   4.158124
    34  H    2.177551   2.756577   2.569991   1.082126   2.143492
    35  H    3.398518   4.586809   4.912806   2.163486   1.085244
    36  Ni   4.858955   6.194900   7.097674   4.388532   3.085951
    37  F    5.552686   6.854866   7.601212   4.888745   3.603031
    38  F    5.700192   6.980175   7.865545   5.257577   4.042353
                   16         17         18         19         20
    16  N    0.000000
    17  N    2.655202   0.000000
    18  H    7.101265   4.807225   0.000000
    19  H    6.966356   4.417147   1.773516   0.000000
    20  H    8.152419   5.620545   1.766435   1.760042   0.000000
    21  H    6.572497   4.023913   3.081924   2.500405   2.516356
    22  H    6.860296   4.576844   2.557301   3.079727   2.445745
    23  H    4.606764   2.549467   3.849442   3.917030   4.307298
    24  H    3.899501   2.752318   3.967839   4.653733   5.218575
    25  H    5.073427   3.403154   2.495733   3.451914   4.070644
    26  H    5.627962   4.033106   2.991978   4.150017   4.130535
    27  H    4.691262   2.090761   3.991184   2.998728   4.197082
    28  H    5.202326   3.035721   3.853969   2.761996   4.498488
    29  H    5.263239   3.171931   2.547282   2.347550   3.790285
    30  H    3.385910   4.046628   6.971434   6.793558   8.301722
    31  H    5.075123   7.354392  10.815259  10.948157  12.257680
    32  H    5.997232   7.974217  11.246828  11.227492  12.676591
    33  H    5.080128   7.330105  11.205893  11.052900  12.499805
    34  H    3.356189   5.944381  10.081148  10.058245  11.321052
    35  H    2.053556   4.544980   8.972310   8.917378   9.988367
    36  Ni   2.076991   2.050621   6.381066   6.191468   7.103495
    37  F    3.000099   3.282740   7.768825   7.264919   8.226915
    38  F    3.173681   2.868569   5.814326   6.115545   6.658027
                   21         22         23         24         25
    21  H    0.000000
    22  H    1.753527   0.000000
    23  H    2.425659   2.417820   0.000000
    24  H    4.273241   3.667751   2.319065   0.000000
    25  H    3.987127   3.337246   3.053263   1.795378   0.000000
    26  H    3.716687   2.482340   2.509306   1.762688   1.764889
    27  H    2.447530   3.666420   2.481311   3.833481   3.815459
    28  H    4.044171   4.943890   4.280769   4.540561   3.774236
    29  H    3.845130   4.079911   3.776463   3.418748   2.172645
    30  H    7.596594   7.906401   6.313533   5.085101   5.167090
    31  H   11.254919  11.288721   9.342200   7.777127   8.529095
    32  H   11.844677  12.023896  10.183895   8.688551   9.152778
    33  H   11.334335  11.640233   9.578558   8.362785   9.093873
    34  H    9.909945  10.087778   7.890671   6.740981   7.833745
    35  H    8.227112   8.427215   6.078131   5.407912   6.844974
    36  Ni   5.124417   5.473667   3.060772   3.320284   4.722656
    37  F    5.990982   6.690427   4.341417   5.095283   6.390722
    38  F    4.916502   4.663100   2.497385   2.266154   3.995260
                   26         27         28         29         30
    26  H    0.000000
    27  H    4.306752   0.000000
    28  H    5.074518   2.373054   0.000000
    29  H    3.686746   2.959980   1.784382   0.000000
    30  H    6.563958   5.576221   4.490569   4.563581   0.000000
    31  H    9.439285   9.333065   8.838514   8.711518   4.479613
    32  H   10.309083   9.779573   8.904535   8.958085   4.448850
    33  H   10.084046   9.181880   8.674826   8.911909   4.477638
    34  H    8.494092   7.955623   7.995836   8.053576   4.324328
    35  H    7.103345   6.491223   7.229711   7.285946   4.909479
    36  Ni   4.743821   3.637020   5.066501   5.115738   5.030485
    37  F    6.400040   4.359293   5.942185   6.434421   5.982028
    38  F    3.481489   4.229766   5.679192   5.146632   5.786223
                   31         32         33         34         35
    31  H    0.000000
    32  H    1.787009   0.000000
    33  H    1.793255   1.787007   0.000000
    34  H    2.363765   3.653359   2.362865   0.000000
    35  H    4.715748   5.997927   4.716601   2.483063   0.000000
    36  Ni   7.095604   8.074200   7.102203   5.229265   3.166242
    37  F    7.707207   8.606031   7.342341   5.557726   3.387405
    38  F    7.656613   8.817848   8.061537   6.043007   4.052228
                   36         37         38
    36  Ni   0.000000
    37  F    1.809649   0.000000
    38  F    1.837584   3.432811   0.000000
 Stoichiometry    C13H18F2N2NiO2(3)
 Framework group  C1[X(C13H18F2N2NiO2)]
 Deg. of freedom   108
 Full point group                 C1      NOp   1
 Largest Abelian subgroup         C1      NOp   1
 Largest concise Abelian subgroup C1      NOp   1
                         Standard orientation:                         
 ---------------------------------------------------------------------
 Center     Atomic      Atomic             Coordinates (Angstroms)
 Number     Number       Type             X           Y           Z
 ---------------------------------------------------------------------
      1          6           0        5.070013   -1.964071    0.030686
      2          6           0        4.700928   -0.483801    0.181308
      3          6           0        3.215350   -0.165284    0.436583
      4          6           0        2.674439   -0.705415    1.766355
      5          6           0        2.326111   -0.554996   -0.767195
      6          6           0        1.942308   -2.057851   -0.915473
      7          8           0        0.502746   -2.106478   -0.639513
      8          6           0        0.118735   -0.827526   -0.524867
      9          6           0       -1.279339   -0.486736   -0.229816
     10          6           0       -2.307189   -1.409656   -0.198481
     11          6           0       -3.603118   -0.949871    0.094795
     12          8           0       -4.572212   -1.882535    0.115606
     13          6           0       -5.906465   -1.467274    0.407099
     14          6           0       -3.792382    0.416660    0.335960
     15          6           0       -2.686020    1.264155    0.280448
     16          7           0       -1.455314    0.833471    0.012823
     17          7           0        1.007702    0.085793   -0.638812
     18          1           0        4.723553   -2.555976    0.885301
     19          1           0        4.647383   -2.405323   -0.880162
     20          1           0        6.156752   -2.084791   -0.033513
     21          1           0        5.030813    0.059975   -0.714900
     22          1           0        5.271691   -0.061625    1.017742
     23          1           0        3.123711    0.925012    0.509231
     24          1           0        1.740207   -0.189337    1.999937
     25          1           0        2.517125   -1.790860    1.765616
     26          1           0        3.381910   -0.480530    2.571851
     27          1           0        2.797298   -0.186781   -1.684914
     28          1           0        2.092132   -2.439556   -1.928085
     29          1           0        2.423330   -2.718120   -0.196978
     30          1           0       -2.128617   -2.459653   -0.395084
     31          1           0       -5.969512   -1.020703    1.405995
     32          1           0       -6.510064   -2.373951    0.371623
     33          1           0       -6.268135   -0.753544   -0.341922
     34          1           0       -4.766218    0.830683    0.562291
     35          1           0       -2.789607    2.329876    0.457258
     36         28           0        0.301010    1.935733   -0.106500
     37          9           0       -0.097819    3.064778   -1.463342
     38          9           0        1.091904    1.935437    1.552174
 ---------------------------------------------------------------------
 Rotational constants (GHZ):           0.4809666           0.1836147           0.1478390
 Basis read from rwf:  (6D, 7F)
 Pseudo-potential data read from rwf file.
 There are   398 symmetry adapted cartesian basis functions of A   symmetry.
 There are   395 symmetry adapted basis functions of A   symmetry.
   395 basis functions,   758 primitive gaussians,   398 cartesian basis functions
    82 alpha electrons       80 beta electrons
       nuclear repulsion energy      1879.0575134318 Hartrees.
 NAtoms=   38 NActive=   38 NUniq=   38 SFac= 1.00D+00 NAtFMM=   60 NAOKFM=F Big=F
 Integral buffers will be    131072 words long.
 Raffenetti 2 integral format.
 Two-electron integral symmetry is turned on.
 Nuclear repulsion after empirical dispersion term =     1878.9775755450 Hartrees.
 One-electron integrals computed using PRISM.
 PrsmSu:  requested number of processors reduced to:  12 ShMem   1 Linda.
   1 Symmetry operations used in ECPInt.
 ECPInt:  NShTT=    8911 NPrTT=   52776 LenC2=    7762 LenP2D=   27097.
 LDataN:  DoStor=T MaxTD1= 6 Len=  172
 NBasis=   395 RedAO= T EigKep=  1.11D-06  NBF=   395
 NBsUse=   395 1.00D-06 EigRej= -1.00D+00 NBFU=   395
 Initial guess from the checkpoint file:  "Lig2214_xyz_3.chk"
 B after Tr=     0.000000    0.000000    0.000000
         Rot=    0.999999    0.001032   -0.000495   -0.000195 Ang=   0.13 deg.
 Initial guess <Sx>= 0.0000 <Sy>= 0.0000 <Sz>= 1.0000 <S**2>= 2.0065 S= 1.0021
 ExpMin= 2.40D-02 ExpMax= 7.14D+04 ExpMxC= 1.07D+04 IAcc=3 IRadAn=         5 AccDes= 0.00D+00
 Harris functional with IExCor=  402 and IRadAn=       5 diagonalized for initial guess.
 HarFok:  IExCor=  402 AccDes= 0.00D+00 IRadAn=         5 IDoV= 1 UseB2=F ITyADJ=14
 ICtDFT=  3500011 ScaDFX=  1.000000  1.000000  1.000000  1.000000
 FoFCou: FMM=F IPFlag=           0 FMFlag=      100000 FMFlg1=           0
         NFxFlg=           0 DoJE=T BraDBF=F KetDBF=T FulRan=T
         wScrn=  0.000000 ICntrl=       500 IOpCl=  0 I1Cent=   200000004 NGrid=           0
         NMat0=    1 NMatS0=      1 NMatT0=    0 NMatD0=    1 NMtDS0=    0 NMtDT0=    0
 Petite list used in FoFCou.
 Requested convergence on RMS density matrix=1.00D-08 within  32 cycles.
 Requested convergence on MAX density matrix=1.00D-06.
 Requested convergence on             energy=1.00D-06.
 No special actions if energy rises.
 Restarting incremental Fock formation.
 SCF Done:  E(UB3LYP) =  -1135.38318566     A.U. after   28 cycles
            NFock= 28  Conv=0.21D-08     -V/T= 2.0665
 <Sx>= 0.0000 <Sy>= 0.0000 <Sz>= 1.0000 <S**2>= 2.0064 S= 1.0021
 <L.S>=  0.00000000000    
 Annihilation of the first spin contaminant:
 S**2 before annihilation     2.0064,   after     2.0000
 QCSCF skips out because SCF is already converged.
 PrsmSu:  requested number of processors reduced to:  13 ShMem   1 Linda.
   1 Symmetry operations used in ECPInt.
 ECPInt:  NShTT=    8911 NPrTT=   52776 LenC2=    7762 LenP2D=   27097.
 LDataN:  DoStor=T MaxTD1= 7 Len=  274
 Calling FoFJK, ICntrl=      2127 FMM=F ISym2X=0 I1Cent= 0 IOpClX= 1 NMat=1 NMatS=1 NMatT=0.
 ***** Axes restored to original set *****
 -------------------------------------------------------------------
 Center     Atomic                   Forces (Hartrees/Bohr)
 Number     Number              X              Y              Z
 -------------------------------------------------------------------
      1        6           0.000020081    0.000038592   -0.000061435
      2        6          -0.000000456   -0.000140159    0.000033154
      3        6           0.000006312    0.000070653   -0.000084551
      4        6           0.000067178    0.000065011    0.000251298
      5        6          -0.000015167   -0.000115859    0.000038037
      6        6           0.000054465    0.000025920   -0.000088826
      7        8          -0.000066939   -0.000064785   -0.000035724
      8        6           0.000162664   -0.000375323    0.000204110
      9        6          -0.000282775   -0.000009761    0.000058239
     10        6           0.000076603   -0.000064424    0.000014601
     11        6          -0.000142178    0.000113701   -0.000002991
     12        8           0.000135579   -0.000115806   -0.000029293
     13        6          -0.000151359    0.000063718    0.000057971
     14        6           0.000016356    0.000147647   -0.000074457
     15        6           0.000115069   -0.000418722    0.000311660
     16        7           0.000343659    0.000277338   -0.000271100
     17        7          -0.000057370    0.000397690   -0.000390110
     18        1           0.000018211   -0.000033685    0.000001771
     19        1          -0.000025325   -0.000018440    0.000000386
     20        1          -0.000014548    0.000013807   -0.000011248
     21        1          -0.000016554    0.000011615    0.000028667
     22        1          -0.000018730   -0.000010881    0.000000557
     23        1           0.000021197   -0.000085508   -0.000025642
     24        1          -0.000108917    0.000010621   -0.000074815
     25        1           0.000024312   -0.000039103    0.000025269
     26        1           0.000114253    0.000093299   -0.000031254
     27        1          -0.000059715   -0.000002292   -0.000067856
     28        1           0.000030167    0.000019864    0.000015463
     29        1          -0.000024498   -0.000037873   -0.000024236
     30        1          -0.000020012    0.000013371   -0.000007003
     31        1           0.000020265   -0.000008459   -0.000022095
     32        1           0.000011393   -0.000012625    0.000004012
     33        1           0.000027044   -0.000001078    0.000003464
     34        1          -0.000010633   -0.000001208    0.000025996
     35        1          -0.000043798    0.000048323   -0.000016954
     36       28          -0.000012984    0.000011866    0.000291190
     37        9           0.000077916   -0.000021865   -0.000105440
     38        9          -0.000270767    0.000154822    0.000059186
 -------------------------------------------------------------------
 Cartesian Forces:  Max     0.000418722 RMS     0.000122881

 GradGradGradGradGradGradGradGradGradGradGradGradGradGradGradGradGradGrad
 Berny optimization.
 Using GEDIIS/GDIIS optimizer.
 FormGI is forming the generalized inverse of G from B-inverse, IUseBI=4.
 Internal  Forces:  Max     0.000375042 RMS     0.000077484
 Search for a local minimum.
 Step number  15 out of a maximum of  228
 All quantities printed in internal units (Hartrees-Bohrs-Radians)
 Mixed Optimization -- En-DIIS/RFO-DIIS
 Swapping is turned off.
 Update second derivatives using D2CorX and points    7    8    9   10   11
                                                     12   13   14   15
 DE= -1.76D-05 DEPred=-7.19D-06 R= 2.45D+00
 TightC=F SS=  1.41D+00  RLast= 5.96D-02 DXNew= 1.7643D+00 1.7892D-01
 Trust test= 2.45D+00 RLast= 5.96D-02 DXMaxT set to 1.05D+00
 ITU=  1  1  1  1  1  1  1  0  1  0  1  1  1  1  0
     Eigenvalues ---    0.00149   0.00211   0.00234   0.00265   0.01029
     Eigenvalues ---    0.01375   0.01547   0.01810   0.01971   0.01983
     Eigenvalues ---    0.02022   0.02038   0.02119   0.02125   0.02191
     Eigenvalues ---    0.02219   0.02392   0.02835   0.03082   0.03149
     Eigenvalues ---    0.03312   0.03783   0.04140   0.04315   0.04704
     Eigenvalues ---    0.04874   0.04976   0.05129   0.05249   0.05324
     Eigenvalues ---    0.05467   0.05554   0.05924   0.06090   0.06730
     Eigenvalues ---    0.07232   0.09024   0.10133   0.10695   0.10872
     Eigenvalues ---    0.11515   0.11896   0.12688   0.14151   0.15878
     Eigenvalues ---    0.15987   0.15994   0.16000   0.16002   0.16007
     Eigenvalues ---    0.16010   0.16020   0.16053   0.16070   0.16479
     Eigenvalues ---    0.16632   0.17582   0.18429   0.19135   0.19575
     Eigenvalues ---    0.20191   0.20692   0.21768   0.22755   0.23568
     Eigenvalues ---    0.24416   0.24566   0.25022   0.25237   0.25707
     Eigenvalues ---    0.26207   0.26941   0.28109   0.28606   0.28849
     Eigenvalues ---    0.30133   0.32286   0.34507   0.34563   0.34615
     Eigenvalues ---    0.34622   0.34642   0.34678   0.34705   0.34738
     Eigenvalues ---    0.34786   0.34795   0.34813   0.34885   0.34890
     Eigenvalues ---    0.35072   0.35487   0.35731   0.36074   0.36242
     Eigenvalues ---    0.37653   0.39186   0.40964   0.41328   0.42256
     Eigenvalues ---    0.43054   0.45306   0.46719   0.48781   0.49587
     Eigenvalues ---    0.51277   0.54919   0.68098
 En-DIIS/RFO-DIIS/Sim-DIIS IScMMF=       -3 using points:    15   14   13   12   11   10    9    8
 RFO step:  Lambda=-2.15002147D-05.
 DIIS inversion failure, remove point   8.
 DIIS inversion failure, remove point   7.
 DIIS inversion failure, remove point   6.
 RFO-DIIS uses    5 points instead of    8
 DidBck=F Rises=F RFO-DIIS coefs:    2.04380   -0.59413   -0.74621    0.33342   -0.03688
                  RFO-DIIS coefs:    0.00000    0.00000    0.00000
 Iteration  1 RMS(Cart)=  0.01366311 RMS(Int)=  0.00005259
 Iteration  2 RMS(Cart)=  0.00007530 RMS(Int)=  0.00001597
 Iteration  3 RMS(Cart)=  0.00000000 RMS(Int)=  0.00001597
 Variable       Old X    -DE/DX   Delta X   Delta X   Delta X     New X
                                 (Linear)    (Quad)   (Total)
    R1        2.89696  -0.00003   0.00008  -0.00001   0.00006   2.89703
    R2        2.07074   0.00002  -0.00002  -0.00000  -0.00003   2.07072
    R3        2.07265   0.00001  -0.00004   0.00003  -0.00000   2.07264
    R4        2.06983   0.00002  -0.00002   0.00002   0.00000   2.06983
    R5        2.91138  -0.00003   0.00014  -0.00008   0.00006   2.91144
    R6        2.07673   0.00002   0.00001   0.00003   0.00004   2.07676
    R7        2.07321   0.00000  -0.00000   0.00001   0.00001   2.07322
    R8        2.89851  -0.00020   0.00009  -0.00029  -0.00019   2.89832
    R9        2.92249  -0.00013  -0.00020  -0.00005  -0.00025   2.92223
   R10        2.07218  -0.00003  -0.00020  -0.00004  -0.00024   2.07194
   R11        2.06464  -0.00009  -0.00002  -0.00013  -0.00015   2.06449
   R12        2.07262   0.00004   0.00003   0.00000   0.00003   2.07265
   R13        2.07002  -0.00001   0.00006   0.00000   0.00006   2.07008
   R14        2.94450  -0.00005   0.00133  -0.00022   0.00108   2.94558
   R15        2.78072  -0.00004  -0.00025  -0.00006  -0.00031   2.78041
   R16        2.06993  -0.00003   0.00038  -0.00004   0.00034   2.07026
   R17        2.77144  -0.00004   0.00140  -0.00012   0.00127   2.77270
   R18        2.06450   0.00002  -0.00043   0.00003  -0.00041   2.06410
   R19        2.05587   0.00004  -0.00000   0.00004   0.00004   2.05591
   R20        2.53274  -0.00000  -0.00028  -0.00001  -0.00026   2.53248
   R21        2.77591  -0.00019   0.00055  -0.00027   0.00029   2.77619
   R22        2.41811   0.00028  -0.00028   0.00019  -0.00007   2.41804
   R23        2.61113  -0.00001   0.00007   0.00002   0.00009   2.61122
   R24        2.55832   0.00027  -0.00060   0.00033  -0.00028   2.55804
   R25        2.65696  -0.00012  -0.00001  -0.00015  -0.00015   2.65681
   R26        2.04670   0.00000   0.00000   0.00000   0.00000   2.04670
   R27        2.54197   0.00009   0.00017   0.00006   0.00024   2.54221
   R28        2.64655   0.00002   0.00005   0.00000   0.00005   2.64661
   R29        2.69751  -0.00011   0.00019  -0.00022  -0.00003   2.69748
   R30        2.07112   0.00002  -0.00003   0.00004   0.00001   2.07113
   R31        2.05942   0.00002   0.00002   0.00002   0.00005   2.05946
   R32        2.07117   0.00002  -0.00001   0.00003   0.00003   2.07119
   R33        2.63572  -0.00012   0.00007  -0.00016  -0.00009   2.63563
   R34        2.04492  -0.00001   0.00001  -0.00001   0.00000   2.04492
   R35        2.51536   0.00012   0.00002   0.00015   0.00017   2.51553
   R36        2.05081   0.00001  -0.00010   0.00003  -0.00007   2.05074
   R37        3.92494   0.00023  -0.00013   0.00068   0.00054   3.92548
   R38        3.87511  -0.00014   0.00318  -0.00017   0.00301   3.87812
   R39        3.41974  -0.00002  -0.00029  -0.00034  -0.00064   3.41910
   R40        3.47253   0.00006   0.00016  -0.00008   0.00009   3.47262
    A1        1.94855   0.00000   0.00015   0.00003   0.00018   1.94873
    A2        1.95767   0.00003  -0.00037   0.00022  -0.00014   1.95753
    A3        1.92950  -0.00002   0.00008  -0.00015  -0.00007   1.92943
    A4        1.88445  -0.00002   0.00005  -0.00007  -0.00002   1.88443
    A5        1.87536   0.00002   0.00003   0.00001   0.00004   1.87540
    A6        1.86429  -0.00001   0.00007  -0.00005   0.00002   1.86431
    A7        2.03540   0.00004  -0.00012   0.00023   0.00011   2.03550
    A8        1.90222  -0.00002  -0.00013  -0.00010  -0.00023   1.90199
    A9        1.89782  -0.00003   0.00000  -0.00016  -0.00016   1.89767
   A10        1.89893   0.00001  -0.00006   0.00009   0.00002   1.89895
   A11        1.87106  -0.00001   0.00030  -0.00005   0.00025   1.87131
   A12        1.84956   0.00001   0.00003  -0.00003   0.00000   1.84957
   A13        1.99424  -0.00001   0.00056  -0.00037   0.00019   1.99443
   A14        1.95344   0.00005  -0.00039   0.00010  -0.00029   1.95315
   A15        1.87248   0.00004   0.00041   0.00037   0.00078   1.87326
   A16        1.96418  -0.00007   0.00040  -0.00022   0.00018   1.96436
   A17        1.83716  -0.00002  -0.00038  -0.00013  -0.00051   1.83665
   A18        1.82769   0.00001  -0.00073   0.00035  -0.00037   1.82731
   A19        1.89712   0.00010  -0.00041   0.00037  -0.00004   1.89708
   A20        1.98068   0.00002   0.00019   0.00019   0.00038   1.98106
   A21        1.91501  -0.00010  -0.00005  -0.00033  -0.00039   1.91462
   A22        1.92300  -0.00004   0.00004   0.00000   0.00004   1.92304
   A23        1.87347  -0.00007   0.00043  -0.00062  -0.00020   1.87328
   A24        1.87162   0.00008  -0.00017   0.00034   0.00017   1.87179
   A25        2.04739  -0.00006  -0.00049  -0.00047  -0.00095   2.04644
   A26        1.91509  -0.00005   0.00221  -0.00016   0.00208   1.91717
   A27        1.89663   0.00002  -0.00032   0.00006  -0.00028   1.89634
   A28        1.77994   0.00005   0.00094   0.00004   0.00092   1.78086
   A29        1.92885   0.00002  -0.00077   0.00029  -0.00047   1.92838
   A30        1.88823   0.00003  -0.00157   0.00031  -0.00125   1.88698
   A31        1.82953   0.00008   0.00047  -0.00003   0.00034   1.82987
   A32        1.97296  -0.00005   0.00200   0.00000   0.00202   1.97499
   A33        1.99721   0.00001  -0.00156  -0.00016  -0.00171   1.99551
   A34        1.87280  -0.00000  -0.00018   0.00006  -0.00010   1.87270
   A35        1.86461  -0.00006  -0.00074   0.00009  -0.00062   1.86400
   A36        1.91714   0.00003  -0.00005   0.00006   0.00000   1.91714
   A37        1.83972  -0.00004   0.00019   0.00001   0.00013   1.83985
   A38        2.10744  -0.00001  -0.00011  -0.00002  -0.00012   2.10733
   A39        2.06511   0.00002   0.00096  -0.00009   0.00085   2.06596
   A40        2.11005  -0.00000  -0.00075   0.00011  -0.00063   2.10943
   A41        2.16227  -0.00015   0.00077  -0.00044   0.00033   2.16259
   A42        1.96704   0.00010  -0.00055   0.00033  -0.00023   1.96681
   A43        2.15388   0.00005  -0.00021   0.00011  -0.00010   2.15378
   A44        2.06229   0.00002  -0.00031   0.00007  -0.00024   2.06205
   A45        2.11856  -0.00004   0.00056  -0.00019   0.00036   2.11892
   A46        2.10234   0.00002  -0.00025   0.00012  -0.00013   2.10221
   A47        2.02698  -0.00003  -0.00029   0.00006  -0.00023   2.02674
   A48        2.07095   0.00001   0.00040  -0.00005   0.00036   2.07131
   A49        2.18525   0.00001  -0.00012  -0.00001  -0.00013   2.18512
   A50        2.06559   0.00009  -0.00000   0.00008   0.00008   2.06567
   A51        1.93737   0.00002  -0.00005   0.00008   0.00004   1.93740
   A52        1.84318   0.00000  -0.00018   0.00010  -0.00009   1.84309
   A53        1.93727   0.00003  -0.00010   0.00010  -0.00000   1.93727
   A54        1.91431  -0.00001   0.00006  -0.00008  -0.00002   1.91429
   A55        1.91616  -0.00002   0.00018  -0.00010   0.00008   1.91624
   A56        1.91428  -0.00002   0.00008  -0.00009  -0.00002   1.91426
   A57        2.07013   0.00001  -0.00011  -0.00001  -0.00012   2.07001
   A58        2.13053  -0.00003  -0.00012  -0.00007  -0.00019   2.13034
   A59        2.08253   0.00001   0.00023   0.00008   0.00031   2.08284
   A60        2.14696   0.00011  -0.00059   0.00029  -0.00029   2.14667
   A61        2.11122   0.00001   0.00047   0.00009   0.00057   2.11179
   A62        2.02501  -0.00012   0.00012  -0.00039  -0.00027   2.02473
   A63        2.06207  -0.00020   0.00080  -0.00043   0.00038   2.06245
   A64        1.97939  -0.00017   0.00200  -0.00050   0.00149   1.98088
   A65        2.24169   0.00038  -0.00279   0.00091  -0.00187   2.23982
   A66        1.89589  -0.00009   0.00068  -0.00013   0.00048   1.89637
   A67        2.38077   0.00010   0.00145   0.00041   0.00185   2.38262
   A68        1.96207   0.00000   0.00104  -0.00002   0.00099   1.96306
   A69        1.39750   0.00007  -0.00166   0.00020  -0.00144   1.39605
   A70        1.75974  -0.00001  -0.00821  -0.00153  -0.00965   1.75008
   A71        1.88810   0.00018   0.01417   0.00361   0.01777   1.90587
   A72        2.03104   0.00018   0.01097   0.00288   0.01383   2.04487
   A73        1.65674  -0.00027  -0.00460  -0.00216  -0.00668   1.65006
   A74        2.45237  -0.00006  -0.00683  -0.00164  -0.00846   2.44390
    D1       -0.94359   0.00002  -0.00086   0.00027  -0.00059  -0.94418
    D2       -3.10119  -0.00000  -0.00057   0.00006  -0.00051  -3.10170
    D3        1.17332   0.00001  -0.00054   0.00024  -0.00031   1.17301
    D4        1.17417   0.00001  -0.00094   0.00035  -0.00059   1.17358
    D5       -0.98343  -0.00001  -0.00066   0.00015  -0.00051  -0.98394
    D6       -2.99211   0.00001  -0.00063   0.00032  -0.00031  -2.99242
    D7       -3.03029   0.00001  -0.00104   0.00034  -0.00071  -3.03100
    D8        1.09529  -0.00001  -0.00076   0.00014  -0.00063   1.09466
    D9       -0.91339   0.00001  -0.00073   0.00031  -0.00042  -0.91381
   D10        1.12142  -0.00003   0.00092  -0.00049   0.00043   1.12185
   D11       -1.13690   0.00003   0.00021   0.00006   0.00027  -1.13663
   D12       -3.13243  -0.00003   0.00105  -0.00063   0.00042  -3.13201
   D13       -3.00246  -0.00003   0.00061  -0.00039   0.00022  -3.00224
   D14        1.02240   0.00004  -0.00010   0.00017   0.00006   1.02246
   D15       -0.97313  -0.00003   0.00073  -0.00052   0.00021  -0.97292
   D16       -1.00954  -0.00001   0.00077  -0.00040   0.00036  -1.00918
   D17        3.01532   0.00005   0.00006   0.00015   0.00021   3.01553
   D18        1.01979  -0.00001   0.00089  -0.00054   0.00035   1.02015
   D19        2.84510  -0.00003   0.00541  -0.00033   0.00507   2.85017
   D20       -1.29194   0.00001   0.00529   0.00007   0.00536  -1.28659
   D21        0.80125   0.00005   0.00516   0.00039   0.00555   0.80680
   D22       -1.18514  -0.00003   0.00573  -0.00073   0.00500  -1.18014
   D23        0.96100   0.00001   0.00561  -0.00033   0.00528   0.96629
   D24        3.05420   0.00005   0.00548  -0.00001   0.00547   3.05967
   D25        0.79541  -0.00006   0.00484  -0.00050   0.00435   0.79976
   D26        2.94155  -0.00002   0.00473  -0.00009   0.00463   2.94618
   D27       -1.24844   0.00002   0.00459   0.00023   0.00482  -1.24362
   D28        1.38910  -0.00005  -0.00406  -0.00001  -0.00405   1.38505
   D29       -2.87507  -0.00007  -0.00151  -0.00039  -0.00192  -2.87699
   D30       -0.81368  -0.00005  -0.00232  -0.00008  -0.00240  -0.81608
   D31       -0.88481  -0.00002  -0.00486   0.00062  -0.00422  -0.88903
   D32        1.13420  -0.00003  -0.00230   0.00024  -0.00209   1.13211
   D33       -3.08759  -0.00001  -0.00312   0.00055  -0.00257  -3.09016
   D34       -2.87115   0.00003  -0.00418   0.00068  -0.00349  -2.87464
   D35       -0.85214   0.00001  -0.00163   0.00030  -0.00136  -0.85350
   D36        1.20925   0.00003  -0.00244   0.00061  -0.00184   1.20742
   D37        1.93867  -0.00005   0.02009  -0.00157   0.01852   1.95719
   D38       -2.31039  -0.00003   0.02117  -0.00152   0.01964  -2.29075
   D39       -0.09808  -0.00003   0.02152  -0.00158   0.01995  -0.07814
   D40       -0.15331   0.00001   0.01692  -0.00114   0.01578  -0.13752
   D41        1.88082   0.00003   0.01800  -0.00109   0.01690   1.89772
   D42       -2.19006   0.00003   0.01835  -0.00115   0.01721  -2.17285
   D43       -2.15766  -0.00006   0.01855  -0.00163   0.01693  -2.14073
   D44       -0.12354  -0.00004   0.01962  -0.00158   0.01805  -0.10549
   D45        2.08877  -0.00004   0.01997  -0.00163   0.01835   2.10712
   D46       -2.03856   0.00004  -0.01443   0.00152  -0.01292  -2.05149
   D47        0.74821   0.00005  -0.00220   0.00248   0.00029   0.74850
   D48        0.14400  -0.00003  -0.01333   0.00090  -0.01243   0.13157
   D49        2.93077  -0.00002  -0.00110   0.00187   0.00078   2.93155
   D50        2.17802   0.00003  -0.01438   0.00137  -0.01303   2.16499
   D51       -1.31839   0.00003  -0.00215   0.00233   0.00018  -1.31821
   D52        0.11396  -0.00001  -0.01498   0.00099  -0.01398   0.09999
   D53       -1.98799   0.00001  -0.01744   0.00098  -0.01645  -2.00444
   D54        2.23993   0.00001  -0.01691   0.00084  -0.01608   2.22385
   D55       -3.13015   0.00001   0.00394  -0.00074   0.00321  -3.12694
   D56       -0.02476  -0.00000   0.00731  -0.00048   0.00685  -0.01791
   D57       -0.13043   0.00001   0.00480   0.00022   0.00502  -0.12541
   D58        3.00844  -0.00003   0.00661   0.00059   0.00720   3.01564
   D59        3.04830   0.00002   0.00131  -0.00004   0.00126   3.04956
   D60       -0.09601  -0.00002   0.00311   0.00033   0.00343  -0.09258
   D61       -0.08392   0.00002   0.00452  -0.00031   0.00420  -0.07972
   D62       -2.96338  -0.00001  -0.00464  -0.00113  -0.00577  -2.96915
   D63        3.02141   0.00001   0.00791  -0.00005   0.00786   3.02927
   D64        0.14195  -0.00002  -0.00125  -0.00087  -0.00212   0.13983
   D65       -3.13926  -0.00005   0.00199   0.00056   0.00254  -3.13671
   D66        0.00027  -0.00004   0.00158   0.00035   0.00192   0.00219
   D67        0.00535  -0.00001  -0.00001   0.00015   0.00014   0.00549
   D68       -3.13831   0.00000  -0.00042  -0.00006  -0.00048  -3.13880
   D69        3.13070   0.00006  -0.00256  -0.00051  -0.00306   3.12764
   D70       -0.00261   0.00006  -0.00320   0.00039  -0.00281  -0.00542
   D71       -0.01360   0.00003  -0.00076  -0.00014  -0.00090  -0.01450
   D72        3.13627   0.00002  -0.00140   0.00076  -0.00065   3.13563
   D73       -3.14076  -0.00001   0.00017  -0.00023  -0.00005  -3.14081
   D74        0.00379  -0.00001   0.00057  -0.00007   0.00049   0.00428
   D75        0.00288  -0.00002   0.00058  -0.00002   0.00056   0.00345
   D76       -3.13575  -0.00002   0.00097   0.00014   0.00111  -3.13464
   D77       -3.14049   0.00001  -0.00086   0.00066  -0.00020  -3.14069
   D78       -0.00207   0.00002  -0.00129   0.00050  -0.00079  -0.00286
   D79       -0.00445   0.00001  -0.00037   0.00000  -0.00037  -0.00482
   D80        3.13680   0.00001  -0.00072  -0.00016  -0.00088   3.13592
   D81        3.14039   0.00001   0.00006   0.00017   0.00023   3.14062
   D82       -0.00155   0.00000  -0.00029   0.00001  -0.00028  -0.00183
   D83       -1.06626  -0.00001   0.00167  -0.00045   0.00123  -1.06503
   D84       -3.13978  -0.00001   0.00173  -0.00045   0.00128  -3.13850
   D85        1.06997  -0.00000   0.00180  -0.00045   0.00136   1.07133
   D86       -0.00405   0.00001  -0.00041  -0.00000  -0.00041  -0.00446
   D87        3.13751   0.00000  -0.00125  -0.00001  -0.00125   3.13626
   D88        3.13788   0.00001  -0.00007   0.00016   0.00008   3.13797
   D89       -0.00374   0.00001  -0.00091   0.00015  -0.00075  -0.00450
   D90        0.01284  -0.00003   0.00097   0.00007   0.00104   0.01388
   D91       -3.13845  -0.00003   0.00175  -0.00100   0.00076  -3.13769
   D92       -3.12872  -0.00002   0.00177   0.00007   0.00184  -3.12688
   D93        0.00318  -0.00002   0.00255  -0.00100   0.00156   0.00473
   D94        0.05522  -0.00005   0.00208  -0.00064   0.00144   0.05667
   D95        2.06566   0.00014   0.01392   0.00249   0.01643   2.08209
   D96       -1.54982   0.00024   0.00979   0.00219   0.01202  -1.53780
   D97       -3.07705  -0.00005   0.00134   0.00039   0.00172  -3.07533
   D98       -1.06661   0.00014   0.01318   0.00352   0.01670  -1.04991
   D99        1.60110   0.00023   0.00905   0.00322   0.01229   1.61338
   D100      -2.88203   0.00005  -0.01297  -0.00018  -0.01316  -2.89518
   D101       1.70399   0.00004  -0.00178   0.00178   0.00003   1.70402
   D102      -1.00356   0.00027   0.00207   0.00384   0.00591  -0.99765
   D103      -0.10457   0.00004  -0.00046   0.00080   0.00034  -0.10423
   D104      -1.80174   0.00004   0.01073   0.00275   0.01353  -1.78821
   D105       1.77390   0.00027   0.01458   0.00482   0.01941   1.79331
         Item               Value     Threshold  Converged?
 Maximum Force            0.000375     0.000450     YES
 RMS     Force            0.000077     0.000300     YES
 Maximum Displacement     0.054520     0.001800     NO 
 RMS     Displacement     0.013656     0.001200     NO 
 Predicted change in Energy=-1.056019D-05
 GradGradGradGradGradGradGradGradGradGradGradGradGradGradGradGradGradGrad

                          Input orientation:                          
 ---------------------------------------------------------------------
 Center     Atomic      Atomic             Coordinates (Angstroms)
 Number     Number       Type             X           Y           Z
 ---------------------------------------------------------------------
      1          6           0       -6.041486    1.502403   -2.475684
      2          6           0       -4.919692    2.288282   -3.164296
      3          6           0       -3.560819    1.575319   -3.301443
      4          6           0       -3.590317    0.328370   -4.193941
      5          6           0       -2.909996    1.304224   -1.925136
      6          6           0       -3.437035    0.081424   -1.114806
      7          8           0       -2.320904   -0.870909   -1.102918
      8          6           0       -1.296946   -0.226887   -1.679719
      9          6           0        0.001788   -0.889756   -1.859011
     10          6           0        0.312151   -2.131133   -1.337450
     11          6           0        1.596447   -2.649710   -1.578861
     12          8           0        1.854613   -3.860894   -1.053355
     13          6           0        3.144947   -4.432174   -1.268485
     14          6           0        2.499643   -1.885891   -2.328717
     15          6           0        2.085260   -0.644206   -2.810103
     16          7           0        0.867287   -0.152552   -2.593744
     17          7           0       -1.489236    0.965418   -2.102498
     18          1           0       -6.201133    0.526995   -2.948776
     19          1           0       -5.835013    1.332808   -1.411932
     20          1           0       -6.986686    2.053053   -2.531167
     21          1           0       -4.769393    3.237669   -2.631546
     22          1           0       -5.248274    2.558335   -4.175602
     23          1           0       -2.876002    2.270869   -3.800822
     24          1           0       -2.565206    0.071855   -4.471184
     25          1           0       -4.082583   -0.532898   -3.726114
     26          1           0       -4.133063    0.549442   -5.119433
     27          1           0       -2.969806    2.217657   -1.323253
     28          1           0       -3.669071    0.322839   -0.075124
     29          1           0       -4.281432   -0.429471   -1.572624
     30          1           0       -0.406863   -2.694671   -0.755659
     31          1           0        3.336776   -4.577893   -2.337680
     32          1           0        3.125660   -5.398047   -0.764077
     33          1           0        3.930231   -3.803865   -0.832786
     34          1           0        3.503177   -2.229528   -2.542800
     35          1           0        2.754838   -0.018236   -3.391050
     36         28           0        0.077201    1.659413   -3.232201
     37          9           0        1.224019    2.810032   -2.435648
     38          9           0       -0.780884    1.412116   -4.838258
 ---------------------------------------------------------------------
                    Distance matrix (angstroms):
                    1          2          3          4          5
     1  C    0.000000
     2  C    1.533040   0.000000
     3  C    2.615512   1.540669   0.000000
     4  C    3.215430   2.582375   1.533722   0.000000
     5  C    3.185687   2.557883   1.546378   2.561758   0.000000
     6  C    3.264098   3.356919   2.651118   3.092822   1.558731
     7  O    4.621669   4.580772   3.514958   3.550225   2.398808
     8  C    5.112207   4.653422   3.317085   3.448068   2.237513
     9  C    6.528696   6.002055   4.566112   4.454093   3.646424
    10  C    7.407217   7.088073   5.709199   5.425675   4.746502
    11  C    8.739700   8.328111   6.885895   6.527643   6.005126
    12  O    9.650718   9.389337   7.995825   7.553839   7.080957
    13  C   11.003048  10.667569   9.229853   8.751277   8.366587
    14  C    9.189832   8.553856   7.046657   6.743117   6.293164
    15  C    8.412120   7.602256   6.086535   5.922253   5.434347
    16  N    7.105206   6.306530   4.805673   4.760477   4.103304
    17  N    4.598977   3.826932   2.470001   3.032244   1.471328
    18  H    1.095776   2.188760   2.862624   2.899353   3.533200
    19  H    1.096795   2.195796   2.966651   3.713102   2.969835
    20  H    1.095307   2.174545   3.543744   4.156281   4.188964
    21  H    2.157234   1.098976   2.161671   3.506468   2.773911
    22  H    2.152649   1.097102   2.139621   2.778831   3.479215
    23  H    3.516649   2.140593   1.096423   2.106678   2.110392
    24  H    4.255938   3.487708   2.149406   1.092482   2.849558
    25  H    3.089227   2.995904   2.212953   1.096800   2.827278
    26  H    3.397002   2.732199   2.164480   1.095437   3.502731
    27  H    3.357812   2.682627   2.162205   3.492175   1.095536
    28  H    3.575249   3.869109   3.462594   4.119573   2.227522
    29  H    2.765039   3.213561   2.743589   2.814829   2.238482
    30  H    7.233456   7.141217   5.887382   5.576283   4.860505
    31  H   11.177694  10.770187   9.293421   8.689174   8.590207
    32  H   11.600963  11.382811   9.988746   9.468905   9.093824
    33  H   11.414496  10.994150   9.547026   9.215821   8.606655
    34  H   10.248532   9.578183   8.059308   7.719247   7.348313
    35  H    8.973603   8.016848   6.514213   6.405135   5.999013
    36  Ni   6.167277   5.036768   3.639651   4.018371   3.279928
    37  F    7.382347   6.208731   5.016850   5.694565   4.429239
    38  F    5.767481   4.549676   3.180641   3.079377   3.609853
                    6          7          8          9         10
     6  C    0.000000
     7  O    1.467252   0.000000
     8  C    2.234763   1.340132   0.000000
     9  C    3.650005   2.442730   1.469099   0.000000
    10  C    4.359056   2.928506   2.516444   1.381798   0.000000
    11  C    5.745466   4.328544   3.775178   2.391414   1.405922
    12  O    6.599029   5.135894   4.850842   3.593007   2.334946
    13  C    7.982397   6.525760   6.130576   4.772514   3.650243
    14  C    6.370876   5.076460   4.193755   2.729870   2.414099
    15  C    5.822054   4.730767   3.590437   2.303416   2.742913
    16  N    4.557322   3.592097   2.350504   1.353659   2.408575
    17  N    2.356034   2.250095   1.279574   2.392512   3.663185
    18  H    3.346971   4.518573   5.121513   6.455308   7.216985
    19  H    2.721130   4.159426   4.806081   6.261623   7.056349
    20  H    4.300398   5.688494   6.188395   7.612535   8.497375
    21  H    3.746673   5.021177   4.996700   6.355834   7.504719
    22  H    4.334068   5.456244   5.440578   6.694705   7.807979
    23  H    3.510428   4.178228   3.637482   4.694875   5.967423
    24  H    3.467773   3.506238   3.080586   3.786503   4.790890
    25  H    2.759176   3.177880   3.470036   4.505054   5.251072
    26  H    4.091519   4.629655   4.525249   5.458812   6.422523
    27  H    2.196644   3.163679   2.983509   4.332831   5.448249
    28  H    1.092273   2.073391   2.916145   4.257681   4.844128
    29  H    1.087942   2.063774   2.993271   4.317390   4.904281
    30  H    4.125243   2.666504   2.781383   2.154553   1.083069
    31  H    8.311989   6.875733   6.390269   4.995360   4.016896
    32  H    8.556668   7.090475   6.865765   5.593044   4.349404
    33  H    8.333763   6.910274   6.390261   4.997782   4.017863
    34  H    7.452933   6.151343   5.272254   3.810811   3.412506
    35  H    6.597765   5.632562   4.403310   3.268941   3.827313
    36  Ni   4.395824   4.085008   2.802964   2.896481   4.244234
    37  F    5.560157   5.281285   4.018652   3.938882   5.143214
    38  F    4.763399   4.640757   3.595694   3.845401   5.099509
                   11         12         13         14         15
    11  C    0.000000
    12  O    1.345278   0.000000
    13  C    2.381462   1.427446   0.000000
    14  C    1.400524   2.437878   2.832678   0.000000
    15  C    2.403527   3.672390   4.224716   1.394715   0.000000
    16  N    2.792393   4.135144   5.025854   2.395682   1.331162
    17  N    4.781714   5.964505   7.162767   4.908391   3.983543
    18  H    8.530555   9.367029  10.712886   9.050414   8.369901
    19  H    8.432966   9.286198  10.672173   8.981482   8.282161
    20  H    9.833262  10.739053  12.095557  10.273593   9.468538
    21  H    8.734604   9.836551  11.105008   8.898397   7.879537
    22  H    8.984264  10.070051  11.303304   9.120984   8.117978
    23  H    7.010849   8.217409   9.359238   6.952935   5.838947
    24  H    5.752548   6.832487   7.946660   5.837434   4.989866
    25  H    6.429850   7.312284   8.572134   6.863601   6.236486
    26  H    7.456373   8.475631   9.623706   7.596824   6.739832
    27  H    6.678867   7.765091   9.034016   6.911218   5.996221
    28  H    6.230807   6.997974   8.394349   6.928940   6.444192
    29  H    6.283229   7.049493   8.441874   6.976806   6.489394
    30  H    2.166318   2.561830   3.987137   3.402413   3.825680
    31  H    2.706001   2.088153   1.095997   2.819174   4.154921
    32  H    3.248956   2.015460   1.089821   3.895540   5.278982
    33  H    2.708366   2.088083   1.096028   2.821881   4.158984
    34  H    2.177465   2.756369   2.569797   1.082127   2.143639
    35  H    3.398611   4.587074   4.913279   2.163749   1.085206
    36  Ni   4.859031   6.195188   7.097512   4.387903   3.084984
    37  F    5.539095   6.841757   7.582993   4.867273   3.579624
    38  F    5.724841   7.005425   7.893741   5.285500   4.068987
                   16         17         18         19         20
    16  N    0.000000
    17  N    2.654126   0.000000
    18  H    7.109879   4.807324   0.000000
    19  H    6.965903   4.415612   1.773490   0.000000
    20  H    8.158033   5.620379   1.766449   1.760053   0.000000
    21  H    6.577780   4.025226   3.081926   2.500299   2.515905
    22  H    6.873955   4.578811   2.557222   3.079618   2.445721
    23  H    4.619763   2.551788   3.850139   3.916950   4.307806
    24  H    3.918819   2.750789   3.967977   4.651953   5.219032
    25  H    5.091968   3.406835   2.493166   3.450697   4.068028
    26  H    5.645830   4.032958   2.998194   4.154017   4.135593
    27  H    4.685650   2.089835   3.992761   3.000039   4.197794
    28  H    5.210373   3.045460   3.835477   2.738320   4.475751
    29  H    5.256299   3.165887   2.548307   2.354796   3.794750
    30  H    3.385910   4.047438   6.983011   6.790883   8.305864
    31  H    5.074208   7.353503  10.835360  10.950576  12.271135
    32  H    5.996928   7.973852  11.263573  11.225764  12.684676
    33  H    5.080816   7.329997  11.219549  11.049019  12.504681
    34  H    3.356239   5.943546  10.096379  10.058375  11.330395
    35  H    2.053433   4.543139   8.983445   8.917834   9.996345
    36  Ni   2.077277   2.052215   6.385936   6.194702   7.109494
    37  F    2.988169   3.297778   7.785142   7.284237   8.246079
    38  F    3.194134   2.861064   5.807984   6.106572   6.651725
                   21         22         23         24         25
    21  H    0.000000
    22  H    1.753548   0.000000
    23  H    2.426281   2.418837   0.000000
    24  H    4.273768   3.669987   2.319837   0.000000
    25  H    3.985845   3.334155   3.053281   1.795352   0.000000
    26  H    3.717669   2.483982   2.506442   1.762524   1.765034
    27  H    2.447564   3.666520   2.479915   3.831141   3.818058
    28  H    4.030165   4.930034   4.278387   4.539477   3.772665
    29  H    3.848030   4.078880   3.772524   3.405644   2.165123
    30  H    7.598900   7.920185   6.326630   5.110503   5.196901
    31  H   11.264073  11.314008   9.361887   7.810595   8.563681
    32  H   11.848835  12.044304  10.200687   8.720574   9.187062
    33  H   11.335881  11.657485   9.593562   8.393441   9.125555
    34  H    9.916327  10.108292   7.907599   6.770547   7.862731
    35  H    8.233579   8.444172   6.092148   5.429334   6.864945
    36  Ni   5.132364   5.482586   3.068976   3.322309   4.728000
    37  F    6.011841   6.706814   4.354832   5.098945   6.403163
    38  F    4.910237   4.659453   2.490632   2.261603   3.990133
                   26         27         28         29         30
    26  H    0.000000
    27  H    4.306633   0.000000
    28  H    5.070669   2.374265   0.000000
    29  H    3.682409   2.964766   1.784226   0.000000
    30  H    6.591764   5.569722   4.495608   4.561891   0.000000
    31  H    9.477669   9.326389   8.844107   8.708146   4.479303
    32  H   10.345569   9.770687   8.909071   8.955752   4.448261
    33  H   10.116488   9.171139   8.680618   8.908721   4.477348
    34  H    8.524897   7.947594   8.002821   8.048701   4.324194
    35  H    7.124096   6.484331   7.237286   7.279072   4.909679
    36  Ni   4.745525   3.638677   5.078201   5.110315   5.032457
    37  F    6.404006   4.379097   5.974992   6.445865   5.981964
    38  F    3.472804   4.218475   5.675878   5.129293   5.802862
                   31         32         33         34         35
    31  H    0.000000
    32  H    1.787022   0.000000
    33  H    1.793324   1.787028   0.000000
    34  H    2.363172   3.653202   2.363274   0.000000
    35  H    4.715794   5.998405   4.717759   2.483818   0.000000
    36  Ni   7.094292   8.074185   7.102847   5.228427   3.163776
    37  F    7.684710   8.589700   7.323686   5.532016   3.354892
    38  F    7.686886   8.845244   8.089800   6.073210   4.079417
                   36         37         38
    36  Ni   0.000000
    37  F    1.809312   0.000000
    38  F    1.837630   3.427293   0.000000
 Stoichiometry    C13H18F2N2NiO2(3)
 Framework group  C1[X(C13H18F2N2NiO2)]
 Deg. of freedom   108
 Full point group                 C1      NOp   1
 Largest Abelian subgroup         C1      NOp   1
 Largest concise Abelian subgroup C1      NOp   1
                         Standard orientation:                         
 ---------------------------------------------------------------------
 Center     Atomic      Atomic             Coordinates (Angstroms)
 Number     Number       Type             X           Y           Z
 ---------------------------------------------------------------------
      1          6           0        5.073897   -1.964777    0.017734
      2          6           0        4.708197   -0.482710    0.158984
      3          6           0        3.225791   -0.159831    0.427095
      4          6           0        2.698222   -0.686602    1.767426
      5          6           0        2.323735   -0.559540   -0.763625
      6          6           0        1.941891   -2.064972   -0.895956
      7          8           0        0.499993   -2.111948   -0.628461
      8          6           0        0.117037   -0.832802   -0.514082
      9          6           0       -1.281700   -0.490866   -0.222764
     10          6           0       -2.309870   -1.413424   -0.189280
     11          6           0       -3.606486   -0.951353    0.096891
     12          8           0       -4.575938   -1.883769    0.120045
     13          6           0       -5.911053   -1.466649    0.404795
     14          6           0       -3.796548    0.416733    0.328592
     15          6           0       -2.689897    1.263666    0.271527
     16          7           0       -1.458301    0.830629    0.011444
     17          7           0        1.005820    0.080554   -0.628769
     18          1           0        4.736393   -2.548614    0.881418
     19          1           0        4.640566   -2.413628   -0.884329
     20          1           0        6.159716   -2.087340   -0.057583
     21          1           0        5.029251    0.052378   -0.745646
     22          1           0        5.288578   -0.053885    0.985362
     23          1           0        3.135448    0.931015    0.490618
     24          1           0        1.764538   -0.170758    2.003346
     25          1           0        2.544409   -1.772482    1.780697
     26          1           0        3.412044   -0.449953    2.563942
     27          1           0        2.784859   -0.198100   -1.689328
     28          1           0        2.098702   -2.461110   -1.901712
     29          1           0        2.418659   -2.714340   -0.164771
     30          1           0       -2.131330   -2.464614   -0.379441
     31          1           0       -5.977053   -1.013109    1.400363
     32          1           0       -6.514383   -2.373706    0.373960
     33          1           0       -6.270692   -0.758307   -0.350313
     34          1           0       -4.771322    0.832105    0.548320
     35          1           0       -2.793509    2.330719    0.439859
     36         28           0        0.297389    1.934550   -0.106840
     37          9           0       -0.123683    3.067064   -1.453585
     38          9           0        1.116338    1.945442    1.538179
 ---------------------------------------------------------------------
 Rotational constants (GHZ):           0.4815949           0.1832882           0.1474369
 Basis read from rwf:  (6D, 7F)
 Pseudo-potential data read from rwf file.
 There are   398 symmetry adapted cartesian basis functions of A   symmetry.
 There are   395 symmetry adapted basis functions of A   symmetry.
   395 basis functions,   758 primitive gaussians,   398 cartesian basis functions
    82 alpha electrons       80 beta electrons
       nuclear repulsion energy      1878.2946171296 Hartrees.
 NAtoms=   38 NActive=   38 NUniq=   38 SFac= 1.00D+00 NAtFMM=   60 NAOKFM=F Big=F
 Integral buffers will be    131072 words long.
 Raffenetti 2 integral format.
 Two-electron integral symmetry is turned on.
 Nuclear repulsion after empirical dispersion term =     1878.2147232524 Hartrees.
 One-electron integrals computed using PRISM.
 PrsmSu:  requested number of processors reduced to:  12 ShMem   1 Linda.
   1 Symmetry operations used in ECPInt.
 ECPInt:  NShTT=    8911 NPrTT=   52776 LenC2=    7762 LenP2D=   27090.
 LDataN:  DoStor=T MaxTD1= 6 Len=  172
 NBasis=   395 RedAO= T EigKep=  1.12D-06  NBF=   395
 NBsUse=   395 1.00D-06 EigRej= -1.00D+00 NBFU=   395
 Initial guess from the checkpoint file:  "Lig2214_xyz_3.chk"
 B after Tr=     0.000000   -0.000000    0.000000
         Rot=    0.999999    0.001294   -0.000774   -0.000302 Ang=   0.18 deg.
 Initial guess <Sx>= 0.0000 <Sy>= 0.0000 <Sz>= 1.0000 <S**2>= 2.0064 S= 1.0021
 ExpMin= 2.40D-02 ExpMax= 7.14D+04 ExpMxC= 1.07D+04 IAcc=3 IRadAn=         5 AccDes= 0.00D+00
 Harris functional with IExCor=  402 and IRadAn=       5 diagonalized for initial guess.
 HarFok:  IExCor=  402 AccDes= 0.00D+00 IRadAn=         5 IDoV= 1 UseB2=F ITyADJ=14
 ICtDFT=  3500011 ScaDFX=  1.000000  1.000000  1.000000  1.000000
 FoFCou: FMM=F IPFlag=           0 FMFlag=      100000 FMFlg1=           0
         NFxFlg=           0 DoJE=T BraDBF=F KetDBF=T FulRan=T
         wScrn=  0.000000 ICntrl=       500 IOpCl=  0 I1Cent=   200000004 NGrid=           0
         NMat0=    1 NMatS0=      1 NMatT0=    0 NMatD0=    1 NMtDS0=    0 NMtDT0=    0
 Petite list used in FoFCou.
 Requested convergence on RMS density matrix=1.00D-08 within  32 cycles.
 Requested convergence on MAX density matrix=1.00D-06.
 Requested convergence on             energy=1.00D-06.
 No special actions if energy rises.
 Restarting incremental Fock formation.
 SCF Done:  E(UB3LYP) =  -1135.38320426     A.U. after   29 cycles
            NFock= 29  Conv=0.42D-08     -V/T= 2.0665
 <Sx>= 0.0000 <Sy>= 0.0000 <Sz>= 1.0000 <S**2>= 2.0064 S= 1.0021
 <L.S>=  0.00000000000    
 Annihilation of the first spin contaminant:
 S**2 before annihilation     2.0064,   after     2.0000
 QCSCF skips out because SCF is already converged.
 PrsmSu:  requested number of processors reduced to:  13 ShMem   1 Linda.
   1 Symmetry operations used in ECPInt.
 ECPInt:  NShTT=    8911 NPrTT=   52776 LenC2=    7762 LenP2D=   27090.
 LDataN:  DoStor=T MaxTD1= 7 Len=  274
 Calling FoFJK, ICntrl=      2127 FMM=F ISym2X=0 I1Cent= 0 IOpClX= 1 NMat=1 NMatS=1 NMatT=0.
 ***** Axes restored to original set *****
 -------------------------------------------------------------------
 Center     Atomic                   Forces (Hartrees/Bohr)
 Number     Number              X              Y              Z
 -------------------------------------------------------------------
      1        6           0.000036713    0.000034838   -0.000048652
      2        6           0.000009287   -0.000126276    0.000008257
      3        6           0.000081182    0.000042676   -0.000096416
      4        6           0.000008993    0.000047770    0.000222446
      5        6          -0.000157309   -0.000215750    0.000195420
      6        6           0.000302621   -0.000125438   -0.000187270
      7        8          -0.000293529    0.000145207   -0.000151213
      8        6           0.000336388   -0.000366421    0.000215433
      9        6          -0.000324710   -0.000027073    0.000140266
     10        6           0.000048722    0.000010694    0.000005018
     11        6          -0.000051413   -0.000014668    0.000052752
     12        8           0.000115890   -0.000060561   -0.000078194
     13        6          -0.000157912    0.000052340    0.000073629
     14        6           0.000001732    0.000127076   -0.000054446
     15        6           0.000051403   -0.000377776    0.000356511
     16        7           0.000406154    0.000287980   -0.000506197
     17        7          -0.000052913    0.000402066   -0.000241366
     18        1           0.000017480   -0.000031249   -0.000002994
     19        1          -0.000031035   -0.000027284    0.000004798
     20        1          -0.000014110    0.000010665   -0.000006890
     21        1          -0.000004685    0.000008370    0.000017940
     22        1           0.000001531   -0.000011448   -0.000003158
     23        1           0.000023711   -0.000021215   -0.000029472
     24        1          -0.000100645    0.000008326   -0.000071455
     25        1           0.000012934   -0.000042423    0.000047241
     26        1           0.000088845    0.000066685   -0.000006360
     27        1          -0.000087912   -0.000004040   -0.000126559
     28        1           0.000056457    0.000081999    0.000042794
     29        1          -0.000069801   -0.000032421    0.000011798
     30        1          -0.000033625    0.000031233   -0.000014652
     31        1           0.000023219   -0.000006064   -0.000015987
     32        1           0.000020288    0.000000047   -0.000002478
     33        1           0.000025568   -0.000001481   -0.000009540
     34        1          -0.000007117    0.000016035    0.000017277
     35        1          -0.000031114    0.000037906   -0.000039117
     36       28          -0.000243043   -0.000009013    0.000290797
     37        9           0.000059590   -0.000129634   -0.000150152
     38        9          -0.000067836    0.000218320    0.000140190
 -------------------------------------------------------------------
 Cartesian Forces:  Max     0.000506197 RMS     0.000142711

 GradGradGradGradGradGradGradGradGradGradGradGradGradGradGradGradGradGrad
 Berny optimization.
 Using GEDIIS/GDIIS optimizer.
 FormGI is forming the generalized inverse of G from B-inverse, IUseBI=4.
 Internal  Forces:  Max     0.000424152 RMS     0.000079418
 Search for a local minimum.
 Step number  16 out of a maximum of  228
 All quantities printed in internal units (Hartrees-Bohrs-Radians)
 Mixed Optimization -- En-DIIS/RFO-DIIS
 Swapping is turned off.
 Update second derivatives using D2CorX and points    7    8    9   10   11
                                                     12   13   14   15   16
 DE= -1.86D-05 DEPred=-1.06D-05 R= 1.76D+00
 TightC=F SS=  1.41D+00  RLast= 8.44D-02 DXNew= 1.7643D+00 2.5316D-01
 Trust test= 1.76D+00 RLast= 8.44D-02 DXMaxT set to 1.05D+00
 ITU=  1  1  1  1  1  1  1  1  0  1  0  1  1  1  1  0
     Eigenvalues ---    0.00123   0.00209   0.00235   0.00264   0.01027
     Eigenvalues ---    0.01373   0.01447   0.01803   0.01971   0.01978
     Eigenvalues ---    0.02021   0.02037   0.02116   0.02124   0.02187
     Eigenvalues ---    0.02211   0.02376   0.02568   0.03077   0.03118
     Eigenvalues ---    0.03309   0.03721   0.04069   0.04166   0.04710
     Eigenvalues ---    0.04865   0.04982   0.05192   0.05235   0.05320
     Eigenvalues ---    0.05467   0.05558   0.05902   0.05926   0.06865
     Eigenvalues ---    0.07521   0.09031   0.10129   0.10695   0.10953
     Eigenvalues ---    0.11543   0.11760   0.12690   0.14191   0.15867
     Eigenvalues ---    0.15985   0.15995   0.16000   0.16004   0.16007
     Eigenvalues ---    0.16012   0.16028   0.16048   0.16077   0.16415
     Eigenvalues ---    0.16484   0.17591   0.18415   0.19172   0.19514
     Eigenvalues ---    0.20138   0.20753   0.21859   0.22701   0.23573
     Eigenvalues ---    0.24450   0.24523   0.25008   0.25113   0.25708
     Eigenvalues ---    0.26203   0.26985   0.28046   0.28671   0.29333
     Eigenvalues ---    0.30222   0.32308   0.34509   0.34575   0.34614
     Eigenvalues ---    0.34640   0.34646   0.34679   0.34720   0.34742
     Eigenvalues ---    0.34784   0.34796   0.34825   0.34844   0.34936
     Eigenvalues ---    0.35075   0.35478   0.35745   0.36082   0.36249
     Eigenvalues ---    0.37318   0.39565   0.41007   0.41780   0.42338
     Eigenvalues ---    0.42946   0.45020   0.46578   0.49232   0.49528
     Eigenvalues ---    0.51526   0.54868   0.67070
 En-DIIS/RFO-DIIS/Sim-DIIS IScMMF=       -3 using points:    16   15   14   13   12   11   10    9    8
 RFO step:  Lambda=-1.88920501D-05.
 DIIS inversion failure, remove point   9.
 DIIS inversion failure, remove point   8.
 DIIS inversion failure, remove point   7.
 DIIS inversion failure, remove point   6.
 DIIS inversion failure, remove point   5.
 RFO-DIIS uses    4 points instead of    9
 DidBck=T Rises=F RFO-DIIS coefs:    0.68194    1.97741   -1.92521    0.26587    0.00000
                  RFO-DIIS coefs:    0.00000    0.00000    0.00000    0.00000
 Iteration  1 RMS(Cart)=  0.00835959 RMS(Int)=  0.00003410
 Iteration  2 RMS(Cart)=  0.00003469 RMS(Int)=  0.00001915
 Iteration  3 RMS(Cart)=  0.00000000 RMS(Int)=  0.00001915
 Variable       Old X    -DE/DX   Delta X   Delta X   Delta X     New X
                                 (Linear)    (Quad)   (Total)
    R1        2.89703  -0.00003   0.00011  -0.00007   0.00005   2.89707
    R2        2.07072   0.00002  -0.00001   0.00001  -0.00000   2.07071
    R3        2.07264   0.00001  -0.00005   0.00009   0.00004   2.07268
    R4        2.06983   0.00002  -0.00001   0.00003   0.00002   2.06985
    R5        2.91144  -0.00008   0.00013  -0.00019  -0.00005   2.91139
    R6        2.07676   0.00002   0.00001   0.00003   0.00004   2.07681
    R7        2.07322  -0.00000  -0.00001   0.00004   0.00002   2.07325
    R8        2.89832  -0.00017  -0.00012  -0.00019  -0.00031   2.89800
    R9        2.92223  -0.00012  -0.00023   0.00008  -0.00015   2.92208
   R10        2.07194   0.00001  -0.00023  -0.00004  -0.00027   2.07167
   R11        2.06449  -0.00008  -0.00013  -0.00005  -0.00018   2.06431
   R12        2.07265   0.00005   0.00002  -0.00003  -0.00000   2.07265
   R13        2.07008  -0.00003   0.00004  -0.00000   0.00003   2.07011
   R14        2.94558  -0.00018   0.00075  -0.00016   0.00056   2.94613
   R15        2.78041  -0.00001  -0.00017   0.00012  -0.00005   2.78036
   R16        2.07026  -0.00007   0.00023  -0.00002   0.00020   2.07047
   R17        2.77270  -0.00025   0.00108  -0.00004   0.00103   2.77373
   R18        2.06410   0.00005  -0.00031   0.00007  -0.00024   2.06386
   R19        2.05591   0.00006  -0.00004   0.00005   0.00001   2.05592
   R20        2.53248   0.00001  -0.00021   0.00002  -0.00016   2.53232
   R21        2.77619  -0.00021   0.00029  -0.00025   0.00006   2.77625
   R22        2.41804   0.00020  -0.00014   0.00020   0.00010   2.41814
   R23        2.61122  -0.00005   0.00009   0.00002   0.00011   2.61133
   R24        2.55804   0.00031  -0.00032   0.00029  -0.00003   2.55801
   R25        2.65681  -0.00005  -0.00013  -0.00010  -0.00023   2.65658
   R26        2.04670  -0.00000  -0.00001   0.00001   0.00000   2.04671
   R27        2.54221   0.00002   0.00025  -0.00005   0.00020   2.54241
   R28        2.64661   0.00002   0.00004  -0.00001   0.00004   2.64664
   R29        2.69748  -0.00011   0.00005  -0.00019  -0.00014   2.69735
   R30        2.07113   0.00002  -0.00001   0.00005   0.00004   2.07117
   R31        2.05946   0.00000   0.00003   0.00003   0.00006   2.05952
   R32        2.07119   0.00001  -0.00000   0.00005   0.00004   2.07124
   R33        2.63563  -0.00009  -0.00004  -0.00013  -0.00018   2.63545
   R34        2.04492  -0.00001  -0.00001   0.00001  -0.00000   2.04492
   R35        2.51553   0.00007   0.00012   0.00010   0.00022   2.51575
   R36        2.05074   0.00002  -0.00007   0.00003  -0.00004   2.05070
   R37        3.92548   0.00017   0.00084   0.00070   0.00153   3.92701
   R38        3.87812  -0.00014   0.00200  -0.00017   0.00183   3.87995
   R39        3.41910  -0.00012  -0.00025  -0.00036  -0.00061   3.41850
   R40        3.47262  -0.00011   0.00049  -0.00005   0.00043   3.47305
    A1        1.94873  -0.00001   0.00022   0.00001   0.00022   1.94895
    A2        1.95753   0.00005  -0.00019   0.00015  -0.00004   1.95749
    A3        1.92943  -0.00001   0.00000  -0.00013  -0.00013   1.92929
    A4        1.88443  -0.00002  -0.00001  -0.00007  -0.00008   1.88436
    A5        1.87540   0.00002   0.00002  -0.00001   0.00001   1.87541
    A6        1.86431  -0.00001  -0.00004   0.00006   0.00001   1.86432
    A7        2.03550   0.00002   0.00023  -0.00004   0.00019   2.03570
    A8        1.90199  -0.00000  -0.00018  -0.00008  -0.00026   1.90174
    A9        1.89767  -0.00001  -0.00019   0.00004  -0.00015   1.89752
   A10        1.89895   0.00000   0.00000  -0.00002  -0.00002   1.89893
   A11        1.87131  -0.00001   0.00014   0.00006   0.00019   1.87150
   A12        1.84957   0.00001  -0.00002   0.00006   0.00004   1.84961
   A13        1.99443  -0.00005   0.00034  -0.00050  -0.00016   1.99427
   A14        1.95315   0.00009  -0.00009  -0.00021  -0.00031   1.95285
   A15        1.87326   0.00001   0.00054   0.00051   0.00106   1.87431
   A16        1.96436  -0.00009   0.00024  -0.00013   0.00010   1.96446
   A17        1.83665   0.00004  -0.00062  -0.00003  -0.00065   1.83600
   A18        1.82731   0.00001  -0.00051   0.00052   0.00002   1.82733
   A19        1.89708   0.00010  -0.00002   0.00035   0.00034   1.89742
   A20        1.98106  -0.00002   0.00035   0.00018   0.00053   1.98159
   A21        1.91462  -0.00008  -0.00036  -0.00022  -0.00058   1.91405
   A22        1.92304  -0.00003   0.00003  -0.00009  -0.00007   1.92298
   A23        1.87328  -0.00006  -0.00025  -0.00042  -0.00066   1.87261
   A24        1.87179   0.00007   0.00020   0.00015   0.00035   1.87214
   A25        2.04644  -0.00007  -0.00064  -0.00042  -0.00104   2.04540
   A26        1.91717  -0.00006   0.00152   0.00001   0.00156   1.91873
   A27        1.89634   0.00002  -0.00004  -0.00003  -0.00008   1.89626
   A28        1.78086   0.00005   0.00066  -0.00004   0.00056   1.78142
   A29        1.92838   0.00004  -0.00053   0.00023  -0.00029   1.92810
   A30        1.88698   0.00002  -0.00096   0.00030  -0.00064   1.88634
   A31        1.82987   0.00007   0.00029  -0.00007   0.00012   1.82999
   A32        1.97499  -0.00010   0.00134   0.00005   0.00141   1.97640
   A33        1.99551   0.00002  -0.00095  -0.00019  -0.00112   1.99439
   A34        1.87270   0.00003  -0.00028   0.00012  -0.00013   1.87257
   A35        1.86400  -0.00006  -0.00068   0.00020  -0.00045   1.86355
   A36        1.91714   0.00003   0.00018  -0.00007   0.00010   1.91724
   A37        1.83985   0.00005  -0.00004   0.00001  -0.00009   1.83976
   A38        2.10733   0.00005  -0.00028   0.00003  -0.00024   2.10708
   A39        2.06596  -0.00009   0.00078  -0.00011   0.00065   2.06661
   A40        2.10943   0.00004  -0.00043   0.00008  -0.00034   2.10909
   A41        2.16259  -0.00015   0.00024  -0.00039  -0.00015   2.16244
   A42        1.96681   0.00010  -0.00010   0.00025   0.00015   1.96696
   A43        2.15378   0.00005  -0.00013   0.00014   0.00000   2.15379
   A44        2.06205   0.00004  -0.00018   0.00005  -0.00013   2.06192
   A45        2.11892  -0.00007   0.00035  -0.00019   0.00016   2.11908
   A46        2.10221   0.00003  -0.00017   0.00014  -0.00003   2.10218
   A47        2.02674   0.00001  -0.00021   0.00008  -0.00014   2.02661
   A48        2.07131  -0.00003   0.00031  -0.00006   0.00024   2.07156
   A49        2.18512   0.00002  -0.00009  -0.00002  -0.00011   2.18501
   A50        2.06567   0.00007   0.00008   0.00002   0.00010   2.06577
   A51        1.93740   0.00002   0.00003   0.00006   0.00008   1.93749
   A52        1.84309   0.00002  -0.00010   0.00004  -0.00006   1.84303
   A53        1.93727   0.00002  -0.00002   0.00006   0.00005   1.93732
   A54        1.91429  -0.00001  -0.00003  -0.00003  -0.00005   1.91424
   A55        1.91624  -0.00003   0.00011  -0.00008   0.00003   1.91628
   A56        1.91426  -0.00002  -0.00001  -0.00005  -0.00005   1.91421
   A57        2.07001   0.00003  -0.00012  -0.00000  -0.00012   2.06989
   A58        2.13034  -0.00002  -0.00015  -0.00002  -0.00017   2.13017
   A59        2.08284  -0.00002   0.00026   0.00002   0.00028   2.08313
   A60        2.14667   0.00012  -0.00029   0.00029  -0.00000   2.14666
   A61        2.11179  -0.00001   0.00038   0.00002   0.00041   2.11219
   A62        2.02473  -0.00011  -0.00009  -0.00031  -0.00040   2.02433
   A63        2.06245  -0.00022   0.00041  -0.00042  -0.00000   2.06245
   A64        1.98088  -0.00021   0.00091  -0.00037   0.00053   1.98141
   A65        2.23982   0.00042  -0.00131   0.00077  -0.00053   2.23929
   A66        1.89637  -0.00008   0.00027  -0.00013   0.00006   1.89643
   A67        2.38262   0.00012   0.00091   0.00032   0.00121   2.38383
   A68        1.96306  -0.00003   0.00072   0.00008   0.00076   1.96382
   A69        1.39605   0.00011  -0.00103   0.00011  -0.00089   1.39517
   A70        1.75008  -0.00008  -0.00495  -0.00143  -0.00626   1.74382
   A71        1.90587   0.00018   0.00893   0.00490   0.01381   1.91968
   A72        2.04487   0.00017   0.00683   0.00350   0.01031   2.05518
   A73        1.65006  -0.00012  -0.00458  -0.00152  -0.00599   1.64407
   A74        2.44390  -0.00012  -0.00322  -0.00331  -0.00652   2.43738
    D1       -0.94418   0.00002   0.00074  -0.00134  -0.00060  -0.94477
    D2       -3.10170   0.00000   0.00072  -0.00122  -0.00050  -3.10220
    D3        1.17301   0.00000   0.00094  -0.00126  -0.00032   1.17269
    D4        1.17358   0.00001   0.00075  -0.00132  -0.00056   1.17302
    D5       -0.98394  -0.00000   0.00073  -0.00119  -0.00046  -0.98441
    D6       -2.99242  -0.00000   0.00095  -0.00124  -0.00029  -2.99271
    D7       -3.03100   0.00002   0.00058  -0.00124  -0.00066  -3.03166
    D8        1.09466  -0.00000   0.00055  -0.00111  -0.00056   1.09410
    D9       -0.91381  -0.00000   0.00077  -0.00116  -0.00039  -0.91420
   D10        1.12185  -0.00006  -0.00008   0.00070   0.00063   1.12248
   D11       -1.13663   0.00004  -0.00063   0.00153   0.00090  -1.13573
   D12       -3.13201  -0.00003  -0.00029   0.00072   0.00043  -3.13159
   D13       -3.00224  -0.00004  -0.00015   0.00055   0.00040  -3.00184
   D14        1.02246   0.00005  -0.00070   0.00138   0.00068   1.02314
   D15       -0.97292  -0.00002  -0.00036   0.00056   0.00021  -0.97272
   D16       -1.00918  -0.00004  -0.00010   0.00064   0.00054  -1.00864
   D17        3.01553   0.00006  -0.00065   0.00146   0.00082   3.01634
   D18        1.02015  -0.00001  -0.00031   0.00065   0.00034   1.02049
   D19        2.85017  -0.00003   0.00543   0.00039   0.00582   2.85599
   D20       -1.28659   0.00000   0.00569   0.00065   0.00635  -1.28024
   D21        0.80680   0.00003   0.00594   0.00081   0.00674   0.81354
   D22       -1.18014  -0.00003   0.00582  -0.00049   0.00534  -1.17480
   D23        0.96629  -0.00000   0.00608  -0.00022   0.00586   0.97215
   D24        3.05967   0.00002   0.00633  -0.00007   0.00626   3.06593
   D25        0.79976  -0.00004   0.00498   0.00005   0.00503   0.80479
   D26        2.94618  -0.00001   0.00524   0.00031   0.00556   2.95174
   D27       -1.24362   0.00002   0.00549   0.00047   0.00596  -1.23766
   D28        1.38505  -0.00003  -0.00339   0.00147  -0.00190   1.38315
   D29       -2.87699  -0.00005  -0.00181   0.00115  -0.00068  -2.87768
   D30       -0.81608  -0.00004  -0.00211   0.00150  -0.00061  -0.81669
   D31       -0.88903   0.00005  -0.00399   0.00247  -0.00150  -0.89052
   D32        1.13211   0.00002  -0.00241   0.00215  -0.00028   1.13183
   D33       -3.09016   0.00003  -0.00271   0.00251  -0.00021  -3.09036
   D34       -2.87464   0.00004  -0.00308   0.00227  -0.00079  -2.87543
   D35       -0.85350   0.00001  -0.00151   0.00196   0.00043  -0.85307
   D36        1.20742   0.00002  -0.00181   0.00231   0.00050   1.20792
   D37        1.95719  -0.00008   0.01237  -0.00231   0.01006   1.96725
   D38       -2.29075  -0.00005   0.01289  -0.00219   0.01070  -2.28005
   D39       -0.07814  -0.00007   0.01351  -0.00241   0.01111  -0.06702
   D40       -0.13752  -0.00001   0.01035  -0.00207   0.00827  -0.12925
   D41        1.89772   0.00002   0.01087  -0.00194   0.00891   1.90663
   D42       -2.17285   0.00000   0.01149  -0.00217   0.00933  -2.16353
   D43       -2.14073  -0.00008   0.01132  -0.00249   0.00884  -2.13190
   D44       -0.10549  -0.00004   0.01184  -0.00236   0.00947  -0.09602
   D45        2.10712  -0.00006   0.01246  -0.00259   0.00989   2.11701
   D46       -2.05149   0.00008  -0.00841   0.00208  -0.00634  -2.05782
   D47        0.74850   0.00007  -0.00111   0.00313   0.00202   0.75052
   D48        0.13157  -0.00001  -0.00800   0.00157  -0.00643   0.12513
   D49        2.93155  -0.00001  -0.00070   0.00261   0.00192   2.93348
   D50        2.16499   0.00007  -0.00867   0.00193  -0.00675   2.15824
   D51       -1.31821   0.00006  -0.00137   0.00298   0.00161  -1.31660
   D52        0.09999   0.00001  -0.00932   0.00189  -0.00743   0.09256
   D53       -2.00444   0.00007  -0.01089   0.00181  -0.00906  -2.01350
   D54        2.22385   0.00004  -0.01061   0.00173  -0.00888   2.21497
   D55       -3.12694   0.00000   0.00263  -0.00114   0.00149  -3.12546
   D56       -0.01791  -0.00001   0.00478  -0.00101   0.00377  -0.01414
   D57       -0.12541  -0.00001   0.00308  -0.00003   0.00305  -0.12235
   D58        3.01564  -0.00003   0.00412   0.00048   0.00460   3.02023
   D59        3.04956  -0.00000   0.00085  -0.00016   0.00069   3.05025
   D60       -0.09258  -0.00002   0.00190   0.00035   0.00224  -0.09034
   D61       -0.07972   0.00001   0.00247  -0.00043   0.00203  -0.07768
   D62       -2.96915  -0.00002  -0.00300  -0.00126  -0.00427  -2.97342
   D63        3.02927   0.00000   0.00461  -0.00030   0.00432   3.03360
   D64        0.13983  -0.00003  -0.00085  -0.00113  -0.00198   0.13786
   D65       -3.13671  -0.00002   0.00108   0.00072   0.00179  -3.13493
   D66        0.00219  -0.00002   0.00079   0.00043   0.00121   0.00340
   D67        0.00549   0.00000  -0.00007   0.00015   0.00008   0.00557
   D68       -3.13880   0.00000  -0.00036  -0.00014  -0.00050  -3.13929
   D69        3.12764   0.00003  -0.00133  -0.00069  -0.00201   3.12563
   D70       -0.00542   0.00006  -0.00185   0.00063  -0.00122  -0.00664
   D71       -0.01450   0.00001  -0.00030  -0.00018  -0.00047  -0.01498
   D72        3.13563   0.00004  -0.00082   0.00114   0.00032   3.13594
   D73       -3.14081  -0.00001   0.00006  -0.00033  -0.00027  -3.14108
   D74        0.00428  -0.00001   0.00027  -0.00008   0.00019   0.00448
   D75        0.00345  -0.00001   0.00034  -0.00004   0.00030   0.00375
   D76       -3.13464  -0.00001   0.00055   0.00021   0.00076  -3.13388
   D77       -3.14069   0.00002  -0.00047   0.00092   0.00045  -3.14025
   D78       -0.00286   0.00002  -0.00069   0.00064  -0.00005  -0.00291
   D79       -0.00482   0.00000  -0.00011   0.00004  -0.00007  -0.00489
   D80        3.13592  -0.00000  -0.00039  -0.00015  -0.00053   3.13539
   D81        3.14062   0.00000   0.00012   0.00032   0.00044   3.14106
   D82       -0.00183   0.00000  -0.00015   0.00013  -0.00002  -0.00185
   D83       -1.06503  -0.00001   0.00085  -0.00053   0.00033  -1.06471
   D84       -3.13850  -0.00001   0.00093  -0.00055   0.00038  -3.13812
   D85        1.07133  -0.00002   0.00101  -0.00055   0.00046   1.07178
   D86       -0.00446   0.00001  -0.00027  -0.00008  -0.00034  -0.00480
   D87        3.13626   0.00000  -0.00079  -0.00019  -0.00098   3.13528
   D88        3.13797   0.00001  -0.00000   0.00011   0.00011   3.13807
   D89       -0.00450   0.00001  -0.00052  -0.00001  -0.00054  -0.00503
   D90        0.01388  -0.00002   0.00047   0.00014   0.00061   0.01449
   D91       -3.13769  -0.00006   0.00109  -0.00141  -0.00031  -3.13800
   D92       -3.12688  -0.00001   0.00097   0.00025   0.00122  -3.12567
   D93        0.00473  -0.00005   0.00159  -0.00130   0.00030   0.00503
   D94        0.05667  -0.00006   0.00115  -0.00093   0.00022   0.05689
   D95        2.08209   0.00014   0.00851   0.00281   0.01134   2.09343
   D96       -1.53780   0.00006   0.00778   0.00149   0.00932  -1.52848
   D97       -3.07533  -0.00002   0.00056   0.00056   0.00111  -3.07423
   D98       -1.04991   0.00018   0.00792   0.00431   0.01223  -1.03768
   D99        1.61338   0.00010   0.00718   0.00298   0.01021   1.62359
   D100      -2.89518   0.00006  -0.00760   0.00005  -0.00757  -2.90275
   D101       1.70402   0.00012  -0.00083   0.00202   0.00123   1.70524
   D102      -0.99765   0.00027   0.00214   0.00527   0.00741  -0.99025
   D103      -0.10423   0.00005  -0.00017   0.00109   0.00092  -0.10330
   D104      -1.78821   0.00011   0.00660   0.00307   0.00972  -1.77849
   D105       1.79331   0.00025   0.00957   0.00632   0.01590   1.80921
         Item               Value     Threshold  Converged?
 Maximum Force            0.000424     0.000450     YES
 RMS     Force            0.000079     0.000300     YES
 Maximum Displacement     0.031007     0.001800     NO 
 RMS     Displacement     0.008357     0.001200     NO 
 Predicted change in Energy=-7.776910D-06
 GradGradGradGradGradGradGradGradGradGradGradGradGradGradGradGradGradGrad

                          Input orientation:                          
 ---------------------------------------------------------------------
 Center     Atomic      Atomic             Coordinates (Angstroms)
 Number     Number       Type             X           Y           Z
 ---------------------------------------------------------------------
      1          6           0       -6.041872    1.504465   -2.467919
      2          6           0       -4.921839    2.291503   -3.158126
      3          6           0       -3.564156    1.577850   -3.302931
      4          6           0       -3.598227    0.334654   -4.200203
      5          6           0       -2.909287    1.300554   -1.929873
      6          6           0       -3.437878    0.075934   -1.122743
      7          8           0       -2.319482   -0.874501   -1.105697
      8          6           0       -1.296770   -0.231384   -1.685516
      9          6           0        0.002694   -0.893460   -1.862676
     10          6           0        0.313370   -2.133956   -1.339057
     11          6           0        1.598927   -2.650837   -1.576648
     12          8           0        1.857463   -3.861108   -1.048955
     13          6           0        3.149212   -4.430694   -1.259554
     14          6           0        2.503264   -1.886534   -2.324669
     15          6           0        2.088544   -0.645905   -2.808215
     16          7           0        0.869084   -0.155852   -2.595917
     17          7           0       -1.489438    0.959989   -2.110901
     18          1           0       -6.204911    0.531024   -2.943896
     19          1           0       -5.831263    1.330606   -1.405649
     20          1           0       -6.986490    2.056697   -2.517469
     21          1           0       -4.768668    3.238839   -2.622503
     22          1           0       -5.254203    2.565468   -4.167154
     23          1           0       -2.879768    2.273788   -3.802047
     24          1           0       -2.574184    0.074392   -4.477515
     25          1           0       -4.095191   -0.526379   -3.736939
     26          1           0       -4.138264    0.562599   -5.125634
     27          1           0       -2.965820    2.211900   -1.324327
     28          1           0       -3.676633    0.314908   -0.084151
     29          1           0       -4.278191   -0.436325   -1.586521
     30          1           0       -0.406122   -2.697792   -0.758141
     31          1           0        3.344665   -4.577116   -2.328016
     32          1           0        3.129657   -5.396189   -0.754371
     33          1           0        3.932276   -3.800961   -0.821859
     34          1           0        3.507928   -2.229060   -2.535196
     35          1           0        2.758826   -0.018828   -3.387114
     36         28           0        0.079083    1.655637   -3.238453
     37          9           0        1.240303    2.798261   -2.452056
     38          9           0       -0.794442    1.427608   -4.839291
 ---------------------------------------------------------------------
                    Distance matrix (angstroms):
                    1          2          3          4          5
     1  C    0.000000
     2  C    1.533065   0.000000
     3  C    2.615665   1.540641   0.000000
     4  C    3.215690   2.582079   1.533556   0.000000
     5  C    3.184990   2.557528   1.546296   2.561640   0.000000
     6  C    3.260519   3.354649   2.650456   3.092476   1.559026
     7  O    4.622912   4.583482   3.520096   3.559945   2.399584
     8  C    5.112858   4.655606   3.321204   3.455540   2.237578
     9  C    6.530937   6.006097   4.572103   4.465302   3.646621
    10  C    7.409557   7.092328   5.715725   5.438822   4.746624
    11  C    8.743152   8.333558   6.893422   6.542676   6.005185
    12  O    9.654135   9.394794   8.003538   7.569632   7.081008
    13  C   11.007374  10.674005   9.238360   8.768346   8.366717
    14  C    9.194495   8.560537   7.054965   6.758661   6.293576
    15  C    8.416861   7.608960   6.094493   5.936201   5.434933
    16  N    7.108752   6.311927   4.812401   4.771918   4.103757
    17  N    4.598757   3.827661   2.471263   3.033681   1.471301
    18  H    1.095775   2.188939   2.863274   2.900288   3.532924
    19  H    1.096814   2.195803   2.966577   3.713206   2.968780
    20  H    1.095316   2.174479   3.543813   4.156603   4.188150
    21  H    2.157081   1.098998   2.161646   3.506188   2.773802
    22  H    2.152568   1.097115   2.139751   2.778468   3.479090
    23  H    3.517194   2.141262   1.096282   2.105932   2.110234
    24  H    4.255402   3.488245   2.149437   1.092384   2.847147
    25  H    3.086147   2.993131   2.213175   1.096797   2.830113
    26  H    3.402099   2.733896   2.163927   1.095455   3.502549
    27  H    3.357136   2.682381   2.162152   3.492085   1.095643
    28  H    3.562548   3.860931   3.459511   4.116846   2.228679
    29  H    2.766604   3.213296   2.740951   2.808575   2.237976
    30  H    7.234914   7.144558   5.893238   5.588654   4.860614
    31  H   11.185359  10.779708   9.304078   8.708290   8.591707
    32  H   11.604835  11.388821   9.996975   9.485818   9.093790
    33  H   11.416685  10.998710   9.554257   9.231739   8.605820
    34  H   10.253898   9.585641   8.068231   7.735782   7.348826
    35  H    8.978732   8.023882   6.522006   6.418581   5.999319
    36  Ni   6.171115   5.041825   3.644639   4.023998   3.281587
    37  F    7.396231   6.223129   5.029534   5.704099   4.442398
    38  F    5.758891   4.539608   3.170850   3.076392   3.599087
                    6          7          8          9         10
     6  C    0.000000
     7  O    1.467797   0.000000
     8  C    2.235061   1.340048   0.000000
     9  C    3.650309   2.442514   1.469128   0.000000
    10  C    4.359159   2.927899   2.516419   1.381856   0.000000
    11  C    5.745495   4.327943   3.775005   2.391265   1.405799
    12  O    6.598968   5.135164   4.850700   3.592944   2.334831
    13  C    7.982366   6.525090   6.130449   4.772458   3.650113
    14  C    6.371269   5.076316   4.193840   2.729924   2.414185
    15  C    5.822646   4.730910   3.590631   2.303497   2.742985
    16  N    4.557838   3.592237   2.350630   1.353640   2.408613
    17  N    2.356783   2.250502   1.279626   2.392352   3.663108
    18  H    3.343677   4.522282   5.123927   6.460073   7.222576
    19  H    2.717081   4.157532   4.804140   6.260223   7.054370
    20  H    4.296665   5.689111   6.188729   7.614516   8.499304
    21  H    3.744896   5.021830   4.997445   6.357603   7.506082
    22  H    4.331889   5.460632   5.444464   6.701475   7.815408
    23  H    3.510088   4.182815   3.641630   4.701192   5.974166
    24  H    3.464169   3.512040   3.085538   3.796632   4.802571
    25  H    2.762040   3.193394   3.482315   4.521091   5.269682
    26  H    4.092740   4.640379   4.531988   5.469418   6.436352
    27  H    2.196776   3.160921   2.980909   4.329567   5.444242
    28  H    1.092147   2.073671   2.920026   4.261543   4.846839
    29  H    1.087946   2.063912   2.990096   4.314071   4.901594
    30  H    4.125292   2.665733   2.781447   2.154702   1.083071
    31  H    8.313029   6.876480   6.390705   4.995461   4.016942
    32  H    8.556421   7.089584   6.865529   5.592924   4.349194
    33  H    8.333068   6.908633   6.389891   4.997848   4.017821
    34  H    7.453338   6.151179   5.272361   3.810877   3.412477
    35  H    6.598143   5.632606   4.403235   3.268817   3.827344
    36  Ni   4.397806   4.086973   2.804537   2.897670   4.245422
    37  F    5.573465   5.289039   4.025304   3.938001   5.140500
    38  F    4.756838   4.643832   3.598734   3.857852   5.115040
                   11         12         13         14         15
    11  C    0.000000
    12  O    1.345383   0.000000
    13  C    2.381559   1.427374   0.000000
    14  C    1.400543   2.437919   2.832749   0.000000
    15  C    2.403380   3.672318   4.224689   1.394621   0.000000
    16  N    2.792227   4.135082   5.025846   2.395700   1.331279
    17  N    4.781369   5.964264   7.162495   4.908162   3.983353
    18  H    8.537768   9.374619  10.721719   9.058716   8.377646
    19  H    8.431420   9.284267  10.670653   8.981031   8.282338
    20  H    9.836432  10.742087  12.099630  10.278213   9.473374
    21  H    8.736610   9.838237  11.107303   8.901637   7.883341
    22  H    8.993662  10.079675  11.314496   9.131997   8.128688
    23  H    7.018763   8.225437   9.368188   6.961893   5.847771
    24  H    5.766867   6.847092   7.962935   5.853243   5.004640
    25  H    6.450051   7.333468   8.594329   6.883613   6.254230
    26  H    7.472405   8.493364   9.642970   7.612723   6.753077
    27  H    6.674338   7.760239   9.028946   6.907150   5.992960
    28  H    6.233356   6.999727   8.396099   6.932344   6.448329
    29  H    6.280500   7.047295   8.439681   6.973959   6.486276
    30  H    2.166190   2.561580   3.986824   3.402452   3.825755
    31  H    2.706050   2.088165   1.096017   2.819078   4.154858
    32  H    3.249035   2.015374   1.089850   3.895624   5.278957
    33  H    2.708692   2.088071   1.096051   2.822330   4.159247
    34  H    2.177383   2.756180   2.569655   1.082126   2.143728
    35  H    3.398622   4.587217   4.913601   2.163891   1.085186
    36  Ni   4.859757   6.196048   7.098250   4.388465   3.085471
    37  F    5.530608   6.833504   7.571247   4.853720   3.564919
    38  F    5.745152   7.026362   7.917489   5.308646   4.091007
                   16         17         18         19         20
    16  N    0.000000
    17  N    2.653859   0.000000
    18  H    7.115778   4.807658   0.000000
    19  H    6.965698   4.414315   1.773456   0.000000
    20  H    8.161591   5.620110   1.766461   1.760086   0.000000
    21  H    6.580948   4.025946   3.081939   2.500239   2.515398
    22  H    6.882516   4.580306   2.557180   3.079577   2.445634
    23  H    4.627287   2.553245   3.851003   3.917096   4.308414
    24  H    3.930587   2.749876   3.967705   4.650054   5.219172
    25  H    5.107176   3.412219   2.489566   3.449239   4.064357
    26  H    5.655897   4.032718   3.005330   4.158649   4.140923
    27  H    4.682914   2.089422   3.992500   2.999010   4.196840
    28  H    5.214799   3.050847   3.823223   2.724046   4.462064
    29  H    5.252808   3.162564   2.547642   2.359404   3.796933
    30  H    3.386006   4.047579   6.987756   6.788182   8.306723
    31  H    5.074234   7.353586  10.847433  10.952150  12.279093
    32  H    5.996884   7.973532  11.272090  11.223725  12.688201
    33  H    5.081068   7.329615  11.226384  11.045383  12.506266
    34  H    3.356394   5.943377  10.105659  10.058210  11.335821
    35  H    2.053264   4.542527   8.991516   8.918341  10.001763
    36  Ni   2.078087   2.053182   6.390625   6.196531   7.113577
    37  F    2.980819   3.308643   7.798300   7.297673   8.260406
    38  F    3.210513   2.854085   5.802547   6.096628   6.642895
                   21         22         23         24         25
    21  H    0.000000
    22  H    1.753602   0.000000
    23  H    2.427054   2.419985   0.000000
    24  H    4.274407   3.672096   2.320987   0.000000
    25  H    3.984018   3.329852   3.053265   1.795227   0.000000
    26  H    3.718243   2.485053   2.502771   1.762031   1.765277
    27  H    2.447473   3.666521   2.479987   3.829480   3.820256
    28  H    4.023076   4.921856   4.277260   4.535955   3.771713
    29  H    3.849760   4.077135   3.769463   3.394455   2.160069
    30  H    7.599424   7.926360   6.332527   5.120473   5.215123
    31  H   11.269518  11.328701   9.372897   7.828770   8.587490
    32  H   11.850618  12.055048  10.209312   8.736295   9.209190
    33  H   11.336116  11.666783   9.601460   8.409293   9.146628
    34  H    9.920059  10.120560   7.917273   6.787531   7.883573
    35  H    8.237729   8.455513   6.100983   5.444140   6.881681
    36  Ni   5.136789   5.489464   3.074824   3.327977   4.736479
    37  F    6.027511   6.721188   4.367211   5.106100   6.416514
    38  F    4.897874   4.651447   2.477999   2.264852   3.991013
                   26         27         28         29         30
    26  H    0.000000
    27  H    4.306362   0.000000
    28  H    5.068629   2.375262   0.000000
    29  H    3.680048   2.967181   1.784191   0.000000
    30  H    6.605606   5.565761   4.497429   4.559975   0.000000
    31  H    9.499345   9.323108   8.846776   8.706544   4.479371
    32  H   10.365219   9.765383   8.910185   8.953711   4.447818
    33  H   10.133941   9.164644   8.682171   8.906024   4.476911
    34  H    8.542130   7.943409   8.006080   8.045965   4.324051
    35  H    7.136551   6.480958   7.241276   7.275717   4.909709
    36  Ni   4.747862   3.639332   5.084542   5.107937   5.033857
    37  F    6.408993   4.393980   5.995855   6.454880   5.982196
    38  F    3.465743   4.205350   5.670668   5.117741   5.815970
                   31         32         33         34         35
    31  H    0.000000
    32  H    1.787028   0.000000
    33  H    1.793380   1.787038   0.000000
    34  H    2.362825   3.653099   2.363571   0.000000
    35  H    4.716236   5.998739   4.718268   2.484360   0.000000
    36  Ni   7.095078   8.074956   7.103625   5.228998   3.163378
    37  F    7.670718   8.579091   7.311224   5.515705   3.334102
    38  F    7.713327   8.868446   8.112926   6.098399   4.102038
                   36         37         38
    36  Ni   0.000000
    37  F    1.808990   0.000000
    38  F    1.837859   3.423123   0.000000
 Stoichiometry    C13H18F2N2NiO2(3)
 Framework group  C1[X(C13H18F2N2NiO2)]
 Deg. of freedom   108
 Full point group                 C1      NOp   1
 Largest Abelian subgroup         C1      NOp   1
 Largest concise Abelian subgroup C1      NOp   1
                         Standard orientation:                         
 ---------------------------------------------------------------------
 Center     Atomic      Atomic             Coordinates (Angstroms)
 Number     Number       Type             X           Y           Z
 ---------------------------------------------------------------------
      1          6           0        5.075388   -1.966224    0.007337
      2          6           0        4.711855   -0.483415    0.146648
      3          6           0        3.231459   -0.158161    0.422715
      4          6           0        2.711870   -0.679869    1.767944
      5          6           0        2.322119   -0.561529   -0.761104
      6          6           0        1.941227   -2.068162   -0.885763
      7          8           0        0.497976   -2.114360   -0.622478
      8          6           0        0.115863   -0.835108   -0.507446
      9          6           0       -1.283161   -0.492710   -0.217910
     10          6           0       -2.311204   -1.415464   -0.183569
     11          6           0       -3.608341   -0.952692    0.098481
     12          8           0       -4.577723   -1.885315    0.122324
     13          6           0       -5.913591   -1.467718    0.402441
     14          6           0       -3.799419    0.416103    0.325222
     15          6           0       -2.692964    1.263099    0.267570
     16          7           0       -1.460553    0.829450    0.011803
     17          7           0        1.004556    0.078387   -0.622316
     18          1           0        4.743158   -2.547451    0.874817
     19          1           0        4.635779   -2.417295   -0.890594
     20          1           0        6.160609   -2.089787   -0.074793
     21          1           0        5.027984    0.048616   -0.761539
     22          1           0        5.297833   -0.052900    0.968200
     23          1           0        3.141475    0.932732    0.483457
     24          1           0        1.777103   -0.166903    2.005387
     25          1           0        2.562990   -1.766322    1.788404
     26          1           0        3.428015   -0.434861    2.559859
     27          1           0        2.777858   -0.203295   -1.690839
     28          1           0        2.101448   -2.471665   -1.887910
     29          1           0        2.415704   -2.711884   -0.148118
     30          1           0       -2.132266   -2.467166   -0.370507
     31          1           0       -5.982193   -1.010649    1.396238
     32          1           0       -6.516459   -2.375178    0.373453
     33          1           0       -6.271820   -0.762285   -0.356087
     34          1           0       -4.774944    0.831711    0.541134
     35          1           0       -2.796922    2.330837    0.431144
     36         28           0        0.295118    1.934881   -0.106875
     37          9           0       -0.142031    3.070980   -1.445017
     38          9           0        1.138109    1.952431    1.526154
 ---------------------------------------------------------------------
 Rotational constants (GHZ):           0.4817633           0.1831134           0.1471666
 Basis read from rwf:  (6D, 7F)
 Pseudo-potential data read from rwf file.
 There are   398 symmetry adapted cartesian basis functions of A   symmetry.
 There are   395 symmetry adapted basis functions of A   symmetry.
   395 basis functions,   758 primitive gaussians,   398 cartesian basis functions
    82 alpha electrons       80 beta electrons
       nuclear repulsion energy      1877.7830264112 Hartrees.
 NAtoms=   38 NActive=   38 NUniq=   38 SFac= 1.00D+00 NAtFMM=   60 NAOKFM=F Big=F
 Integral buffers will be    131072 words long.
 Raffenetti 2 integral format.
 Two-electron integral symmetry is turned on.
 Nuclear repulsion after empirical dispersion term =     1877.7031600559 Hartrees.
 One-electron integrals computed using PRISM.
 PrsmSu:  requested number of processors reduced to:  12 ShMem   1 Linda.
   1 Symmetry operations used in ECPInt.
 ECPInt:  NShTT=    8911 NPrTT=   52776 LenC2=    7761 LenP2D=   27085.
 LDataN:  DoStor=T MaxTD1= 6 Len=  172
 NBasis=   395 RedAO= T EigKep=  1.12D-06  NBF=   395
 NBsUse=   395 1.00D-06 EigRej= -1.00D+00 NBFU=   395
 Initial guess from the checkpoint file:  "Lig2214_xyz_3.chk"
 B after Tr=     0.000000   -0.000000    0.000000
         Rot=    1.000000    0.000491   -0.000541   -0.000154 Ang=   0.09 deg.
 Initial guess <Sx>= 0.0000 <Sy>= 0.0000 <Sz>= 1.0000 <S**2>= 2.0064 S= 1.0021
 ExpMin= 2.40D-02 ExpMax= 7.14D+04 ExpMxC= 1.07D+04 IAcc=3 IRadAn=         5 AccDes= 0.00D+00
 Harris functional with IExCor=  402 and IRadAn=       5 diagonalized for initial guess.
 HarFok:  IExCor=  402 AccDes= 0.00D+00 IRadAn=         5 IDoV= 1 UseB2=F ITyADJ=14
 ICtDFT=  3500011 ScaDFX=  1.000000  1.000000  1.000000  1.000000
 FoFCou: FMM=F IPFlag=           0 FMFlag=      100000 FMFlg1=           0
         NFxFlg=           0 DoJE=T BraDBF=F KetDBF=T FulRan=T
         wScrn=  0.000000 ICntrl=       500 IOpCl=  0 I1Cent=   200000004 NGrid=           0
         NMat0=    1 NMatS0=      1 NMatT0=    0 NMatD0=    1 NMtDS0=    0 NMtDT0=    0
 Petite list used in FoFCou.
 Requested convergence on RMS density matrix=1.00D-08 within  32 cycles.
 Requested convergence on MAX density matrix=1.00D-06.
 Requested convergence on             energy=1.00D-06.
 No special actions if energy rises.
 Restarting incremental Fock formation.
 SCF Done:  E(UB3LYP) =  -1135.38321546     A.U. after   27 cycles
            NFock= 27  Conv=0.32D-08     -V/T= 2.0665
 <Sx>= 0.0000 <Sy>= 0.0000 <Sz>= 1.0000 <S**2>= 2.0064 S= 1.0021
 <L.S>=  0.00000000000    
 Annihilation of the first spin contaminant:
 S**2 before annihilation     2.0064,   after     2.0000
 QCSCF skips out because SCF is already converged.
 PrsmSu:  requested number of processors reduced to:  13 ShMem   1 Linda.
   1 Symmetry operations used in ECPInt.
 ECPInt:  NShTT=    8911 NPrTT=   52776 LenC2=    7761 LenP2D=   27085.
 LDataN:  DoStor=T MaxTD1= 7 Len=  274
 Calling FoFJK, ICntrl=      2127 FMM=F ISym2X=0 I1Cent= 0 IOpClX= 1 NMat=1 NMatS=1 NMatT=0.
 ***** Axes restored to original set *****
 -------------------------------------------------------------------
 Center     Atomic                   Forces (Hartrees/Bohr)
 Number     Number              X              Y              Z
 -------------------------------------------------------------------
      1        6           0.000036679    0.000028326   -0.000029902
      2        6           0.000009904   -0.000082438   -0.000011113
      3        6           0.000154247    0.000002360   -0.000079454
      4        6          -0.000025407    0.000040754    0.000130967
      5        6          -0.000265242   -0.000274804    0.000322943
      6        6           0.000504047   -0.000267470   -0.000246276
      7        8          -0.000479226    0.000332346   -0.000243550
      8        6           0.000446905   -0.000270714    0.000194480
      9        6          -0.000296870   -0.000048932    0.000197856
     10        6           0.000004783    0.000089895   -0.000005866
     11        6           0.000052958   -0.000137527    0.000098010
     12        8           0.000069339    0.000003727   -0.000113226
     13        6          -0.000125969    0.000022093    0.000077204
     14        6          -0.000012390    0.000081638   -0.000019455
     15        6          -0.000012472   -0.000236996    0.000339193
     16        7           0.000387906    0.000247123   -0.000618360
     17        7          -0.000083087    0.000296687   -0.000077171
     18        1           0.000013719   -0.000022700   -0.000009592
     19        1          -0.000033861   -0.000026188   -0.000004104
     20        1          -0.000011102    0.000001823   -0.000001388
     21        1           0.000002863    0.000003398    0.000000510
     22        1           0.000017475   -0.000007581   -0.000000762
     23        1           0.000032217    0.000043302   -0.000017958
     24        1          -0.000060952    0.000005631   -0.000048128
     25        1           0.000012287   -0.000038176    0.000046630
     26        1           0.000048862    0.000026097    0.000018704
     27        1          -0.000091923   -0.000005885   -0.000167654
     28        1           0.000072488    0.000125787    0.000059604
     29        1          -0.000098601   -0.000032148    0.000053840
     30        1          -0.000039900    0.000041695   -0.000021966
     31        1           0.000022030   -0.000000970   -0.000005468
     32        1           0.000027315    0.000013158   -0.000011438
     33        1           0.000017026   -0.000003010   -0.000021186
     34        1          -0.000003370    0.000034046    0.000007240
     35        1          -0.000012213    0.000021817   -0.000051654
     36       28          -0.000466050   -0.000038942    0.000222027
     37        9           0.000066359   -0.000236284   -0.000185162
     38        9           0.000119230    0.000269065    0.000221624
 -------------------------------------------------------------------
 Cartesian Forces:  Max     0.000618360 RMS     0.000164695

 GradGradGradGradGradGradGradGradGradGradGradGradGradGradGradGradGradGrad
 Berny optimization.
 Using GEDIIS/GDIIS optimizer.
 FormGI is forming the generalized inverse of G from B-inverse, IUseBI=4.
 Internal  Forces:  Max     0.000419063 RMS     0.000085986
 Search for a local minimum.
 Step number  17 out of a maximum of  228
 All quantities printed in internal units (Hartrees-Bohrs-Radians)
 Mixed Optimization -- En-DIIS/RFO-DIIS
 Swapping is turned off.
 Update second derivatives using D2CorX and points    7    8    9   10   11
                                                     12   13   14   15   16
                                                     17
 DE= -1.12D-05 DEPred=-7.78D-06 R= 1.44D+00
 TightC=F SS=  1.41D+00  RLast= 5.48D-02 DXNew= 1.7643D+00 1.6443D-01
 Trust test= 1.44D+00 RLast= 5.48D-02 DXMaxT set to 1.05D+00
 ITU=  1  1  1  1  1  1  1  1  1  0  1  0  1  1  1  1  0
     Eigenvalues ---    0.00095   0.00203   0.00236   0.00264   0.01029
     Eigenvalues ---    0.01150   0.01377   0.01782   0.01957   0.01971
     Eigenvalues ---    0.02019   0.02033   0.02095   0.02125   0.02152
     Eigenvalues ---    0.02197   0.02261   0.02414   0.03058   0.03088
     Eigenvalues ---    0.03241   0.03651   0.04067   0.04175   0.04720
     Eigenvalues ---    0.04848   0.05007   0.05173   0.05240   0.05318
     Eigenvalues ---    0.05467   0.05551   0.05887   0.05951   0.06894
     Eigenvalues ---    0.08734   0.09212   0.10135   0.10696   0.11036
     Eigenvalues ---    0.11532   0.12055   0.12692   0.14407   0.15874
     Eigenvalues ---    0.15974   0.15995   0.16000   0.16005   0.16007
     Eigenvalues ---    0.16014   0.16032   0.16042   0.16098   0.16324
     Eigenvalues ---    0.16487   0.17660   0.18416   0.19200   0.19454
     Eigenvalues ---    0.20186   0.20763   0.22085   0.22634   0.23587
     Eigenvalues ---    0.24346   0.24503   0.24763   0.25032   0.25584
     Eigenvalues ---    0.26388   0.26926   0.28019   0.28679   0.29705
     Eigenvalues ---    0.30736   0.32127   0.34503   0.34580   0.34606
     Eigenvalues ---    0.34644   0.34659   0.34679   0.34712   0.34728
     Eigenvalues ---    0.34770   0.34796   0.34815   0.34847   0.35060
     Eigenvalues ---    0.35113   0.35461   0.35768   0.36088   0.36263
     Eigenvalues ---    0.36893   0.39439   0.40913   0.42102   0.42464
     Eigenvalues ---    0.42873   0.44944   0.46384   0.49139   0.49664
     Eigenvalues ---    0.51489   0.54803   0.67200
 En-DIIS/RFO-DIIS/Sim-DIIS IScMMF=       -3 using points:    17   16   15   14   13   12   11   10    9    8
 RFO step:  Lambda=-2.77277465D-05.
 DIIS inversion failure, remove point  10.
 DIIS inversion failure, remove point   9.
 DIIS inversion failure, remove point   8.
 DIIS inversion failure, remove point   7.
 DIIS inversion failure, remove point   6.
 RFO-DIIS uses    5 points instead of   10
 DidBck=F Rises=F RFO-DIIS coefs:    2.67394   -1.14877   -0.51734   -0.46121    0.45338
                  RFO-DIIS coefs:    0.00000    0.00000    0.00000    0.00000    0.00000
 Iteration  1 RMS(Cart)=  0.01638821 RMS(Int)=  0.00017343
 Iteration  2 RMS(Cart)=  0.00018422 RMS(Int)=  0.00002333
 Iteration  3 RMS(Cart)=  0.00000003 RMS(Int)=  0.00002333
 Variable       Old X    -DE/DX   Delta X   Delta X   Delta X     New X
                                 (Linear)    (Quad)   (Total)
    R1        2.89707  -0.00002   0.00012  -0.00004   0.00008   2.89715
    R2        2.07071   0.00002  -0.00001   0.00003   0.00003   2.07074
    R3        2.07268  -0.00000   0.00005   0.00001   0.00006   2.07274
    R4        2.06985   0.00001   0.00005   0.00001   0.00005   2.06990
    R5        2.91139  -0.00008  -0.00008  -0.00012  -0.00020   2.91119
    R6        2.07681   0.00000   0.00010  -0.00002   0.00008   2.07689
    R7        2.07325  -0.00001   0.00004   0.00001   0.00005   2.07330
    R8        2.89800  -0.00011  -0.00083   0.00017  -0.00066   2.89734
    R9        2.92208  -0.00010  -0.00041   0.00021  -0.00020   2.92187
   R10        2.07167   0.00006  -0.00059   0.00004  -0.00056   2.07112
   R11        2.06431  -0.00005  -0.00049   0.00005  -0.00044   2.06386
   R12        2.07265   0.00005  -0.00001   0.00000  -0.00000   2.07264
   R13        2.07011  -0.00004   0.00008  -0.00006   0.00001   2.07012
   R14        2.94613  -0.00025   0.00089  -0.00021   0.00068   2.94681
   R15        2.78036  -0.00005  -0.00017   0.00011  -0.00005   2.78031
   R16        2.07047  -0.00009   0.00035  -0.00007   0.00028   2.07075
   R17        2.77373  -0.00042   0.00198  -0.00060   0.00137   2.77511
   R18        2.06386   0.00007  -0.00047   0.00012  -0.00034   2.06352
   R19        2.05592   0.00006   0.00001   0.00007   0.00008   2.05600
   R20        2.53232   0.00001  -0.00031   0.00007  -0.00024   2.53208
   R21        2.77625  -0.00019  -0.00007  -0.00011  -0.00015   2.77610
   R22        2.41814   0.00007   0.00032  -0.00003   0.00031   2.41845
   R23        2.61133  -0.00008   0.00024  -0.00010   0.00015   2.61148
   R24        2.55801   0.00029   0.00014   0.00010   0.00024   2.55825
   R25        2.65658   0.00003  -0.00059   0.00019  -0.00041   2.65617
   R26        2.04671  -0.00001   0.00000   0.00000   0.00000   2.04671
   R27        2.54241  -0.00005   0.00051  -0.00022   0.00029   2.54270
   R28        2.64664   0.00002   0.00008   0.00001   0.00009   2.64674
   R29        2.69735  -0.00008  -0.00041   0.00003  -0.00038   2.69697
   R30        2.07117   0.00000   0.00010  -0.00001   0.00008   2.07125
   R31        2.05952  -0.00001   0.00012  -0.00003   0.00009   2.05961
   R32        2.07124   0.00000   0.00010   0.00000   0.00010   2.07134
   R33        2.63545  -0.00004  -0.00047   0.00009  -0.00038   2.63507
   R34        2.04492  -0.00001  -0.00002   0.00001  -0.00001   2.04491
   R35        2.51575   0.00001   0.00057  -0.00013   0.00044   2.51619
   R36        2.05070   0.00003  -0.00006   0.00002  -0.00004   2.05066
   R37        3.92701   0.00008   0.00375  -0.00080   0.00292   3.92993
   R38        3.87995  -0.00014   0.00337  -0.00013   0.00323   3.88318
   R39        3.41850  -0.00019  -0.00135  -0.00047  -0.00182   3.41668
   R40        3.47305  -0.00027   0.00103  -0.00088   0.00016   3.47321
    A1        1.94895  -0.00002   0.00051  -0.00011   0.00040   1.94935
    A2        1.95749   0.00005   0.00007   0.00002   0.00009   1.95757
    A3        1.92929  -0.00000  -0.00035   0.00009  -0.00026   1.92904
    A4        1.88436  -0.00002  -0.00020  -0.00001  -0.00021   1.88415
    A5        1.87541   0.00001   0.00003  -0.00004  -0.00002   1.87539
    A6        1.86432  -0.00002  -0.00007   0.00005  -0.00002   1.86430
    A7        2.03570   0.00001   0.00073  -0.00015   0.00058   2.03628
    A8        1.90174   0.00001  -0.00060   0.00029  -0.00031   1.90143
    A9        1.89752  -0.00001  -0.00053   0.00007  -0.00046   1.89705
   A10        1.89893  -0.00000   0.00006  -0.00007  -0.00001   1.89892
   A11        1.87150  -0.00002   0.00028  -0.00016   0.00012   1.87162
   A12        1.84961   0.00000   0.00002   0.00002   0.00004   1.84965
   A13        1.99427  -0.00006  -0.00043  -0.00024  -0.00067   1.99359
   A14        1.95285   0.00013  -0.00035   0.00014  -0.00020   1.95264
   A15        1.87431  -0.00002   0.00231  -0.00010   0.00221   1.87652
   A16        1.96446  -0.00011   0.00008   0.00008   0.00016   1.96462
   A17        1.83600   0.00007  -0.00155   0.00021  -0.00134   1.83466
   A18        1.82733   0.00000   0.00006  -0.00009  -0.00003   1.82730
   A19        1.89742   0.00007   0.00090  -0.00001   0.00089   1.89830
   A20        1.98159  -0.00003   0.00127  -0.00004   0.00123   1.98283
   A21        1.91405  -0.00003  -0.00142   0.00027  -0.00115   1.91289
   A22        1.92298  -0.00002  -0.00014  -0.00025  -0.00039   1.92258
   A23        1.87261  -0.00004  -0.00184   0.00036  -0.00148   1.87114
   A24        1.87214   0.00004   0.00103  -0.00031   0.00072   1.87286
   A25        2.04540   0.00001  -0.00235   0.00056  -0.00180   2.04360
   A26        1.91873  -0.00012   0.00289  -0.00062   0.00226   1.92099
   A27        1.89626   0.00000  -0.00003  -0.00020  -0.00023   1.89603
   A28        1.78142   0.00003   0.00111  -0.00026   0.00086   1.78229
   A29        1.92810   0.00004  -0.00040   0.00024  -0.00017   1.92793
   A30        1.88634   0.00004  -0.00105   0.00027  -0.00078   1.88555
   A31        1.82999   0.00005   0.00016   0.00007   0.00025   1.83024
   A32        1.97640  -0.00014   0.00273  -0.00047   0.00226   1.97865
   A33        1.99439   0.00006  -0.00213   0.00025  -0.00189   1.99250
   A34        1.87257   0.00007  -0.00032   0.00007  -0.00026   1.87231
   A35        1.86355  -0.00006  -0.00095   0.00033  -0.00063   1.86292
   A36        1.91724   0.00003   0.00036  -0.00018   0.00018   1.91742
   A37        1.83976   0.00014  -0.00031   0.00013  -0.00017   1.83959
   A38        2.10708   0.00011  -0.00060   0.00035  -0.00027   2.10681
   A39        2.06661  -0.00018   0.00128  -0.00033   0.00096   2.06757
   A40        2.10909   0.00007  -0.00057  -0.00002  -0.00058   2.10851
   A41        2.16244  -0.00012  -0.00065   0.00015  -0.00052   2.16192
   A42        1.96696   0.00007   0.00060  -0.00023   0.00038   1.96734
   A43        2.15379   0.00005   0.00006   0.00008   0.00013   2.15391
   A44        2.06192   0.00005  -0.00020   0.00003  -0.00016   2.06176
   A45        2.11908  -0.00009   0.00021  -0.00016   0.00005   2.11913
   A46        2.10218   0.00004  -0.00001   0.00012   0.00010   2.10228
   A47        2.02661   0.00004  -0.00026   0.00010  -0.00016   2.02645
   A48        2.07156  -0.00008   0.00047  -0.00017   0.00030   2.07185
   A49        2.18501   0.00004  -0.00022   0.00008  -0.00014   2.18487
   A50        2.06577   0.00005   0.00030  -0.00005   0.00025   2.06602
   A51        1.93749   0.00001   0.00024   0.00001   0.00024   1.93773
   A52        1.84303   0.00003  -0.00005   0.00002  -0.00003   1.84300
   A53        1.93732   0.00002   0.00017  -0.00006   0.00011   1.93743
   A54        1.91424  -0.00001  -0.00019   0.00005  -0.00013   1.91411
   A55        1.91628  -0.00003   0.00001  -0.00006  -0.00005   1.91623
   A56        1.91421  -0.00002  -0.00019   0.00004  -0.00015   1.91406
   A57        2.06989   0.00005  -0.00026   0.00012  -0.00013   2.06976
   A58        2.13017  -0.00000  -0.00040   0.00011  -0.00029   2.12988
   A59        2.08313  -0.00005   0.00065  -0.00023   0.00042   2.08355
   A60        2.14666   0.00011   0.00019  -0.00000   0.00018   2.14685
   A61        2.11219  -0.00003   0.00088  -0.00006   0.00082   2.11301
   A62        2.02433  -0.00008  -0.00106   0.00006  -0.00100   2.02333
   A63        2.06245  -0.00018  -0.00027  -0.00007  -0.00033   2.06212
   A64        1.98141  -0.00020   0.00053   0.00029   0.00079   1.98220
   A65        2.23929   0.00038  -0.00028  -0.00025  -0.00051   2.23877
   A66        1.89643  -0.00004  -0.00009   0.00009  -0.00001   1.89642
   A67        2.38383   0.00008   0.00249   0.00001   0.00246   2.38629
   A68        1.96382  -0.00004   0.00144   0.00004   0.00142   1.96524
   A69        1.39517   0.00011  -0.00156   0.00000  -0.00151   1.39366
   A70        1.74382  -0.00017  -0.01246  -0.00254  -0.01484   1.72898
   A71        1.91968   0.00019   0.02776   0.00519   0.03293   1.95261
   A72        2.05518   0.00018   0.02081   0.00410   0.02490   2.08008
   A73        1.64407   0.00002  -0.01342   0.00117  -0.01203   1.63204
   A74        2.43738  -0.00017  -0.01230  -0.00500  -0.01729   2.42009
    D1       -0.94477   0.00002   0.00020  -0.00085  -0.00065  -0.94542
    D2       -3.10220  -0.00000   0.00008  -0.00089  -0.00081  -3.10301
    D3        1.17269  -0.00001   0.00066  -0.00111  -0.00045   1.17224
    D4        1.17302   0.00001   0.00036  -0.00093  -0.00057   1.17244
    D5       -0.98441  -0.00000   0.00023  -0.00097  -0.00074  -0.98514
    D6       -2.99271  -0.00001   0.00081  -0.00119  -0.00037  -2.99308
    D7       -3.03166   0.00002   0.00007  -0.00079  -0.00072  -3.03238
    D8        1.09410   0.00000  -0.00005  -0.00083  -0.00088   1.09322
    D9       -0.91420  -0.00000   0.00053  -0.00105  -0.00052  -0.91472
   D10        1.12248  -0.00006   0.00040  -0.00167  -0.00127   1.12121
   D11       -1.13573   0.00003   0.00099  -0.00170  -0.00071  -1.13644
   D12       -3.13159  -0.00003  -0.00025  -0.00162  -0.00186  -3.13345
   D13       -3.00184  -0.00004   0.00018  -0.00144  -0.00126  -3.00310
   D14        1.02314   0.00005   0.00077  -0.00148  -0.00071   1.02244
   D15       -0.97272  -0.00000  -0.00046  -0.00139  -0.00186  -0.97457
   D16       -1.00864  -0.00005   0.00037  -0.00153  -0.00116  -1.00979
   D17        3.01634   0.00004   0.00096  -0.00156  -0.00060   3.01574
   D18        1.02049  -0.00001  -0.00027  -0.00148  -0.00175   1.01874
   D19        2.85599  -0.00004   0.01243  -0.00177   0.01066   2.86665
   D20       -1.28024  -0.00002   0.01378  -0.00212   0.01166  -1.26858
   D21        0.81354  -0.00001   0.01492  -0.00235   0.01257   0.82611
   D22       -1.17480  -0.00001   0.01162  -0.00171   0.00991  -1.16489
   D23        0.97215   0.00000   0.01297  -0.00206   0.01091   0.98306
   D24        3.06593   0.00001   0.01411  -0.00229   0.01182   3.07775
   D25        0.80479  -0.00002   0.01084  -0.00165   0.00919   0.81398
   D26        2.95174  -0.00001   0.01219  -0.00200   0.01019   2.96193
   D27       -1.23766   0.00000   0.01334  -0.00224   0.01110  -1.22656
   D28        1.38315   0.00001  -0.00431   0.00093  -0.00338   1.37977
   D29       -2.87768  -0.00003  -0.00224   0.00049  -0.00175  -2.87942
   D30       -0.81669  -0.00005  -0.00187   0.00034  -0.00153  -0.81822
   D31       -0.89052   0.00008  -0.00347   0.00107  -0.00240  -0.89293
   D32        1.13183   0.00004  -0.00140   0.00063  -0.00077   1.13106
   D33       -3.09036   0.00002  -0.00103   0.00047  -0.00055  -3.09092
   D34       -2.87543   0.00005  -0.00171   0.00084  -0.00088  -2.87631
   D35       -0.85307   0.00000   0.00035   0.00040   0.00075  -0.85232
   D36        1.20792  -0.00001   0.00073   0.00024   0.00097   1.20889
   D37        1.96725  -0.00013   0.01823  -0.00273   0.01551   1.98276
   D38       -2.28005  -0.00009   0.01935  -0.00285   0.01650  -2.26355
   D39       -0.06702  -0.00012   0.02040  -0.00331   0.01709  -0.04993
   D40       -0.12925  -0.00001   0.01511  -0.00207   0.01305  -0.11620
   D41        1.90663   0.00003   0.01622  -0.00219   0.01404   1.92067
   D42       -2.16353   0.00001   0.01728  -0.00265   0.01463  -2.14889
   D43       -2.13190  -0.00009   0.01591  -0.00234   0.01357  -2.11833
   D44       -0.09602  -0.00005   0.01702  -0.00246   0.01457  -0.08145
   D45        2.11701  -0.00007   0.01808  -0.00292   0.01516   2.13217
   D46       -2.05782   0.00004  -0.01101   0.00112  -0.00990  -2.06772
   D47        0.75052   0.00002   0.00505   0.00168   0.00673   0.75725
   D48        0.12513   0.00001  -0.01164   0.00130  -0.01034   0.11479
   D49        2.93348  -0.00001   0.00441   0.00186   0.00629   2.93976
   D50        2.15824   0.00008  -0.01200   0.00156  -0.01044   2.14780
   D51       -1.31660   0.00007   0.00406   0.00212   0.00619  -1.31041
   D52        0.09256   0.00001  -0.01369   0.00216  -0.01153   0.08103
   D53       -2.01350   0.00011  -0.01677   0.00264  -0.01414  -2.02763
   D54        2.21497   0.00007  -0.01655   0.00265  -0.01389   2.20107
   D55       -3.12546   0.00000   0.00261  -0.00152   0.00109  -3.12436
   D56       -0.01414   0.00000   0.00712  -0.00151   0.00561  -0.00853
   D57       -0.12235  -0.00003   0.00594  -0.00142   0.00452  -0.11783
   D58        3.02023  -0.00004   0.00899  -0.00069   0.00828   3.02851
   D59        3.05025  -0.00002   0.00129  -0.00142  -0.00013   3.05012
   D60       -0.09034  -0.00003   0.00434  -0.00069   0.00363  -0.08671
   D61       -0.07768  -0.00000   0.00350   0.00007   0.00356  -0.07412
   D62       -2.97342  -0.00002  -0.00866  -0.00034  -0.00899  -2.98242
   D63        3.03360  -0.00000   0.00801   0.00008   0.00809   3.04168
   D64        0.13786  -0.00002  -0.00415  -0.00033  -0.00446   0.13339
   D65       -3.13493   0.00000   0.00354   0.00112   0.00464  -3.13029
   D66        0.00340  -0.00000   0.00233   0.00068   0.00299   0.00639
   D67        0.00557   0.00001   0.00017   0.00031   0.00048   0.00605
   D68       -3.13929   0.00001  -0.00104  -0.00013  -0.00116  -3.14046
   D69        3.12563   0.00000  -0.00386  -0.00102  -0.00487   3.12076
   D70       -0.00664   0.00007  -0.00206   0.00133  -0.00072  -0.00736
   D71       -0.01498  -0.00001  -0.00084  -0.00030  -0.00113  -0.01610
   D72        3.13594   0.00006   0.00097   0.00205   0.00302   3.13896
   D73       -3.14108  -0.00001  -0.00068  -0.00028  -0.00096   3.14115
   D74        0.00448  -0.00001   0.00028  -0.00020   0.00008   0.00455
   D75        0.00375  -0.00000   0.00053   0.00015   0.00067   0.00442
   D76       -3.13388  -0.00000   0.00148   0.00023   0.00171  -3.13217
   D77       -3.14025   0.00003   0.00121   0.00091   0.00212  -3.13813
   D78       -0.00291   0.00003   0.00018   0.00082   0.00101  -0.00190
   D79       -0.00489   0.00000  -0.00007   0.00009   0.00002  -0.00487
   D80        3.13539  -0.00000  -0.00107  -0.00015  -0.00122   3.13417
   D81        3.14106   0.00000   0.00098   0.00018   0.00116  -3.14096
   D82       -0.00185  -0.00000  -0.00002  -0.00006  -0.00008  -0.00193
   D83       -1.06471  -0.00001   0.00030  -0.00049  -0.00019  -1.06490
   D84       -3.13812  -0.00002   0.00043  -0.00057  -0.00014  -3.13826
   D85        1.07178  -0.00003   0.00060  -0.00061  -0.00001   1.07178
   D86       -0.00480   0.00001  -0.00063  -0.00008  -0.00071  -0.00551
   D87        3.13528   0.00000  -0.00185  -0.00045  -0.00231   3.13297
   D88        3.13807   0.00001   0.00034   0.00016   0.00050   3.13857
   D89       -0.00503   0.00001  -0.00088  -0.00022  -0.00110  -0.00613
   D90        0.01449  -0.00000   0.00107   0.00017   0.00123   0.01572
   D91       -3.13800  -0.00008  -0.00104  -0.00256  -0.00360   3.14158
   D92       -3.12567  -0.00000   0.00223   0.00053   0.00276  -3.12291
   D93        0.00503  -0.00008   0.00012  -0.00221  -0.00208   0.00295
   D94        0.05689  -0.00006   0.00006  -0.00119  -0.00113   0.05576
   D95        2.09343   0.00015   0.02253   0.00328   0.02582   2.11925
   D96       -1.52848  -0.00008   0.01977  -0.00155   0.01832  -1.51016
   D97       -3.07423   0.00001   0.00209   0.00145   0.00353  -3.07070
   D98       -1.03768   0.00023   0.02456   0.00592   0.03047  -1.00721
   D99        1.62359  -0.00001   0.02180   0.00108   0.02297   1.64656
   D100      -2.90275   0.00006  -0.01414   0.00021  -0.01396  -2.91671
   D101       1.70524   0.00021   0.00335   0.00361   0.00701   1.71225
   D102      -0.99025   0.00024   0.01618   0.00530   0.02147  -0.96878
   D103      -0.10330   0.00004   0.00215   0.00080   0.00295  -0.10036
   D104      -1.77849   0.00020   0.01964   0.00419   0.02391  -1.75458
   D105       1.80921   0.00023   0.03247   0.00588   0.03837   1.84758
         Item               Value     Threshold  Converged?
 Maximum Force            0.000419     0.000450     YES
 RMS     Force            0.000086     0.000300     YES
 Maximum Displacement     0.088462     0.001800     NO 
 RMS     Displacement     0.016381     0.001200     NO 
 Predicted change in Energy=-1.388687D-05
 GradGradGradGradGradGradGradGradGradGradGradGradGradGradGradGradGradGrad

                          Input orientation:                          
 ---------------------------------------------------------------------
 Center     Atomic      Atomic             Coordinates (Angstroms)
 Number     Number       Type             X           Y           Z
 ---------------------------------------------------------------------
      1          6           0       -6.043619    1.506718   -2.456189
      2          6           0       -4.925738    2.296545   -3.146792
      3          6           0       -3.570147    1.581949   -3.304806
      4          6           0       -3.612741    0.345050   -4.209787
      5          6           0       -2.907647    1.294309   -1.937671
      6          6           0       -3.438450    0.066882   -1.135575
      7          8           0       -2.317269   -0.881253   -1.112091
      8          6           0       -1.296654   -0.240012   -1.697360
      9          6           0        0.003709   -0.900939   -1.871528
     10          6           0        0.314788   -2.139739   -1.343942
     11          6           0        1.602757   -2.653499   -1.573843
     12          8           0        1.861982   -3.861761   -1.041511
     13          6           0        3.156874   -4.427444   -1.241710
     14          6           0        2.509289   -1.888330   -2.318407
     15          6           0        2.094078   -0.649785   -2.806276
     16          7           0        0.871871   -0.162510   -2.602081
     17          7           0       -1.489678    0.950189   -2.126335
     18          1           0       -6.212113    0.537343   -2.938556
     19          1           0       -5.827304    1.324012   -1.396520
     20          1           0       -6.987060    2.061806   -2.495905
     21          1           0       -4.767952    3.239598   -2.604898
     22          1           0       -5.263638    2.578614   -4.151769
     23          1           0       -2.886519    2.278045   -3.804099
     24          1           0       -2.590905    0.077413   -4.487299
     25          1           0       -4.118312   -0.515174   -3.754406
     26          1           0       -4.147602    0.585021   -5.135192
     27          1           0       -2.957942    2.202283   -1.326265
     28          1           0       -3.686386    0.301640   -0.098363
     29          1           0       -4.273206   -0.446630   -1.608020
     30          1           0       -0.405797   -2.703719   -0.764519
     31          1           0        3.360423   -4.576049   -2.308402
     32          1           0        3.137029   -5.391761   -0.734188
     33          1           0        3.934891   -3.794096   -0.800118
     34          1           0        3.516193   -2.228564   -2.521797
     35          1           0        2.765865   -0.020494   -3.380974
     36         28           0        0.083212    1.650024   -3.248305
     37          9           0        1.280615    2.769698   -2.485732
     38          9           0       -0.824697    1.474420   -4.836667
 ---------------------------------------------------------------------
                    Distance matrix (angstroms):
                    1          2          3          4          5
     1  C    0.000000
     2  C    1.533108   0.000000
     3  C    2.616081   1.540533   0.000000
     4  C    3.214615   2.581134   1.533207   0.000000
     5  C    3.185640   2.557174   1.546189   2.561397   0.000000
     6  C    3.256387   3.350883   2.649215   3.091688   1.559386
     7  O    4.625440   4.587213   3.527757   3.574602   2.400666
     8  C    5.114740   4.658887   3.327491   3.466820   2.237675
     9  C    6.535199   6.012458   4.581644   4.483152   3.646845
    10  C    7.413710   7.098873   5.726139   5.460103   4.746503
    11  C    8.749458   8.342562   6.906098   6.568174   6.005106
    12  O    9.660249   9.403727   8.016515   7.596567   7.080785
    13  C   11.015367  10.685035   9.253215   8.798515   8.366674
    14  C    9.203128   8.571990   7.069325   6.785613   6.294231
    15  C    8.425864   7.620671   6.108405   5.960480   5.436104
    16  N    7.115590   6.321070   4.823742   4.791042   4.104695
    17  N    4.599664   3.828905   2.473108   3.035516   1.471274
    18  H    1.095790   2.189273   2.864494   2.899955   3.534722
    19  H    1.096846   2.195927   2.966959   3.711755   2.969532
    20  H    1.095345   2.174352   3.543992   4.155799   4.188351
    21  H    2.156922   1.099042   2.161575   3.505508   2.773098
    22  H    2.152284   1.097141   2.139766   2.778063   3.478845
    23  H    3.518393   2.142617   1.095988   2.104389   2.109914
    24  H    4.253182   3.488975   2.149612   1.092150   2.842844
    25  H    3.078997   2.987791   2.213719   1.096795   2.835571
    26  H    3.409027   2.736521   2.162784   1.095462   3.502102
    27  H    3.358861   2.682429   2.161998   3.491815   1.095794
    28  H    3.545152   3.848189   3.454560   4.112312   2.230444
    29  H    2.769354   3.212262   2.736514   2.798600   2.237026
    30  H    7.237028   7.148968   5.901960   5.607973   4.860017
    31  H   11.200799  10.797959   9.324514   8.743998   8.595769
    32  H   11.612003  11.399076  10.011340   9.515786   9.093405
    33  H   11.419802  11.005159   9.565611   9.258786   8.602687
    34  H   10.263851   9.598616   8.083893   7.764953   7.349663
    35  H    8.988583   8.036433   6.535952   6.442605   6.000047
    36  Ni   6.179487   5.051522   3.654430   4.035775   3.284743
    37  F    7.432389   6.259368   5.060783   5.726798   4.474225
    38  F    5.736277   4.511109   3.145736   3.072726   3.574255
                    6          7          8          9         10
     6  C    0.000000
     7  O    1.468523   0.000000
     8  C    2.235414   1.339919   0.000000
     9  C    3.650584   2.442144   1.469048   0.000000
    10  C    4.358829   2.926647   2.516071   1.381935   0.000000
    11  C    5.745112   4.326739   3.774488   2.391033   1.405584
    12  O    6.598308   5.133668   4.850174   3.592851   2.334659
    13  C    7.981762   6.523688   6.129936   4.772354   3.649863
    14  C    6.371620   5.075929   4.193787   2.729940   2.414254
    15  C    5.823548   4.731154   3.590915   2.303579   2.743038
    16  N    4.558742   3.592669   2.350963   1.353769   2.408878
    17  N    2.357869   2.251172   1.279788   2.392030   3.662771
    18  H    3.341450   4.529702   5.128995   6.468667   7.232566
    19  H    2.712028   4.155050   4.802444   6.259133   7.051640
    20  H    4.292185   5.690649   6.190053   7.618304   8.502763
    21  H    3.740670   5.021527   4.998122   6.360081   7.507431
    22  H    4.328688   5.467304   5.450297   6.712059   7.827234
    23  H    3.509258   4.189525   3.647826   4.711071   5.984778
    24  H    3.457239   3.519367   3.091861   3.812015   4.820738
    25  H    2.767540   3.218633   3.502700   4.548088   5.301125
    26  H    4.094912   4.656761   4.541726   5.485705   6.458391
    27  H    2.197086   3.156663   2.976977   4.324196   5.437299
    28  H    1.091967   2.073973   2.925918   4.266979   4.849865
    29  H    1.087987   2.064106   2.985051   4.309041   4.897555
    30  H    4.124427   2.663816   2.780948   2.154804   1.083073
    31  H    8.316069   6.878870   6.392414   4.996481   4.017671
    32  H    8.555397   7.087797   6.864821   5.592738   4.348850
    33  H    8.329816   6.904454   6.387928   4.997246   4.017187
    34  H    7.453706   6.150755   5.272336   3.810903   3.412363
    35  H    6.598710   5.632670   4.403044   3.268503   3.827333
    36  Ni   4.401371   4.090608   2.807435   2.899870   4.247649
    37  F    5.603366   5.306703   4.040074   3.934630   5.132161
    38  F    4.744571   4.652895   3.607945   3.888526   5.153610
                   11         12         13         14         15
    11  C    0.000000
    12  O    1.345538   0.000000
    13  C    2.381696   1.427173   0.000000
    14  C    1.400592   2.438011   2.832975   0.000000
    15  C    2.403156   3.672200   4.224703   1.394421   0.000000
    16  N    2.792220   4.135234   5.026083   2.395843   1.331511
    17  N    4.780687   5.963668   7.161840   4.907730   3.983157
    18  H    8.550796   9.388393  10.738078   9.073661   8.391638
    19  H    8.429581   9.281347  10.668583   8.981525   8.284418
    20  H    9.842218  10.747532  12.107137  10.286676   9.482411
    21  H    8.739428   9.840198  11.110566   8.907073   7.890203
    22  H    9.009333  10.095870  11.333945   9.150584   8.146710
    23  H    7.031911   8.238773   9.383604   6.977156   5.862951
    24  H    5.790761   6.871591   7.991530   5.880495   5.030281
    25  H    6.485207   7.370438   8.634108   6.919013   6.285767
    26  H    7.499190   8.523333   9.676744   7.639760   6.775483
    27  H    6.666324   7.751476   9.019501   6.899860   5.987288
    28  H    6.235777   7.000559   8.396528   6.936206   6.453818
    29  H    6.276812   7.044472   8.437247   6.970321   6.482236
    30  H    2.166060   2.561368   3.986422   3.402521   3.825806
    31  H    2.706504   2.088192   1.096060   2.819284   4.155365
    32  H    3.249168   2.015215   1.089899   3.895875   5.278981
    33  H    2.708960   2.088014   1.096104   2.823028   4.159322
    34  H    2.177251   2.755901   2.569592   1.082119   2.143801
    35  H    3.398714   4.587529   4.914321   2.164183   1.085164
    36  Ni   4.861393   6.197881   7.099960   4.389818   3.086760
    37  F    5.508755   6.811755   7.541007   4.820255   3.529494
    38  F    5.794675   7.077872   7.975501   5.363318   4.141736
                   16         17         18         19         20
    16  N    0.000000
    17  N    2.653554   0.000000
    18  H    7.126419   4.809526   0.000000
    19  H    6.967214   4.414450   1.773359   0.000000
    20  H    8.168332   5.620808   1.766485   1.760120   0.000000
    21  H    6.586497   4.027095   3.082063   2.500374   2.514659
    22  H    6.896359   4.582240   2.557006   3.079471   2.445232
    23  H    4.639683   2.555242   3.852114   3.918524   4.309589
    24  H    3.949991   2.747470   3.965260   4.645557   5.218203
    25  H    5.133630   3.421640   2.481412   3.444254   4.056398
    26  H    5.671910   4.031269   3.014911   4.164754   4.148403
    27  H    4.678399   2.088935   3.995139   3.001589   4.197807
    28  H    5.221278   3.059218   3.808090   2.704438   4.443067
    29  H    5.247923   3.157179   2.549097   2.365402   3.800736
    30  H    3.386269   4.047269   6.996016   6.783420   8.307885
    31  H    5.075280   7.354994  10.870939  10.957033  12.294986
    32  H    5.997086   7.972756  11.288046  11.220498  12.694743
    33  H    5.081101   7.327554  11.238149  11.038622  12.508249
    34  H    3.356704   5.943030  10.122444  10.059223  11.345759
    35  H    2.052816   4.541585   9.006165   8.921228  10.011936
    36  Ni   2.079631   2.054889   6.400401   6.202386   7.122108
    37  F    2.962845   3.333812   7.831311   7.334774   8.297931
    38  F    3.248269   2.839528   5.788367   6.073163   6.618074
                   21         22         23         24         25
    21  H    0.000000
    22  H    1.753686   0.000000
    23  H    2.429497   2.421138   0.000000
    24  H    4.275790   3.675879   2.323130   0.000000
    25  H    3.980165   3.322829   3.053172   1.794788   0.000000
    26  H    3.719409   2.487382   2.495690   1.760891   1.765746
    27  H    2.446848   3.666242   2.480021   3.826477   3.824513
    28  H    4.010499   4.909423   4.275330   4.529141   3.770994
    29  H    3.850560   4.074766   3.764242   3.375649   2.153059
    30  H    7.598580   7.935687   6.341215   5.135026   5.245181
    31  H   11.280192  11.356127   9.393615   7.862609   8.632098
    32  H   11.852791  12.073854  10.224159   8.763957   9.248935
    33  H   11.334441  11.681521   9.613867   8.436226   9.183312
    34  H    9.926467  10.141558   7.934012   6.817432   7.920902
    35  H    8.245537   8.474810   6.116516   5.470697   6.912022
    36  Ni   5.145339   5.501576   3.085875   3.340526   4.753633
    37  F    6.067963   6.755697   4.398275   5.122825   6.445800
    38  F    4.862706   4.625206   2.441951   2.278855   3.997209
                   26         27         28         29         30
    26  H    0.000000
    27  H    4.305665   0.000000
    28  H    5.065834   2.377145   0.000000
    29  H    3.677094   2.970866   1.784188   0.000000
    30  H    6.627194   5.558584   4.498690   4.556621   0.000000
    31  H    9.539278   9.318375   8.850629   8.707176   4.480357
    32  H   10.399837   9.755446   8.909438   8.951507   4.447258
    33  H   10.163475   9.151204   8.680517   8.901185   4.475685
    34  H    8.572039   7.935749   8.009501   8.042699   4.323864
    35  H    7.158209   6.474915   7.246437   7.271414   4.909681
    36  Ni   4.753353   3.639759   5.094128   5.105376   5.036209
    37  F    6.423238   4.430766   6.038373   6.477659   5.980372
    38  F    3.452803   4.171743   5.658286   5.099687   5.849334
                   31         32         33         34         35
    31  H    0.000000
    32  H    1.787020   0.000000
    33  H    1.793428   1.787027   0.000000
    34  H    2.362305   3.653098   2.364398   0.000000
    35  H    4.717732   5.999479   4.718846   2.485307   0.000000
    36  Ni   7.098416   8.076714   7.104047   5.230355   3.163045
    37  F    7.636560   8.551233   7.278040   5.475558   3.285208
    38  F    7.779173   8.925808   8.167292   6.157437   4.152823
                   36         37         38
    36  Ni   0.000000
    37  F    1.808027   0.000000
    38  F    1.837942   3.411301   0.000000
 Stoichiometry    C13H18F2N2NiO2(3)
 Framework group  C1[X(C13H18F2N2NiO2)]
 Deg. of freedom   108
 Full point group                 C1      NOp   1
 Largest Abelian subgroup         C1      NOp   1
 Largest concise Abelian subgroup C1      NOp   1
                         Standard orientation:                         
 ---------------------------------------------------------------------
 Center     Atomic      Atomic             Coordinates (Angstroms)
 Number     Number       Type             X           Y           Z
 ---------------------------------------------------------------------
      1          6           0        5.078431   -1.969839   -0.009854
      2          6           0        4.717884   -0.485756    0.124025
      3          6           0        3.241189   -0.156352    0.414036
      4          6           0        2.735995   -0.670397    1.767277
      5          6           0        2.318846   -0.564962   -0.757724
      6          6           0        1.939436   -2.073306   -0.870122
      7          8           0        0.494650   -2.118670   -0.611097
      8          6           0        0.113753   -0.839361   -0.494170
      9          6           0       -1.285466   -0.496434   -0.206612
     10          6           0       -2.313079   -1.419747   -0.171292
     11          6           0       -3.611378   -0.956175    0.102916
     12          8           0       -4.580514   -1.889274    0.126896
     13          6           0       -5.918132   -1.471086    0.396564
     14          6           0       -3.804499    0.413755    0.321214
     15          6           0       -2.698570    1.261085    0.263216
     16          7           0       -1.464430    0.826934    0.015562
     17          7           0        1.002065    0.074571   -0.610299
     18          1           0        4.755789   -2.545492    0.864951
     19          1           0        4.628224   -2.426335   -0.899796
     20          1           0        6.162580   -2.094735   -0.103671
     21          1           0        5.024956    0.039964   -0.790971
     22          1           0        5.313541   -0.051081    0.936409
     23          1           0        3.151585    0.934477    0.471083
     24          1           0        1.799181   -0.163327    2.008212
     25          1           0        2.596370   -1.757784    1.799740
     26          1           0        3.455942   -0.410737    2.551044
     27          1           0        2.764810   -0.211321   -1.694109
     28          1           0        2.103360   -2.488041   -1.866875
     29          1           0        2.411723   -2.708152   -0.123375
     30          1           0       -2.132978   -2.472145   -0.353138
     31          1           0       -5.993209   -1.008079    1.387188
     32          1           0       -6.520152   -2.379225    0.369481
     33          1           0       -6.272565   -0.770573   -0.368356
     34          1           0       -4.781518    0.829605    0.529745
     35          1           0       -2.803367    2.330010    0.418134
     36         28           0        0.290630    1.935725   -0.107769
     37          9           0       -0.187842    3.081051   -1.422399
     38          9           0        1.191742    1.971966    1.493704
 ---------------------------------------------------------------------
 Rotational constants (GHZ):           0.4819780           0.1828279           0.1466104
 Basis read from rwf:  (6D, 7F)
 Pseudo-potential data read from rwf file.
 There are   398 symmetry adapted cartesian basis functions of A   symmetry.
 There are   395 symmetry adapted basis functions of A   symmetry.
   395 basis functions,   758 primitive gaussians,   398 cartesian basis functions
    82 alpha electrons       80 beta electrons
       nuclear repulsion energy      1876.8576779856 Hartrees.
 NAtoms=   38 NActive=   38 NUniq=   38 SFac= 1.00D+00 NAtFMM=   60 NAOKFM=F Big=F
 Integral buffers will be    131072 words long.
 Raffenetti 2 integral format.
 Two-electron integral symmetry is turned on.
 Nuclear repulsion after empirical dispersion term =     1876.7778604307 Hartrees.
 One-electron integrals computed using PRISM.
 PrsmSu:  requested number of processors reduced to:  12 ShMem   1 Linda.
   1 Symmetry operations used in ECPInt.
 ECPInt:  NShTT=    8911 NPrTT=   52776 LenC2=    7761 LenP2D=   27078.
 LDataN:  DoStor=T MaxTD1= 6 Len=  172
 NBasis=   395 RedAO= T EigKep=  1.12D-06  NBF=   395
 NBsUse=   395 1.00D-06 EigRej= -1.00D+00 NBFU=   395
 Initial guess from the checkpoint file:  "Lig2214_xyz_3.chk"
 B after Tr=    -0.000000   -0.000000   -0.000000
         Rot=    0.999999    0.000849   -0.001192   -0.000343 Ang=   0.17 deg.
 Initial guess <Sx>= 0.0000 <Sy>= 0.0000 <Sz>= 1.0000 <S**2>= 2.0064 S= 1.0021
 ExpMin= 2.40D-02 ExpMax= 7.14D+04 ExpMxC= 1.07D+04 IAcc=3 IRadAn=         5 AccDes= 0.00D+00
 Harris functional with IExCor=  402 and IRadAn=       5 diagonalized for initial guess.
 HarFok:  IExCor=  402 AccDes= 0.00D+00 IRadAn=         5 IDoV= 1 UseB2=F ITyADJ=14
 ICtDFT=  3500011 ScaDFX=  1.000000  1.000000  1.000000  1.000000
 FoFCou: FMM=F IPFlag=           0 FMFlag=      100000 FMFlg1=           0
         NFxFlg=           0 DoJE=T BraDBF=F KetDBF=T FulRan=T
         wScrn=  0.000000 ICntrl=       500 IOpCl=  0 I1Cent=   200000004 NGrid=           0
         NMat0=    1 NMatS0=      1 NMatT0=    0 NMatD0=    1 NMtDS0=    0 NMtDT0=    0
 Petite list used in FoFCou.
 Requested convergence on RMS density matrix=1.00D-08 within  32 cycles.
 Requested convergence on MAX density matrix=1.00D-06.
 Requested convergence on             energy=1.00D-06.
 No special actions if energy rises.
 Restarting incremental Fock formation.
