 Entering Gaussian System, Link 0=g16
 Input=Lig2126_xyz_2.com
 Output=Lig2126_xyz_2.log
 Initial command:
 /uufs/chpc.utah.edu/sys/installdir/gaussian16/C01/AVX/g16/l1.exe "/scratch/general/vast/u1365460/GAUSSSCRDIR/11267750-notchpeak.peaks/Gau-1361639.inp" -scrdir="/scratch/general/vast/u1365460/GAUSSSCRDIR/11267750-notchpeak.peaks/"
 Entering Link 1 = /uufs/chpc.utah.edu/sys/installdir/gaussian16/C01/AVX/g16/l1.exe PID=   1361642.
  
 Copyright (c) 1988-2019, Gaussian, Inc.  All Rights Reserved.
  
 This is part of the Gaussian(R) 16 program.  It is based on
 the Gaussian(R) 09 system (copyright 2009, Gaussian, Inc.),
 the Gaussian(R) 03 system (copyright 2003, Gaussian, Inc.),
 the Gaussian(R) 98 system (copyright 1998, Gaussian, Inc.),
 the Gaussian(R) 94 system (copyright 1995, Gaussian, Inc.),
 the Gaussian 92(TM) system (copyright 1992, Gaussian, Inc.),
 the Gaussian 90(TM) system (copyright 1990, Gaussian, Inc.),
 the Gaussian 88(TM) system (copyright 1988, Gaussian, Inc.),
 the Gaussian 86(TM) system (copyright 1986, Carnegie Mellon
 University), and the Gaussian 82(TM) system (copyright 1983,
 Carnegie Mellon University). Gaussian is a federally registered
 trademark of Gaussian, Inc.
  
 This software contains proprietary and confidential information,
 including trade secrets, belonging to Gaussian, Inc.
  
 This software is provided under written license and may be
 used, copied, transmitted, or stored only in accord with that
 written license.
  
 The following legend is applicable only to US Government
 contracts under FAR:
  
                    RESTRICTED RIGHTS LEGEND
  
 Use, reproduction and disclosure by the US Government is
 subject to restrictions as set forth in subparagraphs (a)
 and (c) of the Commercial Computer Software - Restricted
 Rights clause in FAR 52.227-19.
  
 Gaussian, Inc.
 340 Quinnipiac St., Bldg. 40, Wallingford CT 06492
  
  
 ---------------------------------------------------------------
 Warning -- This program may not be used in any manner that
 competes with the business of Gaussian, Inc. or will provide
 assistance to any competitor of Gaussian, Inc.  The licensee
 of this program is prohibited from giving any competitor of
 Gaussian, Inc. access to this program.  By using this program,
 the user acknowledges that Gaussian, Inc. is engaged in the
 business of creating and licensing software in the field of
 computational chemistry and represents and warrants to the
 licensee that it is not a competitor of Gaussian, Inc. and that
 it will not use this program in any manner prohibited above.
 ---------------------------------------------------------------
  

 Cite this work as:
 Gaussian 16, Revision C.01,
 M. J. Frisch, G. W. Trucks, H. B. Schlegel, G. E. Scuseria, 
 M. A. Robb, J. R. Cheeseman, G. Scalmani, V. Barone, 
 G. A. Petersson, H. Nakatsuji, X. Li, M. Caricato, A. V. Marenich, 
 J. Bloino, B. G. Janesko, R. Gomperts, B. Mennucci, H. P. Hratchian, 
 J. V. Ortiz, A. F. Izmaylov, J. L. Sonnenberg, D. Williams-Young, 
 F. Ding, F. Lipparini, F. Egidi, J. Goings, B. Peng, A. Petrone, 
 T. Henderson, D. Ranasinghe, V. G. Zakrzewski, J. Gao, N. Rega, 
 G. Zheng, W. Liang, M. Hada, M. Ehara, K. Toyota, R. Fukuda, 
 J. Hasegawa, M. Ishida, T. Nakajima, Y. Honda, O. Kitao, H. Nakai, 
 T. Vreven, K. Throssell, J. A. Montgomery, Jr., J. E. Peralta, 
 F. Ogliaro, M. J. Bearpark, J. J. Heyd, E. N. Brothers, K. N. Kudin, 
 V. N. Staroverov, T. A. Keith, R. Kobayashi, J. Normand, 
 K. Raghavachari, A. P. Rendell, J. C. Burant, S. S. Iyengar, 
 J. Tomasi, M. Cossi, J. M. Millam, M. Klene, C. Adamo, R. Cammi, 
 J. W. Ochterski, R. L. Martin, K. Morokuma, O. Farkas, 
 J. B. Foresman, and D. J. Fox, Gaussian, Inc., Wallingford CT, 2019.
 
 ******************************************
 Gaussian 16:  ES64L-G16RevC.01  3-Jul-2019
                 6-Mar-2026 
 ******************************************
 %NProcShared=16
 Will use up to   16 processors via shared memory.
 %chk=Lig2126_xyz_2.chk
 ----------------------------------------------------------------------
 # B3LYP gen 6D pseudo=read int=(grid=fine) empiricaldispersion=GD3BJ o
 pt freq=noraman
 ----------------------------------------------------------------------
 1/18=20,19=15,26=3,38=1/1,3;
 2/9=110,12=2,17=6,18=5,40=1/2;
 3/5=7,8=2,11=2,16=1,17=8,25=1,30=1,71=1,74=-5,75=-4,124=41/1,2,3;
 4//1;
 5/5=2,38=5/2;
 6/7=2,8=2,9=2,10=2,28=1/1;
 7//1,2,3,16;
 1/18=20,19=15,26=3/3(2);
 2/9=110/2;
 99//99;
 2/9=110/2;
 3/5=7,6=1,8=2,11=2,16=1,17=8,25=1,30=1,71=1,74=-5,75=-4,82=7,124=41/1,2,3;
 4/5=5,16=3,69=1/1;
 5/5=2,38=5/2;
 7//1,2,3,16;
 1/18=20,19=15,26=3/3(-5);
 2/9=110/2;
 6/7=2,8=2,9=2,10=2,19=2,28=1/1;
 99/9=1/99;
 -----------
 Lig2126.xyz
 -----------
 Symbolic Z-matrix:
 Charge =  0 Multiplicity = 3
 C                     3.5849   -7.5606   -0.9239 
 O                     2.9198   -6.4835   -1.5747 
 C                     2.7      -5.3105   -0.8842 
 C                     3.0817   -5.0883    0.4498 
 C                     2.8014   -3.8435    1.0114 
 C                     3.1328   -3.4152    2.3525 
 N                     2.8174   -2.2626    2.7246 
 C                     3.2693   -2.0471    4.0776 
 C                     2.0765   -1.8868    5.0952 
 C                     1.1638   -3.1376    5.1598 
 C                     1.1984   -0.6734    4.7067 
 C                     2.6342   -1.609     6.5118 
 C                     4.1852   -3.2745    4.3197 
 O                     3.8462   -4.1471    3.2495 
 N                     2.1835   -2.8421    0.3298 
 C                     1.7577   -3.0677   -0.9463 
 C                     0.9506   -1.9645   -1.6589 
 C                    -0.5785   -2.1407   -1.5543 
 C                    -1.3772   -1.027    -1.2643 
 C                    -2.7567   -1.161    -1.1361 
 C                    -3.3455   -2.4131   -1.2888 
 C                    -2.5652   -3.5332   -1.562 
 C                    -1.1851   -3.399    -1.6877 
 C                     1.4629   -1.6736   -3.0806 
 C                     2.5161   -0.7668   -3.2545 
 C                     2.9825   -0.4664   -4.5313 
 C                     2.3893   -1.0632   -5.6407 
 C                     1.3293   -1.9525   -5.4845 
 C                     0.8625   -2.2525   -4.2077 
 C                     2.0398   -4.2904   -1.5772 
 H                     3.6746   -8.3981   -1.6158 
 H                     4.5929   -7.2808   -0.6138 
 H                     3.0257   -7.9104   -0.0547 
 H                     3.5842   -5.8442    1.0322 
 H                     3.8734   -1.1366    4.0892 
 H                     0.3508   -3.0014    5.8745 
 H                     1.7071   -4.0324    5.4625 
 H                     0.7014   -3.3485    4.1945 
 H                     0.4364   -0.466     5.4595 
 H                     0.6661   -0.8441    3.7717 
 H                     1.7888    0.2356    4.586 
 H                     1.8324   -1.4126    7.2256 
 H                     3.2894   -0.7368    6.5217 
 H                     3.2031   -2.4489    6.9097 
 H                     4.037    -3.767     5.28 
 H                     5.2397   -3.0019    4.2452 
 H                     1.1415   -1.0492   -1.1049 
 H                    -0.9299   -0.0516   -1.1275 
 H                    -3.3639   -0.2963   -0.9109 
 H                    -4.416    -2.5163   -1.1867 
 H                    -3.0287   -4.5027   -1.6719 
 H                    -0.5993   -4.2806   -1.8969 
 H                     2.9762   -0.2887   -2.4003 
 H                     3.7966    0.2322   -4.6592 
 H                     2.7487   -0.8268   -6.6317 
 H                     0.8661   -2.4026   -6.3506 
 H                     0.032    -2.9352   -4.1034 
 H                     1.7315   -4.4653   -2.5975 
 Ni                    2.2142   -1.2491    1.3174 
 F                     0.5411   -0.4555    1.5773 
 F                     3.4221    0.0349    0.6937 
 

 GradGradGradGradGradGradGradGradGradGradGradGradGradGradGradGradGradGrad
 Berny optimization.
 Initialization pass.
                           ----------------------------
                           !    Initial Parameters    !
                           ! (Angstroms and Degrees)  !
 --------------------------                            --------------------------
 ! Name  Definition              Value          Derivative Info.                !
 --------------------------------------------------------------------------------
 ! R1    R(1,2)                  1.4234         estimate D2E/DX2                !
 ! R2    R(1,31)                 1.09           estimate D2E/DX2                !
 ! R3    R(1,32)                 1.0911         estimate D2E/DX2                !
 ! R4    R(1,33)                 1.0911         estimate D2E/DX2                !
 ! R5    R(2,3)                  1.3788         estimate D2E/DX2                !
 ! R6    R(3,4)                  1.4052         estimate D2E/DX2                !
 ! R7    R(3,30)                 1.3988         estimate D2E/DX2                !
 ! R8    R(4,5)                  1.3941         estimate D2E/DX2                !
 ! R9    R(4,34)                 1.0785         estimate D2E/DX2                !
 ! R10   R(5,6)                  1.4463         estimate D2E/DX2                !
 ! R11   R(5,15)                 1.3598         estimate D2E/DX2                !
 ! R12   R(6,7)                  1.2516         estimate D2E/DX2                !
 ! R13   R(6,14)                 1.3599         estimate D2E/DX2                !
 ! R14   R(7,8)                  1.4427         estimate D2E/DX2                !
 ! R15   R(7,59)                 1.8361         estimate D2E/DX2                !
 ! R16   R(8,9)                  1.5761         estimate D2E/DX2                !
 ! R17   R(8,13)                 1.5505         estimate D2E/DX2                !
 ! R18   R(8,35)                 1.0927         estimate D2E/DX2                !
 ! R19   R(9,10)                 1.5497         estimate D2E/DX2                !
 ! R20   R(9,11)                 1.5474         estimate D2E/DX2                !
 ! R21   R(9,12)                 1.5476         estimate D2E/DX2                !
 ! R22   R(10,36)                1.091          estimate D2E/DX2                !
 ! R23   R(10,37)                1.0897         estimate D2E/DX2                !
 ! R24   R(10,38)                1.0909         estimate D2E/DX2                !
 ! R25   R(11,39)                1.091          estimate D2E/DX2                !
 ! R26   R(11,40)                1.0894         estimate D2E/DX2                !
 ! R27   R(11,41)                1.0906         estimate D2E/DX2                !
 ! R28   R(12,42)                1.0913         estimate D2E/DX2                !
 ! R29   R(12,43)                1.0909         estimate D2E/DX2                !
 ! R30   R(12,44)                1.0897         estimate D2E/DX2                !
 ! R31   R(13,14)                1.4219         estimate D2E/DX2                !
 ! R32   R(13,45)                1.0894         estimate D2E/DX2                !
 ! R33   R(13,46)                1.0917         estimate D2E/DX2                !
 ! R34   R(15,16)                1.364          estimate D2E/DX2                !
 ! R35   R(15,59)                1.8746         estimate D2E/DX2                !
 ! R36   R(16,17)                1.5415         estimate D2E/DX2                !
 ! R37   R(16,30)                1.4045         estimate D2E/DX2                !
 ! R38   R(17,18)                1.5428         estimate D2E/DX2                !
 ! R39   R(17,24)                1.5389         estimate D2E/DX2                !
 ! R40   R(17,47)                1.0868         estimate D2E/DX2                !
 ! R41   R(18,19)                1.4008         estimate D2E/DX2                !
 ! R42   R(18,23)                1.4032         estimate D2E/DX2                !
 ! R43   R(19,20)                1.3919         estimate D2E/DX2                !
 ! R44   R(19,48)                1.0818         estimate D2E/DX2                !
 ! R45   R(20,21)                1.392          estimate D2E/DX2                !
 ! R46   R(20,49)                1.0803         estimate D2E/DX2                !
 ! R47   R(21,22)                1.3922         estimate D2E/DX2                !
 ! R48   R(21,50)                1.0803         estimate D2E/DX2                !
 ! R49   R(22,23)                1.3923         estimate D2E/DX2                !
 ! R50   R(22,51)                1.0802         estimate D2E/DX2                !
 ! R51   R(23,52)                1.079          estimate D2E/DX2                !
 ! R52   R(24,25)                1.4006         estimate D2E/DX2                !
 ! R53   R(24,29)                1.4021         estimate D2E/DX2                !
 ! R54   R(25,26)                1.3921         estimate D2E/DX2                !
 ! R55   R(25,53)                1.0816         estimate D2E/DX2                !
 ! R56   R(26,27)                1.3924         estimate D2E/DX2                !
 ! R57   R(26,54)                1.0804         estimate D2E/DX2                !
 ! R58   R(27,28)                1.3924         estimate D2E/DX2                !
 ! R59   R(27,55)                1.0803         estimate D2E/DX2                !
 ! R60   R(28,29)                1.3922         estimate D2E/DX2                !
 ! R61   R(28,56)                1.0804         estimate D2E/DX2                !
 ! R62   R(29,57)                1.0801         estimate D2E/DX2                !
 ! R63   R(30,58)                1.0801         estimate D2E/DX2                !
 ! R64   R(59,60)                1.8699         estimate D2E/DX2                !
 ! R65   R(59,61)                1.8699         estimate D2E/DX2                !
 ! A1    A(2,1,31)             109.2465         estimate D2E/DX2                !
 ! A2    A(2,1,32)             111.5658         estimate D2E/DX2                !
 ! A3    A(2,1,33)             111.5517         estimate D2E/DX2                !
 ! A4    A(31,1,32)            107.5419         estimate D2E/DX2                !
 ! A5    A(31,1,33)            107.548          estimate D2E/DX2                !
 ! A6    A(32,1,33)            109.2244         estimate D2E/DX2                !
 ! A7    A(1,2,3)              119.2938         estimate D2E/DX2                !
 ! A8    A(2,3,4)              124.5169         estimate D2E/DX2                !
 ! A9    A(2,3,30)             116.5864         estimate D2E/DX2                !
 ! A10   A(4,3,30)             118.8943         estimate D2E/DX2                !
 ! A11   A(3,4,5)              117.9697         estimate D2E/DX2                !
 ! A12   A(3,4,34)             121.897          estimate D2E/DX2                !
 ! A13   A(5,4,34)             120.1313         estimate D2E/DX2                !
 ! A14   A(4,5,6)              126.2911         estimate D2E/DX2                !
 ! A15   A(4,5,15)             123.1607         estimate D2E/DX2                !
 ! A16   A(6,5,15)             110.5371         estimate D2E/DX2                !
 ! A17   A(5,6,7)              119.3835         estimate D2E/DX2                !
 ! A18   A(5,6,14)             124.9223         estimate D2E/DX2                !
 ! A19   A(7,6,14)             115.5786         estimate D2E/DX2                !
 ! A20   A(6,7,8)              109.722          estimate D2E/DX2                !
 ! A21   A(6,7,59)             111.3011         estimate D2E/DX2                !
 ! A22   A(8,7,59)             137.666          estimate D2E/DX2                !
 ! A23   A(7,8,9)              112.5604         estimate D2E/DX2                !
 ! A24   A(7,8,13)             102.3116         estimate D2E/DX2                !
 ! A25   A(7,8,35)             107.914          estimate D2E/DX2                !
 ! A26   A(9,8,13)             115.2627         estimate D2E/DX2                !
 ! A27   A(9,8,35)             109.0743         estimate D2E/DX2                !
 ! A28   A(13,8,35)            109.3524         estimate D2E/DX2                !
 ! A29   A(8,9,10)             112.9884         estimate D2E/DX2                !
 ! A30   A(8,9,11)             110.3121         estimate D2E/DX2                !
 ! A31   A(8,9,12)             109.6661         estimate D2E/DX2                !
 ! A32   A(10,9,11)            108.0088         estimate D2E/DX2                !
 ! A33   A(10,9,12)            108.6001         estimate D2E/DX2                !
 ! A34   A(11,9,12)            107.0715         estimate D2E/DX2                !
 ! A35   A(9,10,36)            111.433          estimate D2E/DX2                !
 ! A36   A(9,10,37)            112.3765         estimate D2E/DX2                !
 ! A37   A(9,10,38)            111.6402         estimate D2E/DX2                !
 ! A38   A(36,10,37)           106.9817         estimate D2E/DX2                !
 ! A39   A(36,10,38)           106.7339         estimate D2E/DX2                !
 ! A40   A(37,10,38)           107.3601         estimate D2E/DX2                !
 ! A41   A(9,11,39)            111.8495         estimate D2E/DX2                !
 ! A42   A(9,11,40)            111.71           estimate D2E/DX2                !
 ! A43   A(9,11,41)            111.9733         estimate D2E/DX2                !
 ! A44   A(39,11,40)           106.3038         estimate D2E/DX2                !
 ! A45   A(39,11,41)           107.2181         estimate D2E/DX2                !
 ! A46   A(40,11,41)           107.4658         estimate D2E/DX2                !
 ! A47   A(9,12,42)            111.485          estimate D2E/DX2                !
 ! A48   A(9,12,43)            111.6084         estimate D2E/DX2                !
 ! A49   A(9,12,44)            112.5838         estimate D2E/DX2                !
 ! A50   A(42,12,43)           106.9442         estimate D2E/DX2                !
 ! A51   A(42,12,44)           106.4665         estimate D2E/DX2                !
 ! A52   A(43,12,44)           107.4197         estimate D2E/DX2                !
 ! A53   A(8,13,14)            103.1474         estimate D2E/DX2                !
 ! A54   A(8,13,45)            114.5305         estimate D2E/DX2                !
 ! A55   A(8,13,46)            111.2391         estimate D2E/DX2                !
 ! A56   A(14,13,45)           110.7086         estimate D2E/DX2                !
 ! A57   A(14,13,46)           109.4007         estimate D2E/DX2                !
 ! A58   A(45,13,46)           107.7253         estimate D2E/DX2                !
 ! A59   A(6,14,13)            106.9333         estimate D2E/DX2                !
 ! A60   A(5,15,16)            119.2724         estimate D2E/DX2                !
 ! A61   A(5,15,59)            110.7497         estimate D2E/DX2                !
 ! A62   A(16,15,59)           129.6829         estimate D2E/DX2                !
 ! A63   A(15,16,17)           118.5251         estimate D2E/DX2                !
 ! A64   A(15,16,30)           120.1006         estimate D2E/DX2                !
 ! A65   A(17,16,30)           121.3682         estimate D2E/DX2                !
 ! A66   A(16,17,18)           113.945          estimate D2E/DX2                !
 ! A67   A(16,17,24)           112.8328         estimate D2E/DX2                !
 ! A68   A(16,17,47)           105.9688         estimate D2E/DX2                !
 ! A69   A(18,17,24)           114.467          estimate D2E/DX2                !
 ! A70   A(18,17,47)           103.6343         estimate D2E/DX2                !
 ! A71   A(24,17,47)           104.6699         estimate D2E/DX2                !
 ! A72   A(17,18,19)           119.2317         estimate D2E/DX2                !
 ! A73   A(17,18,23)           121.6295         estimate D2E/DX2                !
 ! A74   A(19,18,23)           119.0856         estimate D2E/DX2                !
 ! A75   A(18,19,20)           120.5044         estimate D2E/DX2                !
 ! A76   A(18,19,48)           120.4829         estimate D2E/DX2                !
 ! A77   A(20,19,48)           119.0102         estimate D2E/DX2                !
 ! A78   A(19,20,21)           119.7157         estimate D2E/DX2                !
 ! A79   A(19,20,49)           119.946          estimate D2E/DX2                !
 ! A80   A(21,20,49)           120.3363         estimate D2E/DX2                !
 ! A81   A(20,21,22)           120.5403         estimate D2E/DX2                !
 ! A82   A(20,21,50)           119.65           estimate D2E/DX2                !
 ! A83   A(22,21,50)           119.808          estimate D2E/DX2                !
 ! A84   A(21,22,23)           119.7192         estimate D2E/DX2                !
 ! A85   A(21,22,51)           120.1048         estimate D2E/DX2                !
 ! A86   A(23,22,51)           120.1756         estimate D2E/DX2                !
 ! A87   A(18,23,22)           120.4209         estimate D2E/DX2                !
 ! A88   A(18,23,52)           121.0925         estimate D2E/DX2                !
 ! A89   A(22,23,52)           118.4848         estimate D2E/DX2                !
 ! A90   A(17,24,25)           119.1699         estimate D2E/DX2                !
 ! A91   A(17,24,29)           121.4681         estimate D2E/DX2                !
 ! A92   A(25,24,29)           119.3069         estimate D2E/DX2                !
 ! A93   A(24,25,26)           120.3648         estimate D2E/DX2                !
 ! A94   A(24,25,53)           120.5294         estimate D2E/DX2                !
 ! A95   A(26,25,53)           119.1055         estimate D2E/DX2                !
 ! A96   A(25,26,27)           119.7046         estimate D2E/DX2                !
 ! A97   A(25,26,54)           120.0383         estimate D2E/DX2                !
 ! A98   A(27,26,54)           120.2557         estimate D2E/DX2                !
 ! A99   A(26,27,28)           120.5756         estimate D2E/DX2                !
 ! A100  A(26,27,55)           119.6923         estimate D2E/DX2                !
 ! A101  A(28,27,55)           119.7295         estimate D2E/DX2                !
 ! A102  A(27,28,29)           119.7202         estimate D2E/DX2                !
 ! A103  A(27,28,56)           120.1668         estimate D2E/DX2                !
 ! A104  A(29,28,56)           120.1116         estimate D2E/DX2                !
 ! A105  A(24,29,28)           120.3106         estimate D2E/DX2                !
 ! A106  A(24,29,57)           120.8357         estimate D2E/DX2                !
 ! A107  A(28,29,57)           118.8537         estimate D2E/DX2                !
 ! A108  A(3,30,16)            120.4719         estimate D2E/DX2                !
 ! A109  A(3,30,58)            118.9868         estimate D2E/DX2                !
 ! A110  A(16,30,58)           120.5281         estimate D2E/DX2                !
 ! A111  A(7,59,15)             86.5648         estimate D2E/DX2                !
 ! A112  A(7,59,60)            114.941          estimate D2E/DX2                !
 ! A113  A(7,59,61)            114.9887         estimate D2E/DX2                !
 ! A114  A(15,59,60)           114.7861         estimate D2E/DX2                !
 ! A115  A(15,59,61)           114.732          estimate D2E/DX2                !
 ! A116  A(60,59,61)           109.4453         estimate D2E/DX2                !
 ! D1    D(31,1,2,3)          -179.7803         estimate D2E/DX2                !
 ! D2    D(32,1,2,3)           -61.0117         estimate D2E/DX2                !
 ! D3    D(33,1,2,3)            61.4522         estimate D2E/DX2                !
 ! D4    D(1,2,3,4)             -0.4573         estimate D2E/DX2                !
 ! D5    D(1,2,3,30)          -179.8926         estimate D2E/DX2                !
 ! D6    D(2,3,4,5)            179.4579         estimate D2E/DX2                !
 ! D7    D(2,3,4,34)            -0.034          estimate D2E/DX2                !
 ! D8    D(30,3,4,5)            -1.1189         estimate D2E/DX2                !
 ! D9    D(30,3,4,34)          179.3892         estimate D2E/DX2                !
 ! D10   D(2,3,30,16)          179.1353         estimate D2E/DX2                !
 ! D11   D(2,3,30,58)            0.4494         estimate D2E/DX2                !
 ! D12   D(4,3,30,16)           -0.3332         estimate D2E/DX2                !
 ! D13   D(4,3,30,58)         -179.0192         estimate D2E/DX2                !
 ! D14   D(3,4,5,6)           -178.8585         estimate D2E/DX2                !
 ! D15   D(3,4,5,15)            -0.1879         estimate D2E/DX2                !
 ! D16   D(34,4,5,6)             0.6427         estimate D2E/DX2                !
 ! D17   D(34,4,5,15)          179.3133         estimate D2E/DX2                !
 ! D18   D(4,5,6,7)           -179.9661         estimate D2E/DX2                !
 ! D19   D(4,5,6,14)             4.1231         estimate D2E/DX2                !
 ! D20   D(15,5,6,7)             1.2222         estimate D2E/DX2                !
 ! D21   D(15,5,6,14)         -174.6886         estimate D2E/DX2                !
 ! D22   D(4,5,15,16)            2.9988         estimate D2E/DX2                !
 ! D23   D(4,5,15,59)         -171.3576         estimate D2E/DX2                !
 ! D24   D(6,5,15,16)         -178.1454         estimate D2E/DX2                !
 ! D25   D(6,5,15,59)            7.4983         estimate D2E/DX2                !
 ! D26   D(5,6,7,8)           -178.8055         estimate D2E/DX2                !
 ! D27   D(5,6,7,59)            -9.493          estimate D2E/DX2                !
 ! D28   D(14,6,7,8)            -2.5221         estimate D2E/DX2                !
 ! D29   D(14,6,7,59)          166.7903         estimate D2E/DX2                !
 ! D30   D(5,6,14,13)          168.1119         estimate D2E/DX2                !
 ! D31   D(7,6,14,13)           -7.938          estimate D2E/DX2                !
 ! D32   D(6,7,8,9)           -113.5176         estimate D2E/DX2                !
 ! D33   D(6,7,8,13)            10.7932         estimate D2E/DX2                !
 ! D34   D(6,7,8,35)           126.0712         estimate D2E/DX2                !
 ! D35   D(59,7,8,9)            81.3487         estimate D2E/DX2                !
 ! D36   D(59,7,8,13)         -154.3405         estimate D2E/DX2                !
 ! D37   D(59,7,8,35)          -39.0625         estimate D2E/DX2                !
 ! D38   D(6,7,59,15)           10.8629         estimate D2E/DX2                !
 ! D39   D(6,7,59,60)          126.665          estimate D2E/DX2                !
 ! D40   D(6,7,59,61)         -104.8865         estimate D2E/DX2                !
 ! D41   D(8,7,59,15)          175.8389         estimate D2E/DX2                !
 ! D42   D(8,7,59,60)          -68.359          estimate D2E/DX2                !
 ! D43   D(8,7,59,61)           60.0894         estimate D2E/DX2                !
 ! D44   D(7,8,9,10)            60.7199         estimate D2E/DX2                !
 ! D45   D(7,8,9,11)           -60.2864         estimate D2E/DX2                !
 ! D46   D(7,8,9,12)          -177.9777         estimate D2E/DX2                !
 ! D47   D(13,8,9,10)          -56.1115         estimate D2E/DX2                !
 ! D48   D(13,8,9,11)         -177.1178         estimate D2E/DX2                !
 ! D49   D(13,8,9,12)           65.191          estimate D2E/DX2                !
 ! D50   D(35,8,9,10)         -179.5389         estimate D2E/DX2                !
 ! D51   D(35,8,9,11)           59.4547         estimate D2E/DX2                !
 ! D52   D(35,8,9,12)          -58.2365         estimate D2E/DX2                !
 ! D53   D(7,8,13,14)          -14.5798         estimate D2E/DX2                !
 ! D54   D(7,8,13,45)         -134.9617         estimate D2E/DX2                !
 ! D55   D(7,8,13,46)          102.598          estimate D2E/DX2                !
 ! D56   D(9,8,13,14)          107.9139         estimate D2E/DX2                !
 ! D57   D(9,8,13,45)          -12.4679         estimate D2E/DX2                !
 ! D58   D(9,8,13,46)         -134.9082         estimate D2E/DX2                !
 ! D59   D(35,8,13,14)        -128.8059         estimate D2E/DX2                !
 ! D60   D(35,8,13,45)         110.8123         estimate D2E/DX2                !
 ! D61   D(35,8,13,46)         -11.628          estimate D2E/DX2                !
 ! D62   D(8,9,10,36)          179.7078         estimate D2E/DX2                !
 ! D63   D(8,9,10,37)           59.6465         estimate D2E/DX2                !
 ! D64   D(8,9,10,38)          -61.049          estimate D2E/DX2                !
 ! D65   D(11,9,10,36)         -57.9877         estimate D2E/DX2                !
 ! D66   D(11,9,10,37)        -178.049          estimate D2E/DX2                !
 ! D67   D(11,9,10,38)          61.2555         estimate D2E/DX2                !
 ! D68   D(12,9,10,36)          57.8043         estimate D2E/DX2                !
 ! D69   D(12,9,10,37)         -62.2571         estimate D2E/DX2                !
 ! D70   D(12,9,10,38)         177.0475         estimate D2E/DX2                !
 ! D71   D(8,9,11,39)         -173.1387         estimate D2E/DX2                !
 ! D72   D(8,9,11,40)           67.8359         estimate D2E/DX2                !
 ! D73   D(8,9,11,41)          -52.7617         estimate D2E/DX2                !
 ! D74   D(10,9,11,39)          62.9281         estimate D2E/DX2                !
 ! D75   D(10,9,11,40)         -56.0973         estimate D2E/DX2                !
 ! D76   D(10,9,11,41)        -176.6949         estimate D2E/DX2                !
 ! D77   D(12,9,11,39)         -53.8595         estimate D2E/DX2                !
 ! D78   D(12,9,11,40)        -172.885          estimate D2E/DX2                !
 ! D79   D(12,9,11,41)          66.5175         estimate D2E/DX2                !
 ! D80   D(8,9,12,42)          175.3872         estimate D2E/DX2                !
 ! D81   D(8,9,12,43)           55.8633         estimate D2E/DX2                !
 ! D82   D(8,9,12,44)          -65.0331         estimate D2E/DX2                !
 ! D83   D(10,9,12,42)         -60.7043         estimate D2E/DX2                !
 ! D84   D(10,9,12,43)         179.7718         estimate D2E/DX2                !
 ! D85   D(10,9,12,44)          58.8753         estimate D2E/DX2                !
 ! D86   D(11,9,12,42)          55.6925         estimate D2E/DX2                !
 ! D87   D(11,9,12,43)         -63.8314         estimate D2E/DX2                !
 ! D88   D(11,9,12,44)         175.2722         estimate D2E/DX2                !
 ! D89   D(8,13,14,6)           13.6625         estimate D2E/DX2                !
 ! D90   D(45,13,14,6)         136.6261         estimate D2E/DX2                !
 ! D91   D(46,13,14,6)        -104.8054         estimate D2E/DX2                !
 ! D92   D(5,15,16,17)         174.6953         estimate D2E/DX2                !
 ! D93   D(5,15,16,30)          -4.422          estimate D2E/DX2                !
 ! D94   D(59,15,16,17)        -12.1676         estimate D2E/DX2                !
 ! D95   D(59,15,16,30)        168.7151         estimate D2E/DX2                !
 ! D96   D(5,15,59,7)          -10.2064         estimate D2E/DX2                !
 ! D97   D(5,15,59,60)        -126.1566         estimate D2E/DX2                !
 ! D98   D(5,15,59,61)         105.7883         estimate D2E/DX2                !
 ! D99   D(16,15,59,7)         176.1934         estimate D2E/DX2                !
 ! D100  D(16,15,59,60)         60.2432         estimate D2E/DX2                !
 ! D101  D(16,15,59,61)        -67.8119         estimate D2E/DX2                !
 ! D102  D(15,16,17,18)        -95.0754         estimate D2E/DX2                !
 ! D103  D(15,16,17,24)        132.1846         estimate D2E/DX2                !
 ! D104  D(15,16,17,47)         18.2124         estimate D2E/DX2                !
 ! D105  D(30,16,17,18)         84.0302         estimate D2E/DX2                !
 ! D106  D(30,16,17,24)        -48.7099         estimate D2E/DX2                !
 ! D107  D(30,16,17,47)       -162.682          estimate D2E/DX2                !
 ! D108  D(15,16,30,3)           3.1563         estimate D2E/DX2                !
 ! D109  D(15,16,30,58)       -178.1781         estimate D2E/DX2                !
 ! D110  D(17,16,30,3)        -175.9354         estimate D2E/DX2                !
 ! D111  D(17,16,30,58)          2.7302         estimate D2E/DX2                !
 ! D112  D(16,17,18,19)        135.9879         estimate D2E/DX2                !
 ! D113  D(16,17,18,23)        -41.3349         estimate D2E/DX2                !
 ! D114  D(24,17,18,19)        -92.0572         estimate D2E/DX2                !
 ! D115  D(24,17,18,23)         90.6199         estimate D2E/DX2                !
 ! D116  D(47,17,18,19)         21.3132         estimate D2E/DX2                !
 ! D117  D(47,17,18,23)       -156.0096         estimate D2E/DX2                !
 ! D118  D(16,17,24,25)        -85.574          estimate D2E/DX2                !
 ! D119  D(16,17,24,29)         97.1433         estimate D2E/DX2                !
 ! D120  D(18,17,24,25)        141.941          estimate D2E/DX2                !
 ! D121  D(18,17,24,29)        -35.3416         estimate D2E/DX2                !
 ! D122  D(47,17,24,25)         29.1838         estimate D2E/DX2                !
 ! D123  D(47,17,24,29)       -148.0988         estimate D2E/DX2                !
 ! D124  D(17,18,19,20)       -178.6472         estimate D2E/DX2                !
 ! D125  D(17,18,19,48)          0.7776         estimate D2E/DX2                !
 ! D126  D(23,18,19,20)         -1.2556         estimate D2E/DX2                !
 ! D127  D(23,18,19,48)        178.1693         estimate D2E/DX2                !
 ! D128  D(17,18,23,22)        178.6996         estimate D2E/DX2                !
 ! D129  D(17,18,23,52)         -1.8007         estimate D2E/DX2                !
 ! D130  D(19,18,23,22)          1.3729         estimate D2E/DX2                !
 ! D131  D(19,18,23,52)       -179.1274         estimate D2E/DX2                !
 ! D132  D(18,19,20,21)          0.4178         estimate D2E/DX2                !
 ! D133  D(18,19,20,49)        179.9122         estimate D2E/DX2                !
 ! D134  D(48,19,20,21)       -179.0154         estimate D2E/DX2                !
 ! D135  D(48,19,20,49)          0.4789         estimate D2E/DX2                !
 ! D136  D(19,20,21,22)          0.3232         estimate D2E/DX2                !
 ! D137  D(19,20,21,50)        179.8518         estimate D2E/DX2                !
 ! D138  D(49,20,21,22)       -179.1691         estimate D2E/DX2                !
 ! D139  D(49,20,21,50)          0.3594         estimate D2E/DX2                !
 ! D140  D(20,21,22,23)         -0.2057         estimate D2E/DX2                !
 ! D141  D(20,21,22,51)        179.5466         estimate D2E/DX2                !
 ! D142  D(50,21,22,23)       -179.7335         estimate D2E/DX2                !
 ! D143  D(50,21,22,51)          0.0188         estimate D2E/DX2                !
 ! D144  D(21,22,23,18)         -0.6521         estimate D2E/DX2                !
 ! D145  D(21,22,23,52)        179.8353         estimate D2E/DX2                !
 ! D146  D(51,22,23,18)        179.5958         estimate D2E/DX2                !
 ! D147  D(51,22,23,52)          0.0832         estimate D2E/DX2                !
 ! D148  D(17,24,25,26)       -178.8009         estimate D2E/DX2                !
 ! D149  D(17,24,25,53)          1.0364         estimate D2E/DX2                !
 ! D150  D(29,24,25,26)         -1.4587         estimate D2E/DX2                !
 ! D151  D(29,24,25,53)        178.3786         estimate D2E/DX2                !
 ! D152  D(17,24,29,28)        178.7637         estimate D2E/DX2                !
 ! D153  D(17,24,29,57)         -1.1361         estimate D2E/DX2                !
 ! D154  D(25,24,29,28)          1.4847         estimate D2E/DX2                !
 ! D155  D(25,24,29,57)       -178.4151         estimate D2E/DX2                !
 ! D156  D(24,25,26,27)          0.5603         estimate D2E/DX2                !
 ! D157  D(24,25,26,54)       -179.8672         estimate D2E/DX2                !
 ! D158  D(53,25,26,27)       -179.2792         estimate D2E/DX2                !
 ! D159  D(53,25,26,54)          0.2932         estimate D2E/DX2                !
 ! D160  D(25,26,27,28)          0.3302         estimate D2E/DX2                !
 ! D161  D(25,26,27,55)        179.7469         estimate D2E/DX2                !
 ! D162  D(54,26,27,28)       -179.2413         estimate D2E/DX2                !
 ! D163  D(54,26,27,55)          0.1754         estimate D2E/DX2                !
 ! D164  D(26,27,28,29)         -0.3035         estimate D2E/DX2                !
 ! D165  D(26,27,28,56)        179.2589         estimate D2E/DX2                !
 ! D166  D(55,27,28,29)       -179.72           estimate D2E/DX2                !
 ! D167  D(55,27,28,56)         -0.1576         estimate D2E/DX2                !
 ! D168  D(27,28,29,24)         -0.6126         estimate D2E/DX2                !
 ! D169  D(27,28,29,57)        179.2892         estimate D2E/DX2                !
 ! D170  D(56,28,29,24)        179.8247         estimate D2E/DX2                !
 ! D171  D(56,28,29,57)         -0.2735         estimate D2E/DX2                !
 --------------------------------------------------------------------------------
 Trust Radius=3.00D-01 FncErr=1.00D-07 GrdErr=1.00D-06 EigMax=2.50D+02 EigMin=1.00D-04
 Number of steps in this run=    362 maximum allowed number of steps=    366.
 GradGradGradGradGradGradGradGradGradGradGradGradGradGradGradGradGradGrad

 Stoichiometry    C26H28F2N2NiO2(3)
 Framework group  C1[X(C26H28F2N2NiO2)]
 Deg. of freedom   177
 Full point group                 C1      NOp   1
 Largest Abelian subgroup         C1      NOp   1
 Largest concise Abelian subgroup C1      NOp   1
                         Standard orientation:                         
 ---------------------------------------------------------------------
 Center     Atomic      Atomic             Coordinates (Angstroms)
 Number     Number       Type             X           Y           Z
 ---------------------------------------------------------------------
      1          6           0        0.720030    5.190415    1.810159
      2          8           0        1.513408    4.064990    1.449587
      3          6           0        0.897953    2.940674    0.941493
      4          6           0       -0.488297    2.807971    0.753545
      5          6           0       -0.963969    1.612007    0.217919
      6          6           0       -2.344673    1.292724   -0.071099
      7          7           0       -2.628121    0.172983   -0.553031
      8          6           0       -4.049693    0.087921   -0.783601
      9          6           0       -4.750626   -0.974051    0.146391
     10          6           0       -4.596189   -0.653360    1.654702
     11          6           0       -4.160455   -2.381964   -0.106219
     12          6           0       -6.259247   -1.046614   -0.190884
     13          6           0       -4.506858    1.554665   -0.574650
     14          8           0       -3.388053    2.153949    0.066298
     15          7           0       -0.152163    0.578427   -0.131172
     16          6           0        1.188472    0.675475    0.101012
     17          6           0        2.076002   -0.551810   -0.185908
     18          6           0        2.341548   -1.435323    1.050629
     19          6           0        2.253846   -2.828015    0.927882
     20          6           0        2.460613   -3.649080    2.032650
     21          6           0        2.748161   -3.080890    3.270484
     22          6           0        2.823965   -1.698188    3.413734
     23          6           0        2.614628   -0.877288    2.308842
     24          6           0        3.333468   -0.201925   -1.001178
     25          6           0        3.250783   -0.158476   -2.398688
     26          6           0        4.378638    0.130873   -3.161713
     27          6           0        5.597041    0.366550   -2.530226
     28          6           0        5.698571    0.308587   -1.142716
     29          6           0        4.570813    0.018681   -0.379672
     30          6           0        1.731020    1.867520    0.608239
     31          1           0        1.368677    5.981677    2.186112
     32          1           0        0.177310    5.589981    0.952071
     33          1           0        0.010047    4.943453    2.601049
     34          1           0       -1.175662    3.600641    1.003111
     35          1           0       -4.204536   -0.194364   -1.827832
     36          1           0       -5.094387   -1.400576    2.274204
     37          1           0       -5.022088    0.314278    1.918814
     38          1           0       -3.548430   -0.641624    1.958281
     39          1           0       -4.707769   -3.154853    0.435497
     40          1           0       -3.125246   -2.450503    0.225971
     41          1           0       -4.183585   -2.650548   -1.162983
     42          1           0       -6.759160   -1.830962    0.379951
     43          1           0       -6.424783   -1.266942   -1.246427
     44          1           0       -6.783614   -0.118428    0.034758
     45          1           0       -5.404264    1.666534    0.032674
     46          1           0       -4.687429    2.052450   -1.529342
     47          1           0        1.493932   -1.195300   -0.840315
     48          1           0        2.015255   -3.280966   -0.025065
     49          1           0        2.389377   -4.721972    1.928057
     50          1           0        2.906075   -3.719047    4.127726
     51          1           0        3.040346   -1.264546    4.379122
     52          1           0        2.675445    0.191564    2.443011
     53          1           0        2.311880   -0.351514   -2.899813
     54          1           0        4.308391    0.165127   -4.239234
     55          1           0        6.473067    0.587035   -3.122763
     56          1           0        6.649819    0.480804   -0.660281
     57          1           0        4.667936   -0.034202    0.694786
     58          1           0        2.795205    1.962018    0.767083
     59         28           0       -1.115482   -0.741929   -1.049118
     60          9           0       -0.964429   -2.462786   -0.333266
     61          9           0       -0.798065   -0.803776   -2.890884
 ---------------------------------------------------------------------
 Rotational constants (GHZ):           0.1638731           0.0852853           0.0762409
 General basis read from cards:  (6D, 7F)
 ======================================================================================================
                                       Pseudopotential Parameters
 ======================================================================================================
  Center     Atomic      Valence      Angular      Power
  Number     Number     Electrons     Momentum     of R      Exponent        Coefficient   SO-Coeffient
 ======================================================================================================
    1          6
                                   No pseudopotential on this center.
    2          8
                                   No pseudopotential on this center.
    3          6
                                   No pseudopotential on this center.
    4          6
                                   No pseudopotential on this center.
    5          6
                                   No pseudopotential on this center.
    6          6
                                   No pseudopotential on this center.
    7          7
                                   No pseudopotential on this center.
    8          6
                                   No pseudopotential on this center.
    9          6
                                   No pseudopotential on this center.
   10          6
                                   No pseudopotential on this center.
   11          6
                                   No pseudopotential on this center.
   12          6
                                   No pseudopotential on this center.
   13          6
                                   No pseudopotential on this center.
   14          8
                                   No pseudopotential on this center.
   15          7
                                   No pseudopotential on this center.
   16          6
                                   No pseudopotential on this center.
   17          6
                                   No pseudopotential on this center.
   18          6
                                   No pseudopotential on this center.
   19          6
                                   No pseudopotential on this center.
   20          6
                                   No pseudopotential on this center.
   21          6
                                   No pseudopotential on this center.
   22          6
                                   No pseudopotential on this center.
   23          6
                                   No pseudopotential on this center.
   24          6
                                   No pseudopotential on this center.
   25          6
                                   No pseudopotential on this center.
   26          6
                                   No pseudopotential on this center.
   27          6
                                   No pseudopotential on this center.
   28          6
                                   No pseudopotential on this center.
   29          6
                                   No pseudopotential on this center.
   30          6
                                   No pseudopotential on this center.
   31          1
                                   No pseudopotential on this center.
   32          1
                                   No pseudopotential on this center.
   33          1
                                   No pseudopotential on this center.
   34          1
                                   No pseudopotential on this center.
   35          1
                                   No pseudopotential on this center.
   36          1
                                   No pseudopotential on this center.
   37          1
                                   No pseudopotential on this center.
   38          1
                                   No pseudopotential on this center.
   39          1
                                   No pseudopotential on this center.
   40          1
                                   No pseudopotential on this center.
   41          1
                                   No pseudopotential on this center.
   42          1
                                   No pseudopotential on this center.
   43          1
                                   No pseudopotential on this center.
   44          1
                                   No pseudopotential on this center.
   45          1
                                   No pseudopotential on this center.
   46          1
                                   No pseudopotential on this center.
   47          1
                                   No pseudopotential on this center.
   48          1
                                   No pseudopotential on this center.
   49          1
                                   No pseudopotential on this center.
   50          1
                                   No pseudopotential on this center.
   51          1
                                   No pseudopotential on this center.
   52          1
                                   No pseudopotential on this center.
   53          1
                                   No pseudopotential on this center.
   54          1
                                   No pseudopotential on this center.
   55          1
                                   No pseudopotential on this center.
   56          1
                                   No pseudopotential on this center.
   57          1
                                   No pseudopotential on this center.
   58          1
                                   No pseudopotential on this center.
   59         28           18
                                      D and up 
                                                     1      469.9324331      -10.00000000    0.00000000
                                                     2       85.4236411      -69.40848050    0.00000000
                                                     2       21.2674984      -12.09510200    0.00000000
                                      S - D
                                                     0      162.1686097        3.00000000    0.00000000
                                                     1      176.5333232       22.02536180    0.00000000
                                                     2       68.9562010      443.01810880    0.00000000
                                                     2       13.5792838      145.56964110    0.00000000
                                      P - D
                                                     0       69.0181506        5.00000000    0.00000000
                                                     1      275.5955596        4.98828240    0.00000000
                                                     2       47.1315453      256.69458530    0.00000000
                                                     2       12.9874075       78.47544500    0.00000000
   60          9
                                   No pseudopotential on this center.
   61          9
                                   No pseudopotential on this center.
 ======================================================================================================
 There are   613 symmetry adapted cartesian basis functions of A   symmetry.
 There are   610 symmetry adapted basis functions of A   symmetry.
   610 basis functions,  1162 primitive gaussians,   613 cartesian basis functions
   126 alpha electrons      124 beta electrons
       nuclear repulsion energy      3812.1225308012 Hartrees.
 NAtoms=   61 NActive=   61 NUniq=   61 SFac= 1.00D+00 NAtFMM=   60 NAOKFM=T Big=T
 Integral buffers will be    131072 words long.
 Raffenetti 2 integral format.
 Two-electron integral symmetry is turned on.
 Nuclear repulsion after empirical dispersion term =     3811.9768399740 Hartrees.
 One-electron integrals computed using PRISM.
 PrsmSu:  requested number of processors reduced to:  12 ShMem   1 Linda.
   1 Symmetry operations used in ECPInt.
 ECPInt:  NShTT=   21115 NPrTT=  128985 LenC2=   17017 LenP2D=   55466.
 LDataN:  DoStor=T MaxTD1= 6 Len=  172
 Number of processors reduced to  12 by ecpmxn.
 NBasis=   610 RedAO= T EigKep=  6.98D-06  NBF=   610
 NBsUse=   609 1.00D-06 EigRej=  9.81D-07 NBFU=   609
 ExpMin= 2.40D-02 ExpMax= 7.14D+04 ExpMxC= 1.07D+04 IAcc=3 IRadAn=         5 AccDes= 0.00D+00
 Harris functional with IExCor=  402 and IRadAn=       5 diagonalized for initial guess.
 HarFok:  IExCor=  402 AccDes= 0.00D+00 IRadAn=         5 IDoV= 1 UseB2=F ITyADJ=14
 ICtDFT=  3500011 ScaDFX=  1.000000  1.000000  1.000000  1.000000
 FoFCou: FMM=F IPFlag=           0 FMFlag=      100000 FMFlg1=        2001
         NFxFlg=           0 DoJE=T BraDBF=F KetDBF=T FulRan=T
         wScrn=  0.000000 ICntrl=       500 IOpCl=  0 I1Cent=   200000004 NGrid=           0
         NMat0=    1 NMatS0=      1 NMatT0=    0 NMatD0=    1 NMtDS0=    0 NMtDT0=    0
 Petite list used in FoFCou.
 Initial guess <Sx>= 0.0000 <Sy>= 0.0000 <Sz>= 1.0000 <S**2>= 2.0000 S= 1.0000
 Requested convergence on RMS density matrix=1.00D-08 within 128 cycles.
 Requested convergence on MAX density matrix=1.00D-06.
 Requested convergence on             energy=1.00D-06.
 No special actions if energy rises.
 EnCoef did   100 forward-backward iterations
 Restarting incremental Fock formation.
 SCF Done:  E(UB3LYP) =  -1636.83651871     A.U. after   36 cycles
            NFock= 36  Conv=0.77D-08     -V/T= 2.0485
 <Sx>= 0.0000 <Sy>= 0.0000 <Sz>= 1.0000 <S**2>= 2.0182 S= 1.0061
 <L.S>=  0.00000000000    
 Annihilation of the first spin contaminant:
 S**2 before annihilation     2.0182,   after     2.0001

 **********************************************************************

            Population analysis using the SCF Density.

 **********************************************************************

 Orbital symmetries:
 Alpha Orbitals:
       Occupied  (A) (A) (A) (A) (A) (A) (A) (A) (A) (A) (A) (A)
                 (A) (A) (A) (A) (A) (A) (A) (A) (A) (A) (A) (A)
                 (A) (A) (A) (A) (A) (A) (A) (A) (A) (A) (A) (A)
                 (A) (A) (A) (A) (A) (A) (A) (A) (A) (A) (A) (A)
                 (A) (A) (A) (A) (A) (A) (A) (A) (A) (A) (A) (A)
                 (A) (A) (A) (A) (A) (A) (A) (A) (A) (A) (A) (A)
                 (A) (A) (A) (A) (A) (A) (A) (A) (A) (A) (A) (A)
                 (A) (A) (A) (A) (A) (A) (A) (A) (A) (A) (A) (A)
                 (A) (A) (A) (A) (A) (A) (A) (A) (A) (A) (A) (A)
                 (A) (A) (A) (A) (A) (A) (A) (A) (A) (A) (A) (A)
                 (A) (A) (A) (A) (A) (A)
       Virtual   (A) (A) (A) (A) (A) (A) (A) (A) (A) (A) (A) (A)
                 (A) (A) (A) (A) (A) (A) (A) (A) (A) (A) (A) (A)
                 (A) (A) (A) (A) (A) (A) (A) (A) (A) (A) (A) (A)
                 (A) (A) (A) (A) (A) (A) (A) (A) (A) (A) (A) (A)
                 (A) (A) (A) (A) (A) (A) (A) (A) (A) (A) (A) (A)
                 (A) (A) (A) (A) (A) (A) (A) (A) (A) (A) (A) (A)
                 (A) (A) (A) (A) (A) (A) (A) (A) (A) (A) (A) (A)
                 (A) (A) (A) (A) (A) (A) (A) (A) (A) (A) (A) (A)
                 (A) (A) (A) (A) (A) (A) (A) (A) (A) (A) (A) (A)
                 (A) (A) (A) (A) (A) (A) (A) (A) (A) (A) (A) (A)
                 (A) (A) (A) (A) (A) (A) (A) (A) (A) (A) (A) (A)
                 (A) (A) (A) (A) (A) (A) (A) (A) (A) (A) (A) (A)
                 (A) (A) (A) (A) (A) (A) (A) (A) (A) (A) (A) (A)
                 (A) (A) (A) (A) (A) (A) (A) (A) (A) (A) (A) (A)
                 (A) (A) (A) (A) (A) (A) (A) (A) (A) (A) (A) (A)
                 (A) (A) (A) (A) (A) (A) (A) (A) (A) (A) (A) (A)
                 (A) (A) (A) (A) (A) (A) (A) (A) (A) (A) (A) (A)
                 (A) (A) (A) (A) (A) (A) (A) (A) (A) (A) (A) (A)
                 (A) (A) (A) (A) (A) (A) (A) (A) (A) (A) (A) (A)
                 (A) (A) (A) (A) (A) (A) (A) (A) (A) (A) (A) (A)
                 (A) (A) (A) (A) (A) (A) (A) (A) (A) (A) (A) (A)
                 (A) (A) (A) (A) (A) (A) (A) (A) (A) (A) (A) (A)
                 (A) (A) (A) (A) (A) (A) (A) (A) (A) (A) (A) (A)
                 (A) (A) (A) (A) (A) (A) (A) (A) (A) (A) (A) (A)
                 (A) (A) (A) (A) (A) (A) (A) (A) (A) (A) (A) (A)
                 (A) (A) (A) (A) (A) (A) (A) (A) (A) (A) (A) (A)
                 (A) (A) (A) (A) (A) (A) (A) (A) (A) (A) (A) (A)
                 (A) (A) (A) (A) (A) (A) (A) (A) (A) (A) (A) (A)
                 (A) (A) (A) (A) (A) (A) (A) (A) (A) (A) (A) (A)
                 (A) (A) (A) (A) (A) (A) (A) (A) (A) (A) (A) (A)
                 (A) (A) (A) (A) (A) (A) (A) (A) (A) (A) (A) (A)
                 (A) (A) (A) (A) (A) (A) (A) (A) (A) (A) (A) (A)
                 (A) (A) (A) (A) (A) (A) (A) (A) (A) (A) (A) (A)
                 (A) (A) (A) (A) (A) (A) (A) (A) (A) (A) (A) (A)
                 (A) (A) (A) (A) (A) (A) (A) (A) (A) (A) (A) (A)
                 (A) (A) (A) (A) (A) (A) (A) (A) (A) (A) (A) (A)
                 (A) (A) (A) (A) (A) (A) (A) (A) (A) (A) (A) (A)
                 (A) (A) (A) (A) (A) (A) (A) (A) (A) (A) (A) (A)
                 (A) (A) (A) (A) (A) (A) (A) (A) (A) (A) (A) (A)
                 (A) (A) (A) (A) (A) (A) (A) (A) (A) (A) (A) (A)
                 (A) (A) (A)
 Beta  Orbitals:
       Occupied  (A) (A) (A) (A) (A) (A) (A) (A) (A) (A) (A) (A)
                 (A) (A) (A) (A) (A) (A) (A) (A) (A) (A) (A) (A)
                 (A) (A) (A) (A) (A) (A) (A) (A) (A) (A) (A) (A)
                 (A) (A) (A) (A) (A) (A) (A) (A) (A) (A) (A) (A)
                 (A) (A) (A) (A) (A) (A) (A) (A) (A) (A) (A) (A)
                 (A) (A) (A) (A) (A) (A) (A) (A) (A) (A) (A) (A)
                 (A) (A) (A) (A) (A) (A) (A) (A) (A) (A) (A) (A)
                 (A) (A) (A) (A) (A) (A) (A) (A) (A) (A) (A) (A)
                 (A) (A) (A) (A) (A) (A) (A) (A) (A) (A) (A) (A)
                 (A) (A) (A) (A) (A) (A) (A) (A) (A) (A) (A) (A)
                 (A) (A) (A) (A)
       Virtual   (A) (A) (A) (A) (A) (A) (A) (A) (A) (A) (A) (A)
                 (A) (A) (A) (A) (A) (A) (A) (A) (A) (A) (A) (A)
                 (A) (A) (A) (A) (A) (A) (A) (A) (A) (A) (A) (A)
                 (A) (A) (A) (A) (A) (A) (A) (A) (A) (A) (A) (A)
                 (A) (A) (A) (A) (A) (A) (A) (A) (A) (A) (A) (A)
                 (A) (A) (A) (A) (A) (A) (A) (A) (A) (A) (A) (A)
                 (A) (A) (A) (A) (A) (A) (A) (A) (A) (A) (A) (A)
                 (A) (A) (A) (A) (A) (A) (A) (A) (A) (A) (A) (A)
                 (A) (A) (A) (A) (A) (A) (A) (A) (A) (A) (A) (A)
                 (A) (A) (A) (A) (A) (A) (A) (A) (A) (A) (A) (A)
                 (A) (A) (A) (A) (A) (A) (A) (A) (A) (A) (A) (A)
                 (A) (A) (A) (A) (A) (A) (A) (A) (A) (A) (A) (A)
                 (A) (A) (A) (A) (A) (A) (A) (A) (A) (A) (A) (A)
                 (A) (A) (A) (A) (A) (A) (A) (A) (A) (A) (A) (A)
                 (A) (A) (A) (A) (A) (A) (A) (A) (A) (A) (A) (A)
                 (A) (A) (A) (A) (A) (A) (A) (A) (A) (A) (A) (A)
                 (A) (A) (A) (A) (A) (A) (A) (A) (A) (A) (A) (A)
                 (A) (A) (A) (A) (A) (A) (A) (A) (A) (A) (A) (A)
                 (A) (A) (A) (A) (A) (A) (A) (A) (A) (A) (A) (A)
                 (A) (A) (A) (A) (A) (A) (A) (A) (A) (A) (A) (A)
                 (A) (A) (A) (A) (A) (A) (A) (A) (A) (A) (A) (A)
                 (A) (A) (A) (A) (A) (A) (A) (A) (A) (A) (A) (A)
                 (A) (A) (A) (A) (A) (A) (A) (A) (A) (A) (A) (A)
                 (A) (A) (A) (A) (A) (A) (A) (A) (A) (A) (A) (A)
                 (A) (A) (A) (A) (A) (A) (A) (A) (A) (A) (A) (A)
                 (A) (A) (A) (A) (A) (A) (A) (A) (A) (A) (A) (A)
                 (A) (A) (A) (A) (A) (A) (A) (A) (A) (A) (A) (A)
                 (A) (A) (A) (A) (A) (A) (A) (A) (A) (A) (A) (A)
                 (A) (A) (A) (A) (A) (A) (A) (A) (A) (A) (A) (A)
                 (A) (A) (A) (A) (A) (A) (A) (A) (A) (A) (A) (A)
                 (A) (A) (A) (A) (A) (A) (A) (A) (A) (A) (A) (A)
                 (A) (A) (A) (A) (A) (A) (A) (A) (A) (A) (A) (A)
                 (A) (A) (A) (A) (A) (A) (A) (A) (A) (A) (A) (A)
                 (A) (A) (A) (A) (A) (A) (A) (A) (A) (A) (A) (A)
                 (A) (A) (A) (A) (A) (A) (A) (A) (A) (A) (A) (A)
                 (A) (A) (A) (A) (A) (A) (A) (A) (A) (A) (A) (A)
                 (A) (A) (A) (A) (A) (A) (A) (A) (A) (A) (A) (A)
                 (A) (A) (A) (A) (A) (A) (A) (A) (A) (A) (A) (A)
                 (A) (A) (A) (A) (A) (A) (A) (A) (A) (A) (A) (A)
                 (A) (A) (A) (A) (A) (A) (A) (A) (A) (A) (A) (A)
                 (A) (A) (A) (A) (A)
 The electronic state is 3-A.
 Alpha  occ. eigenvalues --  -24.54432 -24.53867 -19.22106 -19.21875 -14.39212
 Alpha  occ. eigenvalues --  -14.37368 -10.31836 -10.30211 -10.28013 -10.27229
 Alpha  occ. eigenvalues --  -10.26942 -10.26851 -10.24613 -10.23961 -10.22661
 Alpha  occ. eigenvalues --  -10.21215 -10.21203 -10.19753 -10.19710 -10.18538
 Alpha  occ. eigenvalues --  -10.18451 -10.18436 -10.18382 -10.18351 -10.18327
 Alpha  occ. eigenvalues --  -10.18145 -10.18140 -10.18100 -10.18001 -10.17916
 Alpha  occ. eigenvalues --  -10.17877 -10.15332  -4.10010  -2.70584  -2.70209
 Alpha  occ. eigenvalues --   -2.69926  -1.13572  -1.09697  -1.00192  -0.99683
 Alpha  occ. eigenvalues --   -0.99314  -0.96429  -0.86471  -0.84590  -0.84486
 Alpha  occ. eigenvalues --   -0.84025  -0.81769  -0.78641  -0.76639  -0.74464
 Alpha  occ. eigenvalues --   -0.74194  -0.73841  -0.73569  -0.70179  -0.69344
 Alpha  occ. eigenvalues --   -0.68833  -0.68011  -0.66846  -0.63371  -0.60902
 Alpha  occ. eigenvalues --   -0.60454  -0.59740  -0.59150  -0.58048  -0.56518
 Alpha  occ. eigenvalues --   -0.55998  -0.54762  -0.54078  -0.52141  -0.51940
 Alpha  occ. eigenvalues --   -0.51417  -0.50541  -0.50022  -0.48676  -0.47329
 Alpha  occ. eigenvalues --   -0.47041  -0.46340  -0.45988  -0.45665  -0.45210
 Alpha  occ. eigenvalues --   -0.45046  -0.43941  -0.43792  -0.43357  -0.42609
 Alpha  occ. eigenvalues --   -0.42019  -0.41954  -0.41665  -0.41538  -0.41343
 Alpha  occ. eigenvalues --   -0.40500  -0.40087  -0.39382  -0.38708  -0.38330
 Alpha  occ. eigenvalues --   -0.37885  -0.37417  -0.36971  -0.36727  -0.36390
 Alpha  occ. eigenvalues --   -0.36182  -0.35777  -0.35384  -0.35108  -0.34584
 Alpha  occ. eigenvalues --   -0.34075  -0.33805  -0.33582  -0.33439  -0.33025
 Alpha  occ. eigenvalues --   -0.32485  -0.32131  -0.29717  -0.29455  -0.29289
 Alpha  occ. eigenvalues --   -0.27766  -0.27290  -0.26258  -0.24985  -0.24553
 Alpha  occ. eigenvalues --   -0.24500  -0.24286  -0.24066  -0.23694  -0.23212
 Alpha  occ. eigenvalues --   -0.22156
 Alpha virt. eigenvalues --   -0.09116  -0.05069  -0.00641   0.00320   0.00587
 Alpha virt. eigenvalues --    0.01172   0.01202   0.02360   0.03278   0.03732
 Alpha virt. eigenvalues --    0.04664   0.07160   0.08089   0.08573   0.09542
 Alpha virt. eigenvalues --    0.10007   0.10688   0.11464   0.11768   0.12160
 Alpha virt. eigenvalues --    0.12279   0.12685   0.12869   0.13079   0.14025
 Alpha virt. eigenvalues --    0.14214   0.14437   0.14661   0.15050   0.15315
 Alpha virt. eigenvalues --    0.15736   0.15997   0.16232   0.16442   0.16940
 Alpha virt. eigenvalues --    0.17267   0.17402   0.17831   0.18438   0.18726
 Alpha virt. eigenvalues --    0.19011   0.19817   0.20222   0.20465   0.20853
 Alpha virt. eigenvalues --    0.21468   0.21745   0.22170   0.22722   0.23345
 Alpha virt. eigenvalues --    0.23497   0.23934   0.24503   0.24886   0.25542
 Alpha virt. eigenvalues --    0.25844   0.26033   0.27819   0.28290   0.29139
 Alpha virt. eigenvalues --    0.29769   0.30196   0.31121   0.31258   0.31810
 Alpha virt. eigenvalues --    0.32128   0.32564   0.32769   0.33486   0.34766
 Alpha virt. eigenvalues --    0.35829   0.36551   0.36770   0.37768   0.38410
 Alpha virt. eigenvalues --    0.40238   0.41657   0.43313   0.45485   0.46732
 Alpha virt. eigenvalues --    0.47227   0.47758   0.48651   0.49448   0.49963
 Alpha virt. eigenvalues --    0.50683   0.51280   0.51359   0.52372   0.52772
 Alpha virt. eigenvalues --    0.53194   0.53608   0.54345   0.54831   0.54984
 Alpha virt. eigenvalues --    0.55398   0.55875   0.56282   0.56954   0.57242
 Alpha virt. eigenvalues --    0.57460   0.58389   0.58540   0.59396   0.59420
 Alpha virt. eigenvalues --    0.59835   0.59952   0.60638   0.60926   0.61136
 Alpha virt. eigenvalues --    0.61380   0.61582   0.61753   0.62207   0.62829
 Alpha virt. eigenvalues --    0.62923   0.63141   0.63613   0.64132   0.64190
 Alpha virt. eigenvalues --    0.64586   0.65085   0.66238   0.66458   0.67519
 Alpha virt. eigenvalues --    0.67867   0.68690   0.69430   0.69575   0.70439
 Alpha virt. eigenvalues --    0.71021   0.71119   0.71813   0.72294   0.73762
 Alpha virt. eigenvalues --    0.74885   0.75466   0.76513   0.77005   0.77680
 Alpha virt. eigenvalues --    0.79104   0.79686   0.80507   0.80791   0.81396
 Alpha virt. eigenvalues --    0.81741   0.82519   0.82745   0.82861   0.83433
 Alpha virt. eigenvalues --    0.84221   0.84690   0.84842   0.85080   0.85597
 Alpha virt. eigenvalues --    0.85697   0.86031   0.86481   0.87419   0.88021
 Alpha virt. eigenvalues --    0.88465   0.89059   0.89467   0.90410   0.90594
 Alpha virt. eigenvalues --    0.91087   0.91137   0.91570   0.92003   0.92329
 Alpha virt. eigenvalues --    0.92505   0.92780   0.93210   0.94102   0.94546
 Alpha virt. eigenvalues --    0.95400   0.95585   0.95968   0.96225   0.96460
 Alpha virt. eigenvalues --    0.96715   0.97793   0.98318   0.98455   0.99759
 Alpha virt. eigenvalues --    1.00224   1.00519   1.01108   1.01693   1.02705
 Alpha virt. eigenvalues --    1.03826   1.04544   1.04942   1.05202   1.06045
 Alpha virt. eigenvalues --    1.06955   1.08465   1.09722   1.11592   1.11994
 Alpha virt. eigenvalues --    1.12935   1.13246   1.13756   1.13878   1.14632
 Alpha virt. eigenvalues --    1.15302   1.16493   1.17672   1.17935   1.19657
 Alpha virt. eigenvalues --    1.20149   1.21132   1.22643   1.23334   1.24866
 Alpha virt. eigenvalues --    1.25773   1.27421   1.27657   1.29123   1.29592
 Alpha virt. eigenvalues --    1.31287   1.32277   1.33314   1.34292   1.35834
 Alpha virt. eigenvalues --    1.36874   1.38693   1.39608   1.40686   1.41205
 Alpha virt. eigenvalues --    1.41721   1.41837   1.43342   1.43514   1.44148
 Alpha virt. eigenvalues --    1.44932   1.46428   1.46678   1.48024   1.48370
 Alpha virt. eigenvalues --    1.48561   1.48666   1.49297   1.49421   1.50346
 Alpha virt. eigenvalues --    1.50435   1.51654   1.51782   1.52784   1.52913
 Alpha virt. eigenvalues --    1.54630   1.55061   1.55992   1.57003   1.58166
 Alpha virt. eigenvalues --    1.59367   1.61377   1.62852   1.63323   1.64830
 Alpha virt. eigenvalues --    1.66989   1.68646   1.69858   1.70573   1.72268
 Alpha virt. eigenvalues --    1.72565   1.73748   1.75563   1.75978   1.77683
 Alpha virt. eigenvalues --    1.78415   1.78693   1.79606   1.80486   1.80678
 Alpha virt. eigenvalues --    1.81766   1.82562   1.82978   1.84147   1.84484
 Alpha virt. eigenvalues --    1.85282   1.85715   1.86628   1.87344   1.87959
 Alpha virt. eigenvalues --    1.89265   1.90332   1.90517   1.91135   1.91385
 Alpha virt. eigenvalues --    1.91593   1.92404   1.93290   1.93666   1.94346
 Alpha virt. eigenvalues --    1.94474   1.95513   1.95880   1.97619   1.97832
 Alpha virt. eigenvalues --    1.98333   1.98804   1.99408   2.01154   2.01484
 Alpha virt. eigenvalues --    2.01810   2.03132   2.03808   2.04469   2.06265
 Alpha virt. eigenvalues --    2.06725   2.06933   2.07295   2.07789   2.07972
 Alpha virt. eigenvalues --    2.08752   2.09285   2.10006   2.10555   2.12381
 Alpha virt. eigenvalues --    2.13087   2.13779   2.14460   2.14780   2.15205
 Alpha virt. eigenvalues --    2.15761   2.16049   2.16560   2.16711   2.17194
 Alpha virt. eigenvalues --    2.17849   2.18332   2.18721   2.19774   2.20100
 Alpha virt. eigenvalues --    2.20761   2.21691   2.22614   2.23724   2.25569
 Alpha virt. eigenvalues --    2.26064   2.26435   2.26642   2.27268   2.28073
 Alpha virt. eigenvalues --    2.29037   2.29506   2.30383   2.31294   2.31466
 Alpha virt. eigenvalues --    2.31684   2.32249   2.32676   2.33111   2.35684
 Alpha virt. eigenvalues --    2.36297   2.38051   2.40383   2.41809   2.44668
 Alpha virt. eigenvalues --    2.45086   2.45506   2.46459   2.47257   2.48419
 Alpha virt. eigenvalues --    2.50274   2.51682   2.53532   2.54403   2.56292
 Alpha virt. eigenvalues --    2.57833   2.59027   2.60045   2.60334   2.60735
 Alpha virt. eigenvalues --    2.61161   2.62607   2.63112   2.65403   2.66126
 Alpha virt. eigenvalues --    2.66287   2.66596   2.67924   2.68679   2.69727
 Alpha virt. eigenvalues --    2.70821   2.71446   2.72199   2.73357   2.74144
 Alpha virt. eigenvalues --    2.74369   2.75438   2.75921   2.76119   2.76603
 Alpha virt. eigenvalues --    2.76940   2.77577   2.78703   2.79397   2.80041
 Alpha virt. eigenvalues --    2.80213   2.82677   2.84395   2.87151   2.90179
 Alpha virt. eigenvalues --    2.90817   2.93491   2.96309   2.97050   3.03632
 Alpha virt. eigenvalues --    3.06444   3.07388   3.09011   3.11850   3.20997
 Alpha virt. eigenvalues --    3.30475   3.32831   3.42309   3.42712   3.46030
 Alpha virt. eigenvalues --    3.48754   3.60935   3.81694   4.01810   4.04621
 Alpha virt. eigenvalues --    4.10369   4.10949   4.11852   4.12254   4.13149
 Alpha virt. eigenvalues --    4.13953   4.16219   4.17629   4.19352   4.19885
 Alpha virt. eigenvalues --    4.25917   4.26715   4.28129   4.29170   4.33389
 Alpha virt. eigenvalues --    4.34040   4.34907   4.35883   4.38618   4.40306
 Alpha virt. eigenvalues --    4.42072   4.45431   4.48311   4.52003   4.55074
 Alpha virt. eigenvalues --    4.63374   4.70856   4.72608   4.74937   4.77112
 Alpha virt. eigenvalues --    4.82728   4.87981   5.94021   6.06680   6.14519
 Alpha virt. eigenvalues --    6.19189   6.24164  11.09007  17.56579  17.97806
 Alpha virt. eigenvalues --   18.21613  18.41638  18.53926  22.78609  23.00812
 Alpha virt. eigenvalues --   23.15685  26.05772  56.86462 118.87910 119.02853
 Alpha virt. eigenvalues --  119.08320 134.89698 379.86232 927.40132 927.94054
 Alpha virt. eigenvalues --  929.250531460.95333**********
  Beta  occ. eigenvalues --  -24.54101 -24.53513 -19.22120 -19.21884 -14.39012
  Beta  occ. eigenvalues --  -14.37164 -10.31885 -10.30231 -10.28038 -10.27242
  Beta  occ. eigenvalues --  -10.26942 -10.26839 -10.24603 -10.23960 -10.22647
  Beta  occ. eigenvalues --  -10.21207 -10.21201 -10.19754 -10.19711 -10.18538
  Beta  occ. eigenvalues --  -10.18451 -10.18436 -10.18382 -10.18351 -10.18328
  Beta  occ. eigenvalues --  -10.18145 -10.18141 -10.18100 -10.18001 -10.17915
  Beta  occ. eigenvalues --  -10.17877 -10.15333  -3.99043  -2.58855  -2.58796
  Beta  occ. eigenvalues --   -2.58350  -1.13564  -1.09717  -0.99936  -0.98924
  Beta  occ. eigenvalues --   -0.98446  -0.96185  -0.86470  -0.84589  -0.84486
  Beta  occ. eigenvalues --   -0.83973  -0.81754  -0.78631  -0.76630  -0.74444
  Beta  occ. eigenvalues --   -0.74194  -0.73840  -0.73570  -0.70141  -0.69343
  Beta  occ. eigenvalues --   -0.68819  -0.67998  -0.66809  -0.63323  -0.60821
  Beta  occ. eigenvalues --   -0.60425  -0.59732  -0.59143  -0.57863  -0.56493
  Beta  occ. eigenvalues --   -0.55907  -0.54709  -0.53843  -0.52035  -0.51678
  Beta  occ. eigenvalues --   -0.51412  -0.50445  -0.50048  -0.48602  -0.47143
  Beta  occ. eigenvalues --   -0.46912  -0.46291  -0.45938  -0.45634  -0.45141
  Beta  occ. eigenvalues --   -0.45035  -0.43936  -0.43653  -0.43325  -0.42017
  Beta  occ. eigenvalues --   -0.41859  -0.41535  -0.41363  -0.41048  -0.40393
  Beta  occ. eigenvalues --   -0.39525  -0.39202  -0.38678  -0.38266  -0.38090
  Beta  occ. eigenvalues --   -0.37137  -0.36806  -0.36748  -0.36204  -0.35690
  Beta  occ. eigenvalues --   -0.35323  -0.35253  -0.34492  -0.33688  -0.33491
  Beta  occ. eigenvalues --   -0.33357  -0.33056  -0.32798  -0.32210  -0.31432
  Beta  occ. eigenvalues --   -0.30995  -0.29553  -0.29344  -0.28777  -0.26944
  Beta  occ. eigenvalues --   -0.26612  -0.25408  -0.24958  -0.24859  -0.24429
  Beta  occ. eigenvalues --   -0.24302  -0.23268  -0.22432  -0.19805
  Beta virt. eigenvalues --   -0.08889  -0.05081  -0.02992  -0.02379  -0.00625
  Beta virt. eigenvalues --    0.00320   0.00579   0.01173   0.01234   0.02307
  Beta virt. eigenvalues --    0.03274   0.03740   0.04727   0.07174   0.08118
  Beta virt. eigenvalues --    0.08590   0.09608   0.10068   0.10689   0.11602
  Beta virt. eigenvalues --    0.11800   0.12267   0.12336   0.12749   0.12918
  Beta virt. eigenvalues --    0.13107   0.14052   0.14286   0.14469   0.14780
  Beta virt. eigenvalues --    0.15174   0.15439   0.15783   0.16016   0.16263
  Beta virt. eigenvalues --    0.16502   0.16979   0.17287   0.17416   0.17867
  Beta virt. eigenvalues --    0.18491   0.18803   0.19070   0.19834   0.20238
  Beta virt. eigenvalues --    0.20536   0.20913   0.21562   0.21787   0.22181
  Beta virt. eigenvalues --    0.22754   0.23437   0.23608   0.24141   0.24540
  Beta virt. eigenvalues --    0.24905   0.25607   0.25867   0.26098   0.27873
  Beta virt. eigenvalues --    0.28408   0.29210   0.30004   0.30304   0.31262
  Beta virt. eigenvalues --    0.31644   0.31900   0.32218   0.32796   0.32967
  Beta virt. eigenvalues --    0.33751   0.34820   0.35960   0.36649   0.37223
  Beta virt. eigenvalues --    0.37884   0.38690   0.40483   0.41797   0.43466
  Beta virt. eigenvalues --    0.45542   0.46779   0.47266   0.47825   0.48733
  Beta virt. eigenvalues --    0.49453   0.50064   0.50731   0.51325   0.51363
  Beta virt. eigenvalues --    0.52430   0.52782   0.53219   0.53625   0.54412
  Beta virt. eigenvalues --    0.54885   0.55015   0.55437   0.55910   0.56371
  Beta virt. eigenvalues --    0.56981   0.57282   0.57536   0.58535   0.58586
  Beta virt. eigenvalues --    0.59433   0.59557   0.59856   0.60053   0.60672
  Beta virt. eigenvalues --    0.60943   0.61243   0.61438   0.61633   0.61838
  Beta virt. eigenvalues --    0.62265   0.62846   0.62991   0.63196   0.63772
  Beta virt. eigenvalues --    0.64244   0.64388   0.64677   0.65199   0.66254
  Beta virt. eigenvalues --    0.66595   0.67680   0.68048   0.68793   0.69562
  Beta virt. eigenvalues --    0.69676   0.70562   0.71184   0.71328   0.71850
  Beta virt. eigenvalues --    0.72620   0.73835   0.75007   0.75559   0.76635
  Beta virt. eigenvalues --    0.77042   0.77865   0.79140   0.79885   0.80556
  Beta virt. eigenvalues --    0.80855   0.81454   0.81788   0.82600   0.82767
  Beta virt. eigenvalues --    0.82914   0.83453   0.84262   0.84728   0.84849
  Beta virt. eigenvalues --    0.85106   0.85616   0.85709   0.86091   0.86511
  Beta virt. eigenvalues --    0.87571   0.88117   0.88497   0.89119   0.89524
  Beta virt. eigenvalues --    0.90454   0.90673   0.91149   0.91172   0.91615
  Beta virt. eigenvalues --    0.92119   0.92387   0.92579   0.93070   0.93276
  Beta virt. eigenvalues --    0.94143   0.94584   0.95429   0.95840   0.96051
  Beta virt. eigenvalues --    0.96272   0.96522   0.96800   0.97857   0.98439
  Beta virt. eigenvalues --    0.98550   0.99906   1.00341   1.00706   1.01144
  Beta virt. eigenvalues --    1.01889   1.02770   1.04162   1.04690   1.05299
  Beta virt. eigenvalues --    1.05745   1.06529   1.07054   1.08715   1.09865
  Beta virt. eigenvalues --    1.11757   1.12093   1.13037   1.13315   1.13809
  Beta virt. eigenvalues --    1.13977   1.14958   1.15931   1.16541   1.17699
  Beta virt. eigenvalues --    1.17985   1.19692   1.20243   1.21186   1.22738
  Beta virt. eigenvalues --    1.23401   1.25015   1.25877   1.27508   1.27759
  Beta virt. eigenvalues --    1.29354   1.29817   1.31722   1.32382   1.33304
  Beta virt. eigenvalues --    1.34411   1.36006   1.36969   1.38967   1.39779
  Beta virt. eigenvalues --    1.40775   1.41314   1.41829   1.41975   1.43406
  Beta virt. eigenvalues --    1.43530   1.44153   1.44990   1.46493   1.46741
  Beta virt. eigenvalues --    1.48083   1.48411   1.48654   1.48741   1.49367
  Beta virt. eigenvalues --    1.49481   1.50350   1.50655   1.51661   1.51787
  Beta virt. eigenvalues --    1.52862   1.53108   1.54765   1.55184   1.56180
  Beta virt. eigenvalues --    1.57171   1.58243   1.59544   1.61536   1.62953
  Beta virt. eigenvalues --    1.63509   1.64959   1.67146   1.68729   1.69941
  Beta virt. eigenvalues --    1.70757   1.72390   1.72707   1.73793   1.75653
  Beta virt. eigenvalues --    1.76184   1.77762   1.78533   1.78960   1.80004
  Beta virt. eigenvalues --    1.80723   1.80919   1.81908   1.82635   1.83212
  Beta virt. eigenvalues --    1.84172   1.84604   1.85515   1.85834   1.86778
  Beta virt. eigenvalues --    1.87453   1.88066   1.89508   1.90447   1.90556
  Beta virt. eigenvalues --    1.91206   1.91414   1.91784   1.92474   1.93406
  Beta virt. eigenvalues --    1.93765   1.94484   1.94638   1.95622   1.96019
  Beta virt. eigenvalues --    1.97834   1.98173   1.98525   1.98832   1.99518
  Beta virt. eigenvalues --    2.01425   2.01628   2.02037   2.03355   2.04386
  Beta virt. eigenvalues --    2.04601   2.06367   2.06797   2.07009   2.07373
  Beta virt. eigenvalues --    2.07886   2.08116   2.08784   2.09500   2.10185
  Beta virt. eigenvalues --    2.10759   2.12456   2.13397   2.14014   2.14530
  Beta virt. eigenvalues --    2.15077   2.15276   2.16045   2.16245   2.16666
  Beta virt. eigenvalues --    2.16801   2.17336   2.17908   2.18428   2.18807
  Beta virt. eigenvalues --    2.19929   2.20270   2.20882   2.21778   2.22734
  Beta virt. eigenvalues --    2.23806   2.25682   2.26128   2.26473   2.26712
  Beta virt. eigenvalues --    2.27390   2.28329   2.29170   2.29567   2.30985
  Beta virt. eigenvalues --    2.31421   2.31479   2.32131   2.32422   2.32738
  Beta virt. eigenvalues --    2.33219   2.35938   2.36442   2.38398   2.40606
  Beta virt. eigenvalues --    2.42253   2.44745   2.45241   2.45697   2.46599
  Beta virt. eigenvalues --    2.47480   2.48846   2.50740   2.52301   2.53720
  Beta virt. eigenvalues --    2.54752   2.56605   2.58323   2.59153   2.60247
  Beta virt. eigenvalues --    2.60547   2.60843   2.61870   2.62883   2.64437
  Beta virt. eigenvalues --    2.65879   2.66353   2.66409   2.67896   2.68647
  Beta virt. eigenvalues --    2.69568   2.70664   2.72090   2.72634   2.73313
  Beta virt. eigenvalues --    2.74006   2.74461   2.74893   2.75709   2.75991
  Beta virt. eigenvalues --    2.76429   2.76990   2.77080   2.77812   2.79141
  Beta virt. eigenvalues --    2.80097   2.80338   2.81470   2.83080   2.84609
  Beta virt. eigenvalues --    2.87542   2.90837   2.91270   2.94379   2.96449
  Beta virt. eigenvalues --    2.97216   3.04536   3.06512   3.07764   3.09981
  Beta virt. eigenvalues --    3.12487   3.21944   3.32560   3.33622   3.42317
  Beta virt. eigenvalues --    3.42722   3.46767   3.51192   3.65270   3.85953
  Beta virt. eigenvalues --    4.03112   4.06531   4.10375   4.10950   4.11924
  Beta virt. eigenvalues --    4.12418   4.13175   4.13966   4.16303   4.18157
  Beta virt. eigenvalues --    4.19434   4.19937   4.26158   4.26964   4.28170
  Beta virt. eigenvalues --    4.29438   4.33547   4.34282   4.34964   4.35891
  Beta virt. eigenvalues --    4.38727   4.40403   4.42121   4.45444   4.48689
  Beta virt. eigenvalues --    4.52036   4.55237   4.63618   4.70867   4.72726
  Beta virt. eigenvalues --    4.75056   4.77125   4.83237   4.91023   5.96558
  Beta virt. eigenvalues --    6.10567   6.17736   6.30348   6.34097  11.14751
  Beta virt. eigenvalues --   17.57854  17.99806  18.23413  18.47470  18.59099
  Beta virt. eigenvalues --   22.90840  23.12733  23.27779  26.14795  56.96669
  Beta virt. eigenvalues --  118.94842 119.09549 119.15707 134.97545 379.33130
  Beta virt. eigenvalues --  924.14436 924.69858 925.979991451.77556**********
          Condensed to atoms (all electrons):
          Atomic-Atomic Spin Densities.
 Mulliken charges and spin densities:
               1          2
     1  C   -0.228215   0.000292
     2  O   -0.506305  -0.002406
     3  C    0.423270  -0.013599
     4  C   -0.237607  -0.000147
     5  C    0.368926  -0.012322
     6  C    0.577229  -0.027582
     7  N   -0.502059   0.082343
     8  C   -0.016583   0.000014
     9  C    0.091679   0.000984
    10  C   -0.477811  -0.000050
    11  C   -0.492247  -0.000210
    12  C   -0.459681  -0.000060
    13  C   -0.080071   0.006522
    14  O   -0.527258  -0.004510
    15  N   -0.671573   0.074517
    16  C    0.401876  -0.012834
    17  C   -0.383713   0.003290
    18  C    0.176222  -0.000515
    19  C   -0.151689   0.000153
    20  C   -0.123960  -0.000141
    21  C   -0.128089   0.000197
    22  C   -0.128725  -0.000113
    23  C   -0.184709   0.000188
    24  C    0.154618  -0.000127
    25  C   -0.194999  -0.000113
    26  C   -0.127865   0.000024
    27  C   -0.127518  -0.000066
    28  C   -0.130532  -0.000001
    29  C   -0.185695  -0.000007
    30  C   -0.231869   0.006929
    31  H    0.187409   0.000027
    32  H    0.166267  -0.000261
    33  H    0.164198  -0.000253
    34  H    0.177225   0.000629
    35  H    0.190734   0.001134
    36  H    0.158536  -0.000014
    37  H    0.135668   0.000005
    38  H    0.175773   0.000053
    39  H    0.138580   0.000019
    40  H    0.225865  -0.000373
    41  H    0.156908   0.000087
    42  H    0.157745   0.000013
    43  H    0.152202   0.000005
    44  H    0.131930   0.000004
    45  H    0.175448   0.000342
    46  H    0.176586  -0.000685
    47  H    0.220297   0.000061
    48  H    0.167701  -0.000056
    49  H    0.137310  -0.000000
    50  H    0.125561  -0.000010
    51  H    0.125215   0.000003
    52  H    0.118888  -0.000035
    53  H    0.191157  -0.000083
    54  H    0.137727  -0.000003
    55  H    0.126465   0.000002
    56  H    0.128978   0.000002
    57  H    0.134511   0.000007
    58  H    0.179901   0.001001
    59  Ni   0.579516   1.710138
    60  F   -0.472396   0.098111
    61  F   -0.466950   0.089481
 Sum of Mulliken charges =  -0.00000   2.00000
 Mulliken charges and spin densities with hydrogens summed into heavy atoms:
               1          2
     1  C    0.289659  -0.000196
     2  O   -0.506305  -0.002406
     3  C    0.423270  -0.013599
     4  C   -0.060381   0.000481
     5  C    0.368926  -0.012322
     6  C    0.577229  -0.027582
     7  N   -0.502059   0.082343
     8  C    0.174151   0.001148
     9  C    0.091679   0.000984
    10  C   -0.007834  -0.000006
    11  C    0.029106  -0.000477
    12  C   -0.017803  -0.000038
    13  C    0.271963   0.006179
    14  O   -0.527258  -0.004510
    15  N   -0.671573   0.074517
    16  C    0.401876  -0.012834
    17  C   -0.163417   0.003351
    18  C    0.176222  -0.000515
    19  C    0.016012   0.000096
    20  C    0.013350  -0.000142
    21  C   -0.002529   0.000187
    22  C   -0.003510  -0.000110
    23  C   -0.065822   0.000153
    24  C    0.154618  -0.000127
    25  C   -0.003842  -0.000196
    26  C    0.009862   0.000022
    27  C   -0.001053  -0.000064
    28  C   -0.001553   0.000001
    29  C   -0.051184   0.000001
    30  C   -0.051969   0.007930
    59  Ni   0.579516   1.710138
    60  F   -0.472396   0.098111
    61  F   -0.466950   0.089481
 Electronic spatial extent (au):  <R**2>=          15668.3539
 Charge=              0.0000 electrons
 Dipole moment (field-independent basis, Debye):
    X=             -1.7583    Y=              8.6035    Z=              4.9731  Tot=             10.0918
 Quadrupole moment (field-independent basis, Debye-Ang):
   XX=           -168.6434   YY=           -183.4298   ZZ=           -202.3407
   XY=             -6.5972   XZ=              0.2206   YZ=              0.3272
 Traceless Quadrupole moment (field-independent basis, Debye-Ang):
   XX=             16.1612   YY=              1.3748   ZZ=            -17.5360
   XY=             -6.5972   XZ=              0.2206   YZ=              0.3272
 Octapole moment (field-independent basis, Debye-Ang**2):
  XXX=           -160.4656  YYY=            102.7246  ZZZ=              0.3591  XYY=            -16.4169
  XXY=             12.8281  XXZ=            -45.2724  XZZ=             13.0905  YZZ=             14.5703
  YYZ=             48.9988  XYZ=              5.4889
 Hexadecapole moment (field-independent basis, Debye-Ang**3):
 XXXX=         -11965.4416 YYYY=          -4172.4081 ZZZZ=          -3135.6336 XXXY=            153.9923
 XXXZ=             23.7698 YYYX=            -20.6490 YYYZ=            252.8371 ZZZX=             15.5045
 ZZZY=             12.9712 XXYY=          -3011.4030 XXZZ=          -2513.6262 YYZZ=          -1253.5021
 XXYZ=            -45.0601 YYXZ=             87.6468 ZZXY=            -12.7249
 N-N= 3.811976839974D+03 E-N=-1.145235598120D+04  KE= 1.561189132841D+03
                          Isotropic Fermi Contact Couplings
        Atom                 a.u.       MegaHertz       Gauss      10(-4) cm-1
     1  C(13)              0.00006       0.03592       0.01282       0.01198
     2  O(17)             -0.00061       0.18510       0.06605       0.06174
     3  C(13)             -0.00116      -0.65031      -0.23205      -0.21692
     4  C(13)              0.00152       0.85293       0.30435       0.28451
     5  C(13)             -0.00284      -1.59604      -0.56951      -0.53238
     6  C(13)             -0.00364      -2.04752      -0.73061      -0.68298
     7  N(14)              0.10512      16.98181       6.05953       5.66452
     8  C(13)              0.00582       3.27308       1.16792       1.09178
     9  C(13)              0.00073       0.41170       0.14690       0.13733
    10  C(13)             -0.00008      -0.04578      -0.01634      -0.01527
    11  C(13)             -0.00060      -0.33800      -0.12061      -0.11274
    12  C(13)             -0.00017      -0.09707      -0.03464      -0.03238
    13  C(13)              0.00444       2.49443       0.89008       0.83205
    14  O(17)              0.00235      -0.71283      -0.25436      -0.23777
    15  N(14)              0.11133      17.98502       6.41750       5.99916
    16  C(13)              0.00136       0.76632       0.27344       0.25562
    17  C(13)              0.00289       1.62374       0.57939       0.54162
    18  C(13)             -0.00039      -0.22070      -0.07875      -0.07362
    19  C(13)              0.00009       0.05013       0.01789       0.01672
    20  C(13)             -0.00004      -0.02124      -0.00758      -0.00708
    21  C(13)              0.00001       0.00669       0.00239       0.00223
    22  C(13)             -0.00000      -0.00011      -0.00004      -0.00004
    23  C(13)             -0.00001      -0.00757      -0.00270      -0.00253
    24  C(13)             -0.00013      -0.07276      -0.02596      -0.02427
    25  C(13)             -0.00000      -0.00128      -0.00046      -0.00043
    26  C(13)             -0.00000      -0.00172      -0.00061      -0.00057
    27  C(13)             -0.00001      -0.00431      -0.00154      -0.00144
    28  C(13)              0.00001       0.00556       0.00199       0.00186
    29  C(13)              0.00002       0.00875       0.00312       0.00292
    30  C(13)              0.00452       2.53870       0.90587       0.84682
    31  H(1)               0.00001       0.02901       0.01035       0.00968
    32  H(1)              -0.00004      -0.07879      -0.02811      -0.02628
    33  H(1)              -0.00003      -0.06975      -0.02489      -0.02327
    34  H(1)               0.00026       0.57371       0.20471       0.19137
    35  H(1)               0.00070       1.56502       0.55844       0.52203
    36  H(1)              -0.00000      -0.00700      -0.00250      -0.00233
    37  H(1)               0.00001       0.01977       0.00705       0.00659
    38  H(1)              -0.00000      -0.00842      -0.00300      -0.00281
    39  H(1)               0.00001       0.03348       0.01195       0.01117
    40  H(1)               0.00008       0.17861       0.06373       0.05958
    41  H(1)               0.00002       0.03366       0.01201       0.01123
    42  H(1)               0.00001       0.01142       0.00408       0.00381
    43  H(1)              -0.00000      -0.00226      -0.00081      -0.00076
    44  H(1)               0.00001       0.02301       0.00821       0.00767
    45  H(1)               0.00009       0.20497       0.07314       0.06837
    46  H(1)              -0.00024      -0.53863      -0.19220      -0.17967
    47  H(1)              -0.00003      -0.07484      -0.02670      -0.02496
    48  H(1)              -0.00001      -0.01203      -0.00429      -0.00401
    49  H(1)               0.00000       0.00003       0.00001       0.00001
    50  H(1)              -0.00000      -0.00588      -0.00210      -0.00196
    51  H(1)               0.00000       0.00110       0.00039       0.00037
    52  H(1)              -0.00000      -0.00035      -0.00012      -0.00012
    53  H(1)              -0.00000      -0.00436      -0.00156      -0.00146
    54  H(1)              -0.00000      -0.00309      -0.00110      -0.00103
    55  H(1)               0.00000       0.00095       0.00034       0.00032
    56  H(1)               0.00000       0.00497       0.00177       0.00166
    57  H(1)              -0.00000      -0.00504      -0.00180      -0.00168
    58  H(1)               0.00040       0.88959       0.31743       0.29674
    59  Ni(61)             0.00000      -0.00025      -0.00009      -0.00008
    60  F(19)              0.02841      59.76924      21.32715      19.93687
    61  F(19)              0.02104      44.26448      15.79467      14.76504
 --------------------------------------------------------
       Center         ----  Spin Dipole Couplings  ----
                      3XX-RR        3YY-RR        3ZZ-RR
 --------------------------------------------------------
     1   Atom       -0.000594      0.000933     -0.000339
     2   Atom        0.006631      0.005460     -0.012091
     3   Atom        0.006134      0.008106     -0.014240
     4   Atom       -0.003296      0.007249     -0.003953
     5   Atom       -0.001244      0.023844     -0.022600
     6   Atom        0.019385      0.027542     -0.046927
     7   Atom        0.025172      0.022623     -0.047795
     8   Atom        0.025791     -0.012790     -0.013001
     9   Atom        0.008602     -0.004659     -0.003943
    10   Atom        0.002771     -0.003450      0.000679
    11   Atom        0.006931     -0.002051     -0.004881
    12   Atom        0.003944     -0.002015     -0.001929
    13   Atom        0.000714      0.006334     -0.007048
    14   Atom        0.009821      0.026508     -0.036329
    15   Atom       -0.047214      0.074806     -0.027592
    16   Atom        0.025858     -0.002031     -0.023827
    17   Atom        0.015790     -0.008175     -0.007615
    18   Atom        0.004607     -0.003805     -0.000802
    19   Atom        0.003022     -0.001559     -0.001463
    20   Atom        0.000426     -0.000373     -0.000053
    21   Atom        0.000372     -0.000849      0.000477
    22   Atom        0.000249     -0.001199      0.000949
    23   Atom        0.001635     -0.002424      0.000790
    24   Atom        0.006181     -0.002984     -0.003196
    25   Atom        0.005087     -0.002889     -0.002198
    26   Atom        0.002185     -0.001280     -0.000905
    27   Atom        0.001592     -0.000867     -0.000725
    28   Atom        0.001744     -0.000853     -0.000891
    29   Atom        0.002928     -0.001487     -0.001440
    30   Atom       -0.000714      0.003307     -0.002593
    31   Atom       -0.000332      0.000583     -0.000251
    32   Atom       -0.000774      0.001326     -0.000552
    33   Atom       -0.000779      0.000895     -0.000115
    34   Atom       -0.002768      0.003787     -0.001019
    35   Atom        0.014541     -0.008230     -0.006311
    36   Atom        0.001457     -0.001974      0.000517
    37   Atom        0.001699     -0.002040      0.000341
    38   Atom        0.000609     -0.005048      0.004438
    39   Atom        0.002740     -0.000589     -0.002151
    40   Atom        0.005811     -0.000479     -0.005331
    41   Atom        0.007300     -0.001040     -0.006260
    42   Atom        0.002457     -0.001276     -0.001181
    43   Atom        0.003845     -0.001871     -0.001974
    44   Atom        0.002873     -0.001483     -0.001391
    45   Atom        0.002559     -0.000503     -0.002056
    46   Atom        0.001885      0.000901     -0.002785
    47   Atom        0.028148     -0.013429     -0.014719
    48   Atom        0.003432      0.000058     -0.003490
    49   Atom        0.000062      0.000283     -0.000345
    50   Atom       -0.000043     -0.000424      0.000467
    51   Atom        0.000082     -0.000892      0.000810
    52   Atom        0.001095     -0.001798      0.000703
    53   Atom        0.006635     -0.004802     -0.001833
    54   Atom        0.001411     -0.001084     -0.000327
    55   Atom        0.001000     -0.000530     -0.000469
    56   Atom        0.001153     -0.000556     -0.000597
    57   Atom        0.002211     -0.001238     -0.000973
    58   Atom        0.002011     -0.000477     -0.001534
    59   Atom       -0.179377      0.255021     -0.075644
    60   Atom       -0.126587      0.397737     -0.271150
    61   Atom       -0.025841      0.130505     -0.104664
 --------------------------------------------------------
                        XY            XZ            YZ
 --------------------------------------------------------
     1   Atom        0.000669      0.000305      0.000858
     2   Atom        0.000935      0.002584      0.008650
     3   Atom        0.002387      0.003535      0.011411
     4   Atom        0.001512      0.001642      0.008389
     5   Atom       -0.001982      0.002796      0.028909
     6   Atom       -0.015606     -0.001134      0.034173
     7   Atom       -0.120740     -0.046812      0.014493
     8   Atom       -0.005849     -0.000194      0.000557
     9   Atom        0.001765     -0.005260     -0.001166
    10   Atom       -0.000298     -0.004987      0.000033
    11   Atom        0.007031     -0.004452     -0.002383
    12   Atom        0.000394     -0.001022     -0.000078
    13   Atom       -0.008159     -0.001705      0.002505
    14   Atom       -0.016143      0.008068      0.025085
    15   Atom        0.098646      0.051040      0.084698
    16   Atom        0.012461      0.013474      0.012743
    17   Atom       -0.000338      0.006921      0.000433
    18   Atom       -0.001392      0.005434     -0.000756
    19   Atom       -0.003467      0.003576     -0.002113
    20   Atom       -0.001745      0.002047     -0.001493
    21   Atom       -0.000838      0.001533     -0.000898
    22   Atom       -0.000333      0.001948     -0.000446
    23   Atom        0.000078      0.003310     -0.000121
    24   Atom        0.001420      0.000270     -0.000023
    25   Atom        0.001249     -0.002436     -0.000319
    26   Atom        0.000621     -0.001315     -0.000233
    27   Atom        0.000445     -0.000512     -0.000108
    28   Atom        0.000411     -0.000027      0.000008
    29   Atom        0.000674      0.000575      0.000132
    30   Atom        0.007804      0.003308      0.002747
    31   Atom        0.000461      0.000225      0.000550
    32   Atom        0.000560      0.000147      0.000760
    33   Atom        0.000426      0.000282      0.001040
    34   Atom       -0.000067     -0.000025      0.002970
    35   Atom       -0.003924      0.006717     -0.000487
    36   Atom        0.000512     -0.003002     -0.000499
    37   Atom       -0.001245     -0.003227      0.000919
    38   Atom       -0.000482     -0.007133      0.000316
    39   Atom        0.003677     -0.002392     -0.001559
    40   Atom        0.012323     -0.010606     -0.008410
    41   Atom        0.007980      0.000486      0.000246
    42   Atom        0.000740     -0.001007     -0.000206
    43   Atom        0.000601      0.000205      0.000028
    44   Atom       -0.000463     -0.000891      0.000071
    45   Atom       -0.003055     -0.001801      0.000834
    46   Atom       -0.004702      0.000647     -0.001009
    47   Atom       -0.006658      0.004115     -0.000174
    48   Atom       -0.005562      0.002374     -0.001842
    49   Atom       -0.001523      0.001207     -0.001299
    50   Atom       -0.000533      0.000979     -0.000702
    51   Atom       -0.000091      0.001307     -0.000134
    52   Atom        0.000827      0.002895      0.000744
    53   Atom        0.001504     -0.005750     -0.000737
    54   Atom        0.000466     -0.001454     -0.000264
    55   Atom        0.000294     -0.000412     -0.000078
    56   Atom        0.000297      0.000097      0.000016
    57   Atom        0.000467      0.001079      0.000135
    58   Atom        0.002793      0.001931      0.001220
    59   Atom       -0.039028     -0.046146     -0.033415
    60   Atom       -0.111737      0.005791      0.197158
    61   Atom       -0.074812     -0.015027      0.221341
 --------------------------------------------------------


 ---------------------------------------------------------------------------------
              Anisotropic Spin Dipole Couplings in Principal Axis System
 ---------------------------------------------------------------------------------

       Atom             a.u.   MegaHertz   Gauss  10(-4) cm-1        Axes

              Baa    -0.0008    -0.114    -0.041    -0.038  0.8976 -0.4123  0.1561
     1 C(13)  Bbb    -0.0008    -0.102    -0.036    -0.034 -0.3071 -0.3305  0.8925
              Bcc     0.0016     0.216     0.077     0.072  0.3164  0.8490  0.4233
 
              Baa    -0.0158     1.145     0.409     0.382 -0.0908 -0.3715  0.9240
     2 O(17)  Bbb     0.0058    -0.418    -0.149    -0.139  0.8656 -0.4882 -0.1112
              Bcc     0.0101    -0.727    -0.260    -0.243  0.4924  0.7897  0.3659
 
              Baa    -0.0193    -2.584    -0.922    -0.862 -0.0930 -0.3763  0.9218
     3 C(13)  Bbb     0.0048     0.643     0.229     0.214  0.9116 -0.4045 -0.0732
              Bcc     0.0145     1.941     0.693     0.647  0.4004  0.8335  0.3807
 
              Baa    -0.0085    -1.147    -0.409    -0.383 -0.1446 -0.4533  0.8795
     4 C(13)  Bbb    -0.0035    -0.467    -0.167    -0.156  0.9800 -0.1883  0.0641
              Bcc     0.0120     1.614     0.576     0.538  0.1365  0.8713  0.4715
 
              Baa    -0.0368    -4.936    -1.761    -1.646 -0.0946 -0.4310  0.8974
     5 C(13)  Bbb    -0.0009    -0.125    -0.045    -0.042  0.9954 -0.0275  0.0918
              Bcc     0.0377     5.061     1.806     1.688 -0.0149  0.9019  0.4316
 
              Baa    -0.0605    -8.119    -2.897    -2.708 -0.0592 -0.3703  0.9270
     6 C(13)  Bbb     0.0119     1.603     0.572     0.535  0.8868  0.4070  0.2192
              Bcc     0.0486     6.517     2.325     2.174 -0.4584  0.8350  0.3043
 
              Baa    -0.1068    -4.119    -1.470    -1.374  0.6917  0.6004  0.4013
     7 N(14)  Bbb    -0.0473    -1.825    -0.651    -0.609 -0.1427 -0.4311  0.8909
              Bcc     0.1541     5.943     2.121     1.982  0.7079 -0.6736 -0.2125
 
              Baa    -0.0139    -1.872    -0.668    -0.624  0.1251  0.8658 -0.4845
     8 C(13)  Bbb    -0.0127    -1.706    -0.609    -0.569  0.0771  0.4784  0.8748
              Bcc     0.0267     3.578     1.277     1.193  0.9891 -0.1468 -0.0069
 
              Baa    -0.0061    -0.814    -0.290    -0.272  0.2682  0.3924  0.8798
     9 C(13)  Bbb    -0.0047    -0.634    -0.226    -0.211 -0.2507  0.9102 -0.3296
              Bcc     0.0108     1.448     0.517     0.483  0.9302  0.1321 -0.3425
 
              Baa    -0.0036    -0.480    -0.171    -0.160  0.3997  0.7918  0.4618
    10 C(13)  Bbb    -0.0032    -0.436    -0.155    -0.145  0.4874 -0.6103  0.6245
              Bcc     0.0068     0.916     0.327     0.306  0.7763 -0.0246 -0.6299
 
              Baa    -0.0064    -0.855    -0.305    -0.285  0.2940  0.0481  0.9546
    11 C(13)  Bbb    -0.0059    -0.791    -0.282    -0.264 -0.4529  0.8865  0.0948
              Bcc     0.0123     1.646     0.588     0.549  0.8417  0.4602 -0.2824
 
              Baa    -0.0021    -0.282    -0.101    -0.094  0.1532  0.1731  0.9729
    12 C(13)  Bbb    -0.0020    -0.274    -0.098    -0.091 -0.0920  0.9828 -0.1604
              Bcc     0.0041     0.556     0.198     0.185  0.9839  0.0650 -0.1665
 
              Baa    -0.0075    -1.009    -0.360    -0.336  0.0661 -0.1398  0.9880
    13 C(13)  Bbb    -0.0051    -0.685    -0.244    -0.228  0.8166  0.5766  0.0270
              Bcc     0.0126     1.694     0.604     0.565 -0.5734  0.8050  0.1522
 
              Baa    -0.0481     3.481     1.242     1.161 -0.2250 -0.3539  0.9078
    14 O(17)  Bbb     0.0074    -0.533    -0.190    -0.178  0.8897  0.3053  0.3395
              Bcc     0.0407    -2.948    -1.052    -0.983 -0.3973  0.8841  0.2461
 
              Baa    -0.1025    -3.954    -1.411    -1.319  0.8892 -0.4463 -0.1012
    15 N(14)  Bbb    -0.0749    -2.889    -1.031    -0.964 -0.1144 -0.4310  0.8951
              Bcc     0.1774     6.843     2.442     2.283  0.4431  0.7843  0.4343
 
              Baa    -0.0307    -4.122    -1.471    -1.375 -0.1437 -0.3489  0.9261
    16 C(13)  Bbb    -0.0049    -0.662    -0.236    -0.221 -0.4555  0.8541  0.2511
              Bcc     0.0356     4.784     1.707     1.596  0.8785  0.3858  0.2817
 
              Baa    -0.0097    -1.299    -0.463    -0.433 -0.2524 -0.3195  0.9133
    17 C(13)  Bbb    -0.0080    -1.074    -0.383    -0.358 -0.0768  0.9475  0.3103
              Bcc     0.0177     2.373     0.847     0.792  0.9646 -0.0082  0.2637
 
              Baa    -0.0042    -0.565    -0.201    -0.188 -0.5241 -0.4137  0.7444
    18 C(13)  Bbb    -0.0040    -0.533    -0.190    -0.178 -0.1182  0.9010  0.4175
              Bcc     0.0082     1.098     0.392     0.366  0.8434 -0.1308  0.5211
 
              Baa    -0.0036    -0.486    -0.174    -0.162 -0.0259  0.6932  0.7203
    19 C(13)  Bbb    -0.0033    -0.445    -0.159    -0.148  0.6175  0.5777 -0.5337
              Bcc     0.0069     0.931     0.332     0.311  0.7861 -0.4310  0.4431
 
              Baa    -0.0019    -0.253    -0.090    -0.084  0.7267  0.1856 -0.6614
    20 C(13)  Bbb    -0.0017    -0.228    -0.081    -0.076  0.2261  0.8446  0.4853
              Bcc     0.0036     0.480     0.171     0.160  0.6487 -0.5022  0.5718
 
              Baa    -0.0013    -0.176    -0.063    -0.059  0.1733  0.9318  0.3189
    21 C(13)  Bbb    -0.0011    -0.149    -0.053    -0.050  0.7408  0.0901 -0.6656
              Bcc     0.0024     0.325     0.116     0.108  0.6490 -0.3516  0.6747
 
              Baa    -0.0014    -0.186    -0.066    -0.062  0.7154 -0.2643 -0.6467
    22 C(13)  Bbb    -0.0013    -0.170    -0.061    -0.057  0.2932  0.9538 -0.0655
              Bcc     0.0027     0.357     0.127     0.119  0.6342 -0.1428  0.7599
 
              Baa    -0.0025    -0.333    -0.119    -0.111 -0.2431  0.9286  0.2803
    23 C(13)  Bbb    -0.0021    -0.277    -0.099    -0.093 -0.6145 -0.3710  0.6962
              Bcc     0.0045     0.610     0.218     0.204  0.7505 -0.0030  0.6609
 
              Baa    -0.0033    -0.438    -0.156    -0.146 -0.1235  0.6849  0.7181
    24 C(13)  Bbb    -0.0031    -0.421    -0.150    -0.140 -0.0885  0.7131 -0.6954
              Bcc     0.0064     0.859     0.307     0.287  0.9884  0.1494  0.0275
 
              Baa    -0.0031    -0.415    -0.148    -0.139 -0.2268  0.9316 -0.2841
    25 C(13)  Bbb    -0.0029    -0.391    -0.140    -0.131  0.2263  0.3341  0.9150
              Bcc     0.0060     0.807     0.288     0.269  0.9473  0.1432 -0.2866
 
              Baa    -0.0014    -0.187    -0.067    -0.062  0.1399  0.6927  0.7075
    26 C(13)  Bbb    -0.0014    -0.186    -0.066    -0.062 -0.3504  0.7029 -0.6190
              Bcc     0.0028     0.373     0.133     0.124  0.9261  0.1613 -0.3411
 
              Baa    -0.0009    -0.127    -0.045    -0.042 -0.1414  0.9785  0.1499
    27 C(13)  Bbb    -0.0008    -0.112    -0.040    -0.037  0.2255 -0.1156  0.9673
              Bcc     0.0018     0.239     0.085     0.080  0.9639  0.1706 -0.2044
 
              Baa    -0.0009    -0.124    -0.044    -0.041 -0.1453  0.9174 -0.3706
    28 C(13)  Bbb    -0.0009    -0.119    -0.042    -0.040 -0.0478  0.3676  0.9288
              Bcc     0.0018     0.243     0.087     0.081  0.9882  0.1526 -0.0096
 
              Baa    -0.0016    -0.216    -0.077    -0.072 -0.0793  0.8995 -0.4296
    29 C(13)  Bbb    -0.0015    -0.201    -0.072    -0.067 -0.1789  0.4112  0.8938
              Bcc     0.0031     0.417     0.149     0.139  0.9807  0.1477  0.1283
 
              Baa    -0.0070    -0.942    -0.336    -0.314  0.8017 -0.5347 -0.2671
    30 C(13)  Bbb    -0.0037    -0.492    -0.176    -0.164  0.0369 -0.4018  0.9150
              Bcc     0.0107     1.434     0.512     0.478  0.5966  0.7434  0.3023
 
              Baa    -0.0005    -0.281    -0.100    -0.094  0.5658 -0.5427  0.6207
    31 H(1)   Bbb    -0.0005    -0.277    -0.099    -0.093  0.7472  0.0193 -0.6643
              Bcc     0.0010     0.558     0.199     0.186  0.3486  0.8397  0.4164
 
              Baa    -0.0009    -0.495    -0.177    -0.165  0.8904 -0.3278  0.3158
    32 H(1)   Bbb    -0.0008    -0.427    -0.152    -0.142 -0.3958 -0.2149  0.8929
              Bcc     0.0017     0.922     0.329     0.308  0.2248  0.9200  0.3211
 
              Baa    -0.0009    -0.474    -0.169    -0.158  0.9738 -0.1203 -0.1931
    33 H(1)   Bbb    -0.0008    -0.408    -0.146    -0.136  0.0974 -0.5463  0.8319
              Bcc     0.0017     0.882     0.315     0.294  0.2055  0.8289  0.5202
 
              Baa    -0.0028    -1.477    -0.527    -0.493  0.9998  0.0168 -0.0144
    34 H(1)   Bbb    -0.0024    -1.300    -0.464    -0.434  0.0202 -0.4304  0.9024
              Bcc     0.0052     2.777     0.991     0.926 -0.0090  0.9025  0.4307
 
              Baa    -0.0092    -4.934    -1.761    -1.646  0.2753  0.8255 -0.4926
    35 H(1)   Bbb    -0.0079    -4.199    -1.498    -1.401 -0.1523  0.5434  0.8255
              Bcc     0.0171     9.134     3.259     3.047  0.9492 -0.1522  0.2753
 
              Baa    -0.0021    -1.121    -0.400    -0.374  0.3813  0.7236  0.5753
    36 H(1)   Bbb    -0.0020    -1.071    -0.382    -0.357 -0.5348  0.6803 -0.5013
              Bcc     0.0041     2.192     0.782     0.731  0.7541  0.1165 -0.6464
 
              Baa    -0.0024    -1.296    -0.462    -0.432  0.4212  0.8853  0.1972
    37 H(1)   Bbb    -0.0022    -1.198    -0.428    -0.400  0.4978 -0.4074  0.7656
              Bcc     0.0047     2.494     0.890     0.832  0.7581 -0.2244 -0.6123
 
              Baa    -0.0052    -2.764    -0.986    -0.922  0.4248  0.8586  0.2868
    38 H(1)   Bbb    -0.0047    -2.533    -0.904    -0.845  0.6702 -0.5113  0.5379
              Bcc     0.0099     5.297     1.890     1.767 -0.6086  0.0363  0.7927
 
              Baa    -0.0031    -1.675    -0.598    -0.559  0.2340  0.2387  0.9425
    39 H(1)   Bbb    -0.0030    -1.579    -0.564    -0.527 -0.5612  0.8247 -0.0696
              Bcc     0.0061     3.255     1.161     1.086  0.7939  0.5127 -0.3270
 
              Baa    -0.0120    -6.416    -2.289    -2.140  0.3113  0.3196  0.8949
    40 H(1)   Bbb    -0.0100    -5.359    -1.912    -1.788 -0.6351  0.7705 -0.0542
              Bcc     0.0221    11.775     4.202     3.928  0.7069  0.5515 -0.4429
 
              Baa    -0.0063    -3.351    -1.196    -1.118 -0.0773  0.0709  0.9945
    41 H(1)   Bbb    -0.0059    -3.132    -1.117    -1.045 -0.5129  0.8525 -0.1007
              Bcc     0.0121     6.483     2.313     2.162  0.8550  0.5178  0.0295
 
              Baa    -0.0014    -0.772    -0.276    -0.258  0.1501  0.4237  0.8933
    42 H(1)   Bbb    -0.0014    -0.753    -0.269    -0.251 -0.2674  0.8872 -0.3759
              Bcc     0.0029     1.526     0.544     0.509  0.9518  0.1824 -0.2465
 
              Baa    -0.0020    -1.058    -0.377    -0.353 -0.0201 -0.1423  0.9896
    43 H(1)   Bbb    -0.0019    -1.031    -0.368    -0.344 -0.1073  0.9844  0.1394
              Bcc     0.0039     2.088     0.745     0.697  0.9940  0.1034  0.0351
 
              Baa    -0.0016    -0.842    -0.301    -0.281  0.2197  0.3997  0.8899
    44 H(1)   Bbb    -0.0015    -0.812    -0.290    -0.271  0.0124  0.9110 -0.4122
              Bcc     0.0031     1.654     0.590     0.552  0.9755 -0.1016 -0.1952
 
              Baa    -0.0028    -1.468    -0.524    -0.490  0.4703  0.3363  0.8159
    45 H(1)   Bbb    -0.0022    -1.198    -0.428    -0.400  0.3162  0.7990 -0.5116
              Bcc     0.0050     2.666     0.951     0.889  0.8239 -0.4986 -0.2694
 
              Baa    -0.0035    -1.871    -0.668    -0.624  0.5445  0.6900  0.4768
    46 H(1)   Bbb    -0.0028    -1.473    -0.526    -0.491 -0.4056 -0.2810  0.8698
              Bcc     0.0063     3.344     1.193     1.115  0.7342 -0.6670  0.1269
 
              Baa    -0.0153    -8.185    -2.921    -2.730 -0.1521 -0.4498  0.8801
    47 H(1)   Bbb    -0.0142    -7.590    -2.708    -2.532  0.0930  0.8800  0.4658
              Bcc     0.0296    15.775     5.629     5.262  0.9840 -0.1527  0.0920
 
              Baa    -0.0043    -2.280    -0.814    -0.761 -0.0143  0.3757  0.9266
    48 H(1)   Bbb    -0.0040    -2.160    -0.771    -0.720  0.6286  0.7241 -0.2839
              Bcc     0.0083     4.440     1.584     1.481  0.7776 -0.5784  0.2465
 
              Baa    -0.0014    -0.731    -0.261    -0.244 -0.3155  0.3894  0.8653
    49 H(1)   Bbb    -0.0014    -0.723    -0.258    -0.241  0.7435  0.6680 -0.0296
              Bcc     0.0027     1.454     0.519     0.485 -0.5896  0.6341 -0.5003
 
              Baa    -0.0008    -0.433    -0.154    -0.144 -0.2078  0.7814  0.5884
    50 H(1)   Bbb    -0.0008    -0.424    -0.151    -0.142  0.8021  0.4804 -0.3548
              Bcc     0.0016     0.857     0.306     0.286  0.5599 -0.3982  0.7266
 
              Baa    -0.0009    -0.489    -0.174    -0.163  0.6596 -0.5228 -0.5401
    51 H(1)   Bbb    -0.0009    -0.479    -0.171    -0.160  0.4480  0.8504 -0.2760
              Bcc     0.0018     0.967     0.345     0.323  0.6036 -0.0599  0.7951
 
              Baa    -0.0020    -1.082    -0.386    -0.361 -0.5383  0.7604  0.3634
    52 H(1)   Bbb    -0.0020    -1.059    -0.378    -0.353 -0.4413 -0.6216  0.6472
              Bcc     0.0040     2.141     0.764     0.714  0.7180  0.1880  0.6702
 
              Baa    -0.0050    -2.666    -0.951    -0.889 -0.1383  0.9902 -0.0208
    53 H(1)   Bbb    -0.0047    -2.528    -0.902    -0.843  0.4413  0.0804  0.8938
              Bcc     0.0097     5.194     1.853     1.733  0.8867  0.1144 -0.4480
 
              Baa    -0.0012    -0.623    -0.222    -0.208 -0.1499  0.9874  0.0503
    54 H(1)   Bbb    -0.0012    -0.614    -0.219    -0.205  0.4891  0.0298  0.8717
              Bcc     0.0023     1.238     0.442     0.413  0.8592  0.1553 -0.4874
 
              Baa    -0.0006    -0.312    -0.111    -0.104 -0.1367  0.9759  0.1701
    55 H(1)   Bbb    -0.0006    -0.308    -0.110    -0.103  0.2728 -0.1280  0.9535
              Bcc     0.0012     0.620     0.221     0.207  0.9523  0.1767 -0.2488
 
              Baa    -0.0006    -0.323    -0.115    -0.108 -0.1718  0.9765  0.1302
    56 H(1)   Bbb    -0.0006    -0.322    -0.115    -0.107 -0.0315 -0.1375  0.9900
              Bcc     0.0012     0.645     0.230     0.215  0.9846  0.1660  0.0544
 
              Baa    -0.0013    -0.699    -0.249    -0.233 -0.3073  0.5893  0.7472
    57 H(1)   Bbb    -0.0013    -0.690    -0.246    -0.230  0.0776  0.7981 -0.5975
              Bcc     0.0026     1.389     0.496     0.463  0.9484  0.1256  0.2910
 
              Baa    -0.0024    -1.271    -0.454    -0.424 -0.4288  0.0509  0.9020
    58 H(1)   Bbb    -0.0023    -1.218    -0.435    -0.406 -0.4423  0.8588 -0.2587
              Bcc     0.0047     2.490     0.888     0.830  0.7877  0.5098  0.3457
 
              Baa    -0.2021     9.651     3.444     3.219  0.9248  0.1057  0.3655
    59 Ni(61) Bbb    -0.0590     2.818     1.005     0.940 -0.3722  0.0523  0.9267
              Bcc     0.2611   -12.469    -4.449    -4.159 -0.0788  0.9930 -0.0877
 
              Baa    -0.3314  -166.423   -59.384   -55.513 -0.1808 -0.2825  0.9421
    60 F(19)  Bbb    -0.1391   -69.869   -24.931   -23.306  0.9677  0.1200  0.2217
              Bcc     0.4705   236.292    84.315    78.818 -0.1757  0.9517  0.2516
 
              Baa    -0.2409  -121.001   -43.176   -40.362 -0.1243 -0.5263  0.8412
    61 F(19)  Bbb    -0.0396   -19.865    -7.088    -6.626  0.9654  0.1317  0.2251
              Bcc     0.2805   140.866    50.265    46.988 -0.2293  0.8400  0.4917
 

 ---------------------------------------------------------------------------------

 PrsmSu:  requested number of processors reduced to:  12 ShMem   1 Linda.
   1 Symmetry operations used in ECPInt.
 ECPInt:  NShTT=   21115 NPrTT=  128985 LenC2=   17017 LenP2D=   55466.
 LDataN:  DoStor=T MaxTD1= 7 Len=  274
 Number of processors reduced to  14 by ecpmxn.
 Calling FoFJK, ICntrl=      2127 FMM=T ISym2X=0 I1Cent= 0 IOpClX= 1 NMat=1 NMatS=1 NMatT=0.
 ***** Axes restored to original set *****
 -------------------------------------------------------------------
 Center     Atomic                   Forces (Hartrees/Bohr)
 Number     Number              X              Y              Z
 -------------------------------------------------------------------
      1        6           0.002181688   -0.000252123    0.005635786
      2        8          -0.004510738    0.016094774    0.005165405
      3        6           0.005212456   -0.016120661   -0.003602429
      4        6          -0.000727463    0.001233853   -0.000564340
      5        6          -0.001924615   -0.012151087   -0.018512769
      6        6           0.025330580   -0.042723801    0.010838427
      7        7          -0.004738299    0.019640452    0.028977254
      8        6          -0.003479139    0.007518051    0.026741677
      9        6          -0.010750545    0.007121023    0.009491771
     10        6           0.007403734    0.001112777   -0.006918451
     11        6           0.000860119   -0.004646861   -0.007910627
     12        6           0.005102737   -0.002767601   -0.005131314
     13        6          -0.000608693    0.015327538    0.008576493
     14        8          -0.003727428   -0.024455384   -0.022437806
     15        7          -0.007713037   -0.030328288   -0.027075708
     16        6          -0.000500346   -0.004444398   -0.002354550
     17        6           0.002726737    0.005593456    0.003198489
     18        6           0.009259805   -0.010011740    0.003425304
     19        6           0.001765764   -0.001310209   -0.001148087
     20        6           0.003872170   -0.004175155   -0.002201200
     21        6          -0.003125459   -0.000501544    0.000441319
     22        6           0.000875676    0.004696673    0.000136053
     23        6          -0.001781523    0.006347851   -0.001149914
     24        6          -0.008167734   -0.004793696    0.003441004
     25        6           0.000037983   -0.002339083   -0.000229401
     26        6          -0.003905658   -0.003758501    0.000628068
     27        6           0.000857056    0.000640275   -0.003148532
     28        6           0.003003789    0.002107892    0.003322097
     29        6           0.004953047    0.000536849    0.001423108
     30        6          -0.002521429    0.006179006    0.006377774
     31        1          -0.003850802    0.004027488   -0.006247214
     32        1           0.003096181    0.003067215    0.001720181
     33        1          -0.002685441    0.000766513    0.003853248
     34        1           0.001288456   -0.000997812    0.002587126
     35        1          -0.003142688    0.003405947    0.002028239
     36        1          -0.000112898    0.003759936    0.002312640
     37        1           0.003532824   -0.003748441    0.001962609
     38        1          -0.000759965    0.001155305   -0.004127052
     39        1           0.000427155   -0.002603542    0.005849437
     40        1           0.001625762    0.002256277   -0.005922096
     41        1           0.003467295    0.002448667   -0.000772117
     42        1          -0.004026780   -0.000204490   -0.001582863
     43        1           0.002256059    0.003566829   -0.001428478
     44        1           0.003407116   -0.004603476    0.001294284
     45        1          -0.004027427   -0.003594942   -0.001500273
     46        1           0.002941804   -0.001339890   -0.002903478
     47        1           0.003480924    0.002556533    0.005659215
     48        1           0.003971699    0.001039966    0.001333170
     49        1          -0.001887739    0.003158646    0.000915585
     50        1          -0.004625032   -0.000741759    0.000547045
     51        1          -0.001526131   -0.004067769   -0.000477712
     52        1           0.004705376   -0.002788935    0.000037840
     53        1           0.000031208    0.000305108    0.006069540
     54        1           0.002912092    0.002717019   -0.000176156
     55        1           0.001464111    0.001025170   -0.004367730
     56        1          -0.001974645   -0.001795786   -0.003199239
     57        1          -0.003712085   -0.001314587    0.003166700
     58        1           0.000146751    0.001232672   -0.002598886
     59       28          -0.024536340    0.086288648   -0.020951787
     60        9           0.004719356   -0.011713924   -0.000443912
     61        9          -0.001867428   -0.012632920    0.001927236
 -------------------------------------------------------------------
 Cartesian Forces:  Max     0.086288648 RMS     0.010352762

 GradGradGradGradGradGradGradGradGradGradGradGradGradGradGradGradGradGrad
 Berny optimization.
 FormGI is forming the generalized inverse of G from B-inverse, IUseBI=4.
 Internal  Forces:  Max     0.049046035 RMS     0.006060529
 Search for a local minimum.
 Step number   1 out of a maximum of  362
 All quantities printed in internal units (Hartrees-Bohrs-Radians)
 Mixed Optimization -- RFO/linear search
 Second derivative matrix not updated -- first step.
 ITU=  0
     Eigenvalues ---    0.00230   0.00230   0.00230   0.00230   0.00230
     Eigenvalues ---    0.00230   0.00251   0.00710   0.01330   0.01345
     Eigenvalues ---    0.01365   0.01382   0.01893   0.01972   0.02037
     Eigenvalues ---    0.02051   0.02063   0.02069   0.02077   0.02085
     Eigenvalues ---    0.02101   0.02116   0.02121   0.02123   0.02136
     Eigenvalues ---    0.02137   0.02167   0.02167   0.02189   0.02190
     Eigenvalues ---    0.02191   0.02191   0.02192   0.02193   0.02193
     Eigenvalues ---    0.02195   0.02395   0.02757   0.02947   0.03588
     Eigenvalues ---    0.03592   0.03949   0.04207   0.04677   0.04689
     Eigenvalues ---    0.04819   0.05200   0.05218   0.05237   0.05315
     Eigenvalues ---    0.05334   0.05345   0.05365   0.05747   0.06375
     Eigenvalues ---    0.06432   0.06529   0.09952   0.10308   0.10469
     Eigenvalues ---    0.11061   0.11317   0.11431   0.12285   0.13668
     Eigenvalues ---    0.13886   0.14260   0.14465   0.15996   0.15999
     Eigenvalues ---    0.15999   0.15999   0.15999   0.15999   0.16000
     Eigenvalues ---    0.16000   0.16000   0.16000   0.16000   0.16000
     Eigenvalues ---    0.16000   0.16000   0.16000   0.16000   0.16000
     Eigenvalues ---    0.16000   0.16000   0.16000   0.16000   0.16000
     Eigenvalues ---    0.16000   0.16000   0.19708   0.19801   0.19802
     Eigenvalues ---    0.19803   0.19959   0.20140   0.21998   0.21998
     Eigenvalues ---    0.22000   0.22000   0.22023   0.23464   0.23465
     Eigenvalues ---    0.23475   0.23569   0.23859   0.24520   0.24752
     Eigenvalues ---    0.24898   0.24971   0.24972   0.24997   0.24999
     Eigenvalues ---    0.25000   0.25549   0.26891   0.27673   0.27859
     Eigenvalues ---    0.27877   0.28275   0.28385   0.28614   0.34498
     Eigenvalues ---    0.34616   0.34661   0.34682   0.34685   0.34693
     Eigenvalues ---    0.34696   0.34706   0.34707   0.34743   0.34809
     Eigenvalues ---    0.34846   0.34850   0.34887   0.34887   0.35185
     Eigenvalues ---    0.35783   0.35798   0.35946   0.35952   0.35953
     Eigenvalues ---    0.35954   0.35958   0.35970   0.35978   0.35980
     Eigenvalues ---    0.36121   0.36181   0.36763   0.37415   0.40796
     Eigenvalues ---    0.41540   0.41882   0.41932   0.41954   0.42208
     Eigenvalues ---    0.42226   0.42251   0.45163   0.45655   0.45730
     Eigenvalues ---    0.46122   0.46260   0.46266   0.46909   0.46940
     Eigenvalues ---    0.46948   0.46970   0.48553   0.49326   0.49733
     Eigenvalues ---    0.51148   0.71247
 RFO step:  Lambda=-4.14475718D-02 EMin= 2.30000000D-03
 Linear search not attempted -- first point.
 Maximum step size (   0.300) exceeded in Quadratic search.
    -- Step size scaled by   0.842
 Iteration  1 RMS(Cart)=  0.07822252 RMS(Int)=  0.00097140
 Iteration  2 RMS(Cart)=  0.00205484 RMS(Int)=  0.00018581
 Iteration  3 RMS(Cart)=  0.00000159 RMS(Int)=  0.00018581
 Iteration  4 RMS(Cart)=  0.00000000 RMS(Int)=  0.00018581
 Variable       Old X    -DE/DX   Delta X   Delta X   Delta X     New X
                                 (Linear)    (Quad)   (Total)
    R1        2.68982  -0.00407   0.00000  -0.00744  -0.00744   2.68238
    R2        2.05987   0.00055   0.00000   0.00119   0.00119   2.06106
    R3        2.06189   0.00414   0.00000   0.00897   0.00897   2.07087
    R4        2.06194   0.00420   0.00000   0.00910   0.00910   2.07104
    R5        2.60551  -0.02616   0.00000  -0.04117  -0.04117   2.56434
    R6        2.65547  -0.00457   0.00000  -0.00634  -0.00638   2.64909
    R7        2.64340  -0.00075   0.00000  -0.00073  -0.00071   2.64269
    R8        2.63445  -0.00711   0.00000  -0.01091  -0.01096   2.62349
    R9        2.03800   0.00270   0.00000   0.00563   0.00563   2.04363
   R10        2.73313   0.00933   0.00000   0.02087   0.02027   2.75340
   R11        2.56974   0.00289   0.00000  -0.00062  -0.00093   2.56881
   R12        2.36512   0.04905   0.00000   0.05501   0.05490   2.42002
   R13        2.56977  -0.00966   0.00000  -0.01301  -0.01298   2.55679
   R14        2.72623   0.01056   0.00000   0.02460   0.02465   2.75088
   R15        3.46972   0.04177   0.00000   0.14160   0.14201   3.61173
   R16        2.97833  -0.01742   0.00000  -0.04936  -0.04936   2.92897
   R17        2.92999   0.00904   0.00000   0.01710   0.01701   2.94700
   R18        2.06498   0.00112   0.00000   0.00244   0.00244   2.06742
   R19        2.92858  -0.00804   0.00000  -0.02128  -0.02128   2.90731
   R20        2.92409  -0.00342   0.00000  -0.00898  -0.00898   2.91512
   R21        2.92447  -0.00456   0.00000  -0.01199  -0.01199   2.91248
   R22        2.06172   0.00207   0.00000   0.00448   0.00448   2.06620
   R23        2.05925   0.00538   0.00000   0.01162   0.01162   2.07088
   R24        2.06153   0.00375   0.00000   0.00813   0.00813   2.06966
   R25        2.06177   0.00324   0.00000   0.00703   0.00703   2.06880
   R26        2.05859   0.00394   0.00000   0.00849   0.00849   2.06708
   R27        2.06095   0.00400   0.00000   0.00866   0.00866   2.06961
   R28        2.06228   0.00189   0.00000   0.00410   0.00410   2.06638
   R29        2.06155   0.00419   0.00000   0.00908   0.00908   2.07063
   R30        2.05920   0.00580   0.00000   0.01251   0.01251   2.07171
   R31        2.68692   0.02176   0.00000   0.03320   0.03312   2.72004
   R32        2.05858   0.00085   0.00000   0.00183   0.00183   2.06042
   R33        2.06303   0.00271   0.00000   0.00587   0.00587   2.06891
   R34        2.57768  -0.02307   0.00000  -0.03584  -0.03580   2.54188
   R35        3.54239   0.03606   0.00000   0.11662   0.11702   3.65941
   R36        2.91304  -0.02001   0.00000  -0.05175  -0.05175   2.86128
   R37        2.65411  -0.01201   0.00000  -0.02156  -0.02150   2.63261
   R38        2.91541  -0.01032   0.00000  -0.02679  -0.02679   2.88862
   R39        2.90816  -0.00916   0.00000  -0.02353  -0.02353   2.88462
   R40        2.05375   0.00565   0.00000   0.01209   0.01209   2.06584
   R41        2.64720  -0.00413   0.00000  -0.00753  -0.00753   2.63967
   R42        2.65174  -0.00335   0.00000  -0.00620  -0.00620   2.64553
   R43        2.63033   0.00262   0.00000   0.00425   0.00425   2.63457
   R44        2.04422   0.00275   0.00000   0.00579   0.00579   2.05001
   R45        2.63056   0.00309   0.00000   0.00555   0.00555   2.63611
   R46        2.04153   0.00378   0.00000   0.00793   0.00793   2.04946
   R47        2.63082   0.00206   0.00000   0.00391   0.00391   2.63473
   R48        2.04147   0.00471   0.00000   0.00987   0.00987   2.05134
   R49        2.63106   0.00384   0.00000   0.00639   0.00639   2.63745
   R50        2.04129   0.00436   0.00000   0.00914   0.00914   2.05043
   R51        2.03893   0.00483   0.00000   0.01009   0.01009   2.04902
   R52        2.64680  -0.00246   0.00000  -0.00464  -0.00464   2.64216
   R53        2.64964  -0.00347   0.00000  -0.00637  -0.00637   2.64327
   R54        2.63072   0.00325   0.00000   0.00534   0.00534   2.63606
   R55        2.04399   0.00494   0.00000   0.01041   0.01041   2.05440
   R56        2.63129   0.00323   0.00000   0.00577   0.00577   2.63705
   R57        2.04157   0.00397   0.00000   0.00834   0.00834   2.04991
   R58        2.63131   0.00272   0.00000   0.00494   0.00494   2.63624
   R59        2.04155   0.00472   0.00000   0.00990   0.00990   2.05145
   R60        2.63081   0.00411   0.00000   0.00678   0.00678   2.63759
   R61        2.04167   0.00416   0.00000   0.00873   0.00873   2.05040
   R62        2.04116   0.00399   0.00000   0.00837   0.00837   2.04953
   R63        2.04112   0.00221   0.00000   0.00464   0.00464   2.04576
   R64        3.53364  -0.00925   0.00000  -0.03252  -0.03252   3.50112
   R65        3.53368  -0.01052   0.00000  -0.03698  -0.03698   3.49669
    A1        1.90671  -0.01154   0.00000  -0.04909  -0.04926   1.85745
    A2        1.94719  -0.00014   0.00000  -0.00016  -0.00026   1.94693
    A3        1.94694  -0.00014   0.00000  -0.00012  -0.00022   1.94672
    A4        1.87696   0.00544   0.00000   0.02188   0.02171   1.89867
    A5        1.87707   0.00547   0.00000   0.02204   0.02187   1.89894
    A6        1.90633   0.00130   0.00000   0.00698   0.00693   1.91326
    A7        2.08207  -0.01019   0.00000  -0.02942  -0.02942   2.05265
    A8        2.17323  -0.00129   0.00000  -0.00533  -0.00530   2.16793
    A9        2.03482  -0.00066   0.00000  -0.00352  -0.00349   2.03133
   A10        2.07510   0.00195   0.00000   0.00888   0.00881   2.08391
   A11        2.05896  -0.00500   0.00000  -0.01177  -0.01191   2.04705
   A12        2.12750   0.00396   0.00000   0.01200   0.01207   2.13957
   A13        2.09669   0.00103   0.00000  -0.00027  -0.00020   2.09648
   A14        2.20420  -0.00282   0.00000  -0.00879  -0.00840   2.19579
   A15        2.14956   0.00121   0.00000   0.00309   0.00332   2.15288
   A16        1.92924   0.00162   0.00000   0.00579   0.00515   1.93439
   A17        2.08364  -0.00393   0.00000   0.00107   0.00050   2.08414
   A18        2.18031  -0.00319   0.00000  -0.02857  -0.02843   2.15188
   A19        2.01723   0.00719   0.00000   0.02861   0.02888   2.04611
   A20        1.91501  -0.00669   0.00000  -0.01042  -0.01067   1.90434
   A21        1.94257  -0.00153   0.00000   0.00772   0.00797   1.95054
   A22        2.40272   0.00847   0.00000   0.00537   0.00531   2.40803
   A23        1.96455  -0.00180   0.00000  -0.02267  -0.02271   1.94184
   A24        1.78567  -0.00493   0.00000  -0.01630  -0.01619   1.76948
   A25        1.88346   0.00332   0.00000   0.02120   0.02117   1.90463
   A26        2.01171   0.00509   0.00000   0.01675   0.01651   2.02822
   A27        1.90371  -0.00386   0.00000  -0.01726  -0.01739   1.88632
   A28        1.90856   0.00238   0.00000   0.02067   0.02073   1.92929
   A29        1.97202  -0.00287   0.00000  -0.02500  -0.02482   1.94720
   A30        1.92531  -0.00269   0.00000  -0.02127  -0.02105   1.90426
   A31        1.91404  -0.00094   0.00000  -0.01161  -0.01134   1.90270
   A32        1.88511   0.00273   0.00000   0.02007   0.01934   1.90445
   A33        1.89543   0.00165   0.00000   0.01697   0.01632   1.91175
   A34        1.86875   0.00251   0.00000   0.02442   0.02395   1.89270
   A35        1.94487  -0.00500   0.00000  -0.02242  -0.02250   1.92237
   A36        1.96134   0.00001   0.00000   0.00100   0.00099   1.96233
   A37        1.94849  -0.00186   0.00000  -0.00720  -0.00726   1.94123
   A38        1.86718   0.00245   0.00000   0.00921   0.00917   1.87636
   A39        1.86286   0.00317   0.00000   0.01145   0.01132   1.87418
   A40        1.87379   0.00177   0.00000   0.01017   0.01018   1.88397
   A41        1.95214  -0.00695   0.00000  -0.02756  -0.02765   1.92449
   A42        1.94971   0.00327   0.00000   0.01621   0.01631   1.96602
   A43        1.95430  -0.00189   0.00000  -0.01194  -0.01208   1.94222
   A44        1.85535   0.00402   0.00000   0.02436   0.02450   1.87985
   A45        1.87131   0.00353   0.00000   0.01005   0.00972   1.88103
   A46        1.87563  -0.00150   0.00000  -0.00899  -0.00893   1.86670
   A47        1.94578  -0.00512   0.00000  -0.02238  -0.02243   1.92335
   A48        1.94793  -0.00110   0.00000  -0.00454  -0.00459   1.94335
   A49        1.96496   0.00042   0.00000   0.00266   0.00267   1.96762
   A50        1.86653   0.00285   0.00000   0.01018   0.01008   1.87661
   A51        1.85819   0.00256   0.00000   0.01059   0.01059   1.86878
   A52        1.87483   0.00086   0.00000   0.00537   0.00538   1.88021
   A53        1.80026   0.01485   0.00000   0.03533   0.03522   1.83548
   A54        1.99893  -0.00281   0.00000  -0.00446  -0.00422   1.99471
   A55        1.94149  -0.00150   0.00000   0.00469   0.00479   1.94628
   A56        1.93223  -0.00857   0.00000  -0.02964  -0.02953   1.90270
   A57        1.90940  -0.00528   0.00000  -0.01962  -0.01993   1.88948
   A58        1.88016   0.00300   0.00000   0.01193   0.01168   1.89184
   A59        1.86634  -0.01003   0.00000  -0.03170  -0.03193   1.83440
   A60        2.08170  -0.00132   0.00000  -0.00231  -0.00244   2.07925
   A61        1.93295   0.01443   0.00000   0.03323   0.03342   1.96636
   A62        2.26339  -0.01321   0.00000  -0.03143  -0.03149   2.23190
   A63        2.06865  -0.01975   0.00000  -0.05467  -0.05472   2.01393
   A64        2.09615   0.00678   0.00000   0.01494   0.01499   2.11114
   A65        2.11828   0.01298   0.00000   0.03986   0.03982   2.15809
   A66        1.98872  -0.00419   0.00000  -0.02144  -0.02143   1.96729
   A67        1.96930  -0.00176   0.00000  -0.01291  -0.01292   1.95638
   A68        1.84951  -0.00115   0.00000  -0.01265  -0.01244   1.83707
   A69        1.99783   0.00391   0.00000   0.01193   0.01151   2.00934
   A70        1.80876   0.00229   0.00000   0.02174   0.02139   1.83015
   A71        1.82683   0.00144   0.00000   0.01886   0.01853   1.84537
   A72        2.08099  -0.00507   0.00000  -0.01367  -0.01369   2.06730
   A73        2.12283   0.00426   0.00000   0.01329   0.01328   2.13611
   A74        2.07844   0.00085   0.00000   0.00083   0.00081   2.07925
   A75        2.10320   0.00004   0.00000  -0.00102  -0.00102   2.10218
   A76        2.10282  -0.00305   0.00000  -0.01216  -0.01216   2.09066
   A77        2.07712   0.00300   0.00000   0.01313   0.01312   2.09024
   A78        2.08943   0.00192   0.00000   0.00695   0.00696   2.09639
   A79        2.09345  -0.00123   0.00000  -0.00463  -0.00463   2.08882
   A80        2.10026  -0.00069   0.00000  -0.00235  -0.00236   2.09791
   A81        2.10382  -0.00427   0.00000  -0.01184  -0.01183   2.09199
   A82        2.08829   0.00242   0.00000   0.00710   0.00709   2.09538
   A83        2.09104   0.00185   0.00000   0.00474   0.00473   2.09577
   A84        2.08949   0.00076   0.00000   0.00358   0.00359   2.09308
   A85        2.09622   0.00001   0.00000  -0.00017  -0.00017   2.09605
   A86        2.09746  -0.00077   0.00000  -0.00342  -0.00342   2.09404
   A87        2.10174   0.00071   0.00000   0.00148   0.00148   2.10322
   A88        2.11346  -0.00277   0.00000  -0.01083  -0.01083   2.10263
   A89        2.06795   0.00207   0.00000   0.00937   0.00937   2.07732
   A90        2.07991  -0.00573   0.00000  -0.01558  -0.01565   2.06426
   A91        2.12002   0.00435   0.00000   0.01357   0.01351   2.13353
   A92        2.08230   0.00143   0.00000   0.00280   0.00276   2.08506
   A93        2.10076  -0.00020   0.00000  -0.00151  -0.00150   2.09926
   A94        2.10364  -0.00351   0.00000  -0.01433  -0.01433   2.08930
   A95        2.07878   0.00371   0.00000   0.01584   0.01584   2.09462
   A96        2.08924   0.00149   0.00000   0.00568   0.00569   2.09493
   A97        2.09506  -0.00106   0.00000  -0.00416  -0.00416   2.09091
   A98        2.09886  -0.00043   0.00000  -0.00153  -0.00153   2.09733
   A99        2.10444  -0.00395   0.00000  -0.01091  -0.01091   2.09353
   A100       2.08903   0.00207   0.00000   0.00585   0.00585   2.09487
   A101       2.08967   0.00188   0.00000   0.00508   0.00507   2.09475
   A102       2.08951   0.00124   0.00000   0.00493   0.00493   2.09444
   A103       2.09731  -0.00038   0.00000  -0.00148  -0.00148   2.09582
   A104       2.09634  -0.00086   0.00000  -0.00346  -0.00346   2.09288
   A105       2.09982   0.00000   0.00000  -0.00082  -0.00082   2.09900
   A106       2.10898  -0.00292   0.00000  -0.01180  -0.01181   2.09717
   A107       2.07439   0.00292   0.00000   0.01261   0.01260   2.08698
   A108       2.10263  -0.00359   0.00000  -0.01263  -0.01261   2.09002
   A109       2.07671   0.00300   0.00000   0.01144   0.01141   2.08812
   A110       2.10361   0.00060   0.00000   0.00138   0.00135   2.10496
   A111       1.51084  -0.01038   0.00000  -0.04589  -0.04518   1.46566
   A112       2.00610   0.00051   0.00000   0.00294   0.00174   2.00784
   A113       2.00693   0.00116   0.00000   0.00040  -0.00049   2.00644
   A114       2.00339  -0.00082   0.00000  -0.01341  -0.01409   1.98930
   A115       2.00245  -0.00278   0.00000  -0.01081  -0.01116   1.99129
   A116       1.91018   0.00837   0.00000   0.04643   0.04649   1.95667
    D1       -3.13776  -0.00002   0.00000  -0.00038  -0.00038  -3.13814
    D2       -1.06485  -0.00078   0.00000  -0.00491  -0.00481  -1.06967
    D3        1.07254   0.00070   0.00000   0.00392   0.00382   1.07636
    D4       -0.00798   0.00008   0.00000   0.00091   0.00094  -0.00705
    D5       -3.13972  -0.00020   0.00000  -0.00263  -0.00265   3.14082
    D6        3.13213  -0.00038   0.00000  -0.00563  -0.00566   3.12647
    D7       -0.00059   0.00008   0.00000  -0.00102  -0.00099  -0.00159
    D8       -0.01953  -0.00010   0.00000  -0.00208  -0.00204  -0.02157
    D9        3.13093   0.00035   0.00000   0.00253   0.00262   3.13356
   D10        3.12650   0.00013   0.00000   0.00131   0.00134   3.12784
   D11        0.00784  -0.00045   0.00000  -0.00819  -0.00824  -0.00040
   D12       -0.00582  -0.00012   0.00000  -0.00194  -0.00199  -0.00780
   D13       -3.12447  -0.00070   0.00000  -0.01144  -0.01156  -3.13604
   D14       -3.12167   0.00044   0.00000   0.00286   0.00302  -3.11865
   D15       -0.00328   0.00088   0.00000   0.00781   0.00780   0.00452
   D16        0.01122   0.00000   0.00000  -0.00160  -0.00145   0.00976
   D17        3.12961   0.00045   0.00000   0.00334   0.00332   3.13293
   D18       -3.14100  -0.00026   0.00000  -0.00102  -0.00111   3.14108
   D19        0.07196  -0.00193   0.00000  -0.02186  -0.02155   0.05041
   D20        0.02133  -0.00066   0.00000  -0.00543  -0.00538   0.01595
   D21       -3.04889  -0.00233   0.00000  -0.02628  -0.02582  -3.07471
   D22        0.05234  -0.00116   0.00000  -0.00888  -0.00893   0.04341
   D23       -2.99075   0.00047   0.00000  -0.00217  -0.00215  -2.99290
   D24       -3.10922  -0.00083   0.00000  -0.00480  -0.00495  -3.11417
   D25        0.13087   0.00080   0.00000   0.00191   0.00183   0.13270
   D26       -3.12074  -0.00100   0.00000  -0.00295  -0.00292  -3.12367
   D27       -0.16568   0.00118   0.00000   0.00848   0.00852  -0.15717
   D28       -0.04402   0.00015   0.00000   0.01380   0.01407  -0.02995
   D29        2.91104   0.00233   0.00000   0.02523   0.02551   2.93655
   D30        2.93411   0.00336   0.00000   0.02194   0.02146   2.95556
   D31       -0.13854   0.00214   0.00000   0.00271   0.00241  -0.13614
   D32       -1.98126  -0.00364   0.00000  -0.01931  -0.01951  -2.00077
   D33        0.18838  -0.00166   0.00000  -0.02203  -0.02187   0.16651
   D34        2.20036   0.00005   0.00000   0.00201   0.00220   2.20256
   D35        1.41980  -0.00408   0.00000  -0.03463  -0.03491   1.38489
   D36       -2.69375  -0.00210   0.00000  -0.03735  -0.03727  -2.73101
   D37       -0.68177  -0.00038   0.00000  -0.01330  -0.01319  -0.69496
   D38        0.18959  -0.00228   0.00000  -0.01121  -0.01095   0.17865
   D39        2.21072  -0.00818   0.00000  -0.04806  -0.04785   2.16287
   D40       -1.83062   0.00570   0.00000   0.02319   0.02297  -1.80765
   D41        3.06897  -0.00233   0.00000   0.00246   0.00287   3.07184
   D42       -1.19309  -0.00823   0.00000  -0.03438  -0.03403  -1.22712
   D43        1.04876   0.00565   0.00000   0.03686   0.03679   1.08555
   D44        1.05976  -0.00245   0.00000  -0.02819  -0.02828   1.03148
   D45       -1.05220  -0.00206   0.00000  -0.02156  -0.02183  -1.07402
   D46       -3.10630  -0.00295   0.00000  -0.03167  -0.03182  -3.13811
   D47       -0.97933   0.00175   0.00000  -0.00186  -0.00180  -0.98113
   D48       -3.09129   0.00214   0.00000   0.00477   0.00466  -3.08663
   D49        1.13780   0.00126   0.00000  -0.00534  -0.00533   1.13246
   D50       -3.13355  -0.00203   0.00000  -0.02766  -0.02740   3.12224
   D51        1.03768  -0.00164   0.00000  -0.02103  -0.02094   1.01674
   D52       -1.01642  -0.00253   0.00000  -0.03114  -0.03093  -1.04735
   D53       -0.25447   0.00004   0.00000   0.01650   0.01668  -0.23779
   D54       -2.35553   0.00215   0.00000   0.03164   0.03176  -2.32377
   D55        1.79067   0.00145   0.00000   0.01542   0.01557   1.80625
   D56        1.88345  -0.00279   0.00000  -0.01361  -0.01368   1.86977
   D57       -0.21761  -0.00067   0.00000   0.00153   0.00140  -0.21621
   D58       -2.35459  -0.00138   0.00000  -0.01469  -0.01479  -2.36938
   D59       -2.24809  -0.00229   0.00000  -0.00783  -0.00762  -2.25571
   D60        1.93404  -0.00017   0.00000   0.00732   0.00745   1.94149
   D61       -0.20295  -0.00088   0.00000  -0.00891  -0.00873  -0.21168
   D62        3.13649   0.00056   0.00000   0.00392   0.00392   3.14042
   D63        1.04103   0.00091   0.00000   0.00717   0.00719   1.04822
   D64       -1.06551  -0.00005   0.00000  -0.00152  -0.00145  -1.06696
   D65       -1.01208  -0.00279   0.00000  -0.02515  -0.02530  -1.03737
   D66       -3.10754  -0.00243   0.00000  -0.02190  -0.02203  -3.12958
   D67        1.06911  -0.00340   0.00000  -0.03059  -0.03067   1.03844
   D68        1.00888   0.00248   0.00000   0.02316   0.02323   1.03210
   D69       -1.08659   0.00283   0.00000   0.02641   0.02649  -1.06010
   D70        3.09006   0.00186   0.00000   0.01772   0.01785   3.10791
   D71       -3.02184   0.00001   0.00000  -0.00628  -0.00641  -3.02825
   D72        1.18396  -0.00261   0.00000  -0.02961  -0.02959   1.15437
   D73       -0.92086  -0.00165   0.00000  -0.02109  -0.02099  -0.94185
   D74        1.09830   0.00349   0.00000   0.02511   0.02515   1.12345
   D75       -0.97908   0.00086   0.00000   0.00177   0.00196  -0.97712
   D76       -3.08391   0.00183   0.00000   0.01030   0.01057  -3.07334
   D77       -0.94003  -0.00113   0.00000  -0.01759  -0.01787  -0.95790
   D78       -3.01741  -0.00376   0.00000  -0.04092  -0.04106  -3.05847
   D79        1.16095  -0.00279   0.00000  -0.03240  -0.03245   1.12850
   D80        3.06108   0.00023   0.00000   0.00450   0.00453   3.06561
   D81        0.97500   0.00083   0.00000   0.00981   0.00978   0.98478
   D82       -1.13504   0.00020   0.00000   0.00423   0.00424  -1.13081
   D83       -1.05949  -0.00286   0.00000  -0.02292  -0.02298  -1.08247
   D84        3.13761  -0.00226   0.00000  -0.01761  -0.01773   3.11988
   D85        1.02757  -0.00288   0.00000  -0.02319  -0.02328   1.00429
   D86        0.97202   0.00251   0.00000   0.02215   0.02226   0.99428
   D87       -1.11407   0.00311   0.00000   0.02746   0.02751  -1.08656
   D88        3.05908   0.00248   0.00000   0.02188   0.02196   3.08104
   D89        0.23846  -0.00064   0.00000  -0.01180  -0.01181   0.22665
   D90        2.38457   0.00047   0.00000  -0.01135  -0.01171   2.37287
   D91       -1.82920  -0.00432   0.00000  -0.02689  -0.02649  -1.85569
   D92        3.04901   0.00112   0.00000   0.01312   0.01288   3.06188
   D93       -0.07718   0.00045   0.00000   0.00343   0.00342  -0.07376
   D94       -0.21237   0.00111   0.00000   0.00960   0.00949  -0.20288
   D95        2.94463   0.00044   0.00000  -0.00009   0.00003   2.94467
   D96       -0.17814  -0.00044   0.00000   0.00484   0.00466  -0.17348
   D97       -2.20185   0.00415   0.00000   0.02591   0.02536  -2.17649
   D98        1.84635  -0.00460   0.00000  -0.01859  -0.01819   1.82817
   D99        3.07515   0.00027   0.00000   0.00968   0.00952   3.08468
   D100       1.05144   0.00486   0.00000   0.03075   0.03022   1.08167
   D101      -1.18354  -0.00390   0.00000  -0.01375  -0.01332  -1.19687
   D102      -1.65938  -0.00089   0.00000  -0.02356  -0.02341  -1.68279
   D103       2.30706  -0.00077   0.00000  -0.00720  -0.00729   2.29977
   D104       0.31787  -0.00094   0.00000  -0.01584  -0.01575   0.30211
   D105       1.46660  -0.00028   0.00000  -0.01398  -0.01393   1.45267
   D106      -0.85015  -0.00015   0.00000   0.00237   0.00219  -0.84795
   D107      -2.83934  -0.00032   0.00000  -0.00626  -0.00627  -2.84561
   D108       0.05509   0.00024   0.00000   0.00179   0.00183   0.05691
   D109      -3.10980   0.00086   0.00000   0.01157   0.01163  -3.09817
   D110      -3.07065  -0.00016   0.00000  -0.00732  -0.00757  -3.07822
   D111       0.04765   0.00047   0.00000   0.00246   0.00223   0.04989
   D112       2.37344  -0.00013   0.00000  -0.00468  -0.00472   2.36872
   D113      -0.72143  -0.00090   0.00000  -0.01623  -0.01627  -0.73770
   D114      -1.60670  -0.00306   0.00000  -0.03358  -0.03372  -1.64042
   D115       1.58161  -0.00382   0.00000  -0.04513  -0.04527   1.53634
   D116       0.37199   0.00184   0.00000   0.00744   0.00762   0.37961
   D117      -2.72288   0.00107   0.00000  -0.00411  -0.00393  -2.72681
   D118      -1.49355   0.00019   0.00000   0.01078   0.01075  -1.48280
   D119       1.69547  -0.00111   0.00000  -0.00872  -0.00873   1.68674
   D120       2.47734   0.00428   0.00000   0.04360   0.04373   2.52107
   D121      -0.61683   0.00299   0.00000   0.02410   0.02425  -0.59258
   D122       0.50935  -0.00118   0.00000   0.00054   0.00041   0.50977
   D123      -2.58481  -0.00248   0.00000  -0.01896  -0.01907  -2.60388
   D124      -3.11798  -0.00100   0.00000  -0.01316  -0.01309  -3.13107
   D125       0.01357  -0.00139   0.00000  -0.01871  -0.01862  -0.00504
   D126      -0.02191  -0.00016   0.00000  -0.00155  -0.00156  -0.02348
   D127       3.10964  -0.00054   0.00000  -0.00711  -0.00709   3.10255
   D128       3.11890   0.00075   0.00000   0.01215   0.01225   3.13115
   D129      -0.03143   0.00099   0.00000   0.01510   0.01516  -0.01627
   D130       0.02396   0.00014   0.00000   0.00099   0.00099   0.02496
   D131      -3.12636   0.00038   0.00000   0.00394   0.00390  -3.12246
   D132       0.00729   0.00010   0.00000   0.00148   0.00150   0.00879
   D133       3.14006  -0.00016   0.00000  -0.00223  -0.00224   3.13782
   D134      -3.12441   0.00052   0.00000   0.00710   0.00717  -3.11724
   D135       0.00836   0.00025   0.00000   0.00338   0.00343   0.01179
   D136       0.00564  -0.00005   0.00000  -0.00088  -0.00088   0.00476
   D137       3.13901  -0.00019   0.00000  -0.00256  -0.00257   3.13644
   D138      -3.12709   0.00022   0.00000   0.00286   0.00289  -3.12420
   D139       0.00627   0.00008   0.00000   0.00118   0.00120   0.00747
   D140      -0.00359   0.00003   0.00000   0.00031   0.00029  -0.00330
   D141       3.13368  -0.00011   0.00000  -0.00129  -0.00129   3.13239
   D142      -3.13694   0.00016   0.00000   0.00197   0.00197  -3.13497
   D143       0.00033   0.00002   0.00000   0.00038   0.00039   0.00072
   D144      -0.01138  -0.00005   0.00000  -0.00033  -0.00032  -0.01170
   D145       3.13872  -0.00026   0.00000  -0.00311  -0.00309   3.13563
   D146       3.13454   0.00008   0.00000   0.00125   0.00125   3.13579
   D147       0.00145  -0.00013   0.00000  -0.00152  -0.00152  -0.00007
   D148      -3.12066  -0.00090   0.00000  -0.01205  -0.01193  -3.13259
   D149       0.01809  -0.00080   0.00000  -0.01120  -0.01109   0.00699
   D150      -0.02546   0.00046   0.00000   0.00733   0.00732  -0.01814
   D151       3.11329   0.00055   0.00000   0.00818   0.00815   3.12144
   D152       3.12002   0.00070   0.00000   0.01208   0.01225   3.13226
   D153      -0.01983   0.00126   0.00000   0.01953   0.01961  -0.00022
   D154       0.02591  -0.00041   0.00000  -0.00696  -0.00698   0.01894
   D155      -3.11393   0.00015   0.00000   0.00049   0.00039  -3.11354
   D156       0.00978  -0.00022   0.00000  -0.00302  -0.00297   0.00681
   D157      -3.13927  -0.00020   0.00000  -0.00281  -0.00280   3.14111
   D158      -3.12901  -0.00030   0.00000  -0.00381  -0.00376  -3.13277
   D159       0.00512  -0.00028   0.00000  -0.00360  -0.00358   0.00154
   D160       0.00576  -0.00012   0.00000  -0.00187  -0.00187   0.00389
   D161       3.13717  -0.00005   0.00000  -0.00068  -0.00070   3.13648
   D162      -3.12835  -0.00014   0.00000  -0.00207  -0.00204  -3.13039
   D163       0.00306  -0.00007   0.00000  -0.00087  -0.00086   0.00220
   D164      -0.00530   0.00016   0.00000   0.00223   0.00220  -0.00310
   D165       3.12866  -0.00000   0.00000   0.00034   0.00032   3.12898
   D166      -3.13671   0.00009   0.00000   0.00103   0.00102  -3.13569
   D167      -0.00275  -0.00008   0.00000  -0.00086  -0.00086  -0.00361
   D168      -0.01069   0.00013   0.00000   0.00228   0.00230  -0.00839
   D169       3.12919  -0.00043   0.00000  -0.00504  -0.00505   3.12414
   D170       3.13853   0.00029   0.00000   0.00416   0.00417  -3.14048
   D171      -0.00477  -0.00026   0.00000  -0.00316  -0.00318  -0.00795
         Item               Value     Threshold  Converged?
 Maximum Force            0.049046     0.000450     NO 
 RMS     Force            0.006061     0.000300     NO 
 Maximum Displacement     0.332583     0.001800     NO 
 RMS     Displacement     0.078990     0.001200     NO 
 Predicted change in Energy=-2.298417D-02
 GradGradGradGradGradGradGradGradGradGradGradGradGradGradGradGradGradGrad

 Stoichiometry    C26H28F2N2NiO2(3)
 Framework group  C1[X(C26H28F2N2NiO2)]
 Deg. of freedom   177
 Full point group                 C1      NOp   1
 Largest Abelian subgroup         C1      NOp   1
 Largest concise Abelian subgroup C1      NOp   1
                         Standard orientation:                         
 ---------------------------------------------------------------------
 Center     Atomic      Atomic             Coordinates (Angstroms)
 Number     Number       Type             X           Y           Z
 ---------------------------------------------------------------------
      1          6           0        0.688267    5.197241    1.703953
      2          8           0        1.515657    4.088430    1.386434
      3          6           0        0.912815    2.970068    0.909702
      4          6           0       -0.470024    2.839910    0.720061
      5          6           0       -0.931384    1.635684    0.205928
      6          6           0       -2.320844    1.311154   -0.089084
      7          7           0       -2.610124    0.157333   -0.563424
      8          6           0       -4.045341    0.083542   -0.795329
      9          6           0       -4.711036   -0.965963    0.130797
     10          6           0       -4.481370   -0.636291    1.615889
     11          6           0       -4.119080   -2.357211   -0.175265
     12          6           0       -6.223981   -1.004983   -0.160456
     13          6           0       -4.469971    1.567348   -0.571717
     14          8           0       -3.336816    2.192428    0.058411
     15          7           0       -0.114522    0.596129   -0.110154
     16          6           0        1.205250    0.705185    0.125686
     17          6           0        2.020281   -0.539143   -0.157062
     18          6           0        2.268925   -1.379221    1.095550
     19          6           0        2.108926   -2.764267    1.010410
     20          6           0        2.312760   -3.569137    2.130370
     21          6           0        2.668871   -2.993817    3.350262
     22          6           0        2.815191   -1.610809    3.449148
     23          6           0        2.608933   -0.806857    2.327082
     24          6           0        3.262423   -0.234758   -0.990468
     25          6           0        3.130964   -0.185838   -2.381587
     26          6           0        4.240963    0.078241   -3.184099
     27          6           0        5.491096    0.286984   -2.600208
     28          6           0        5.630914    0.226772   -1.213498
     29          6           0        4.520227   -0.038421   -0.410896
     30          6           0        1.751912    1.893796    0.604378
     31          1           0        1.352255    5.984974    2.061939
     32          1           0        0.149750    5.563136    0.822467
     33          1           0       -0.027458    4.951264    2.496629
     34          1           0       -1.166382    3.635898    0.945903
     35          1           0       -4.226045   -0.215365   -1.832107
     36          1           0       -4.960809   -1.389289    2.247260
     37          1           0       -4.893371    0.339727    1.896164
     38          1           0       -3.414001   -0.635036    1.861284
     39          1           0       -4.655781   -3.129336    0.385335
     40          1           0       -3.059775   -2.431212    0.087239
     41          1           0       -4.201831   -2.598870   -1.240249
     42          1           0       -6.701496   -1.793506    0.427687
     43          1           0       -6.421362   -1.216293   -1.217345
     44          1           0       -6.728437   -0.064918    0.091895
     45          1           0       -5.345041    1.692081    0.066645
     46          1           0       -4.659434    2.078205   -1.521325
     47          1           0        1.383593   -1.162222   -0.790684
     48          1           0        1.810031   -3.215438    0.070230
     49          1           0        2.181687   -4.642792    2.051127
     50          1           0        2.822668   -3.620956    4.222847
     51          1           0        3.083707   -1.158580    4.398200
     52          1           0        2.721182    0.267439    2.421867
     53          1           0        2.158783   -0.356549   -2.837221
     54          1           0        4.130218    0.113952   -4.262604
     55          1           0        6.355805    0.487781   -3.225060
     56          1           0        6.604142    0.377128   -0.757979
     57          1           0        4.639863   -0.099796    0.665299
     58          1           0        2.819894    1.988256    0.754221
     59         28           0       -1.042283   -0.825157   -1.042430
     60          9           0       -0.880458   -2.485430   -0.236293
     61          9           0       -0.688514   -0.894752   -2.857333
 ---------------------------------------------------------------------
 Rotational constants (GHZ):           0.1635620           0.0874132           0.0781016
 Basis read from rwf:  (6D, 7F)
 Pseudo-potential data read from rwf file.
 There are   613 symmetry adapted cartesian basis functions of A   symmetry.
 There are   610 symmetry adapted basis functions of A   symmetry.
   610 basis functions,  1162 primitive gaussians,   613 cartesian basis functions
   126 alpha electrons      124 beta electrons
       nuclear repulsion energy      3831.4531719420 Hartrees.
 NAtoms=   61 NActive=   61 NUniq=   61 SFac= 1.00D+00 NAtFMM=   60 NAOKFM=T Big=T
 Integral buffers will be    131072 words long.
 Raffenetti 2 integral format.
 Two-electron integral symmetry is turned on.
 Nuclear repulsion after empirical dispersion term =     3831.3046246401 Hartrees.
 One-electron integrals computed using PRISM.
 PrsmSu:  requested number of processors reduced to:  12 ShMem   1 Linda.
   1 Symmetry operations used in ECPInt.
 ECPInt:  NShTT=   21115 NPrTT=  128985 LenC2=   17120 LenP2D=   55860.
 LDataN:  DoStor=T MaxTD1= 6 Len=  172
 Number of processors reduced to  12 by ecpmxn.
 NBasis=   610 RedAO= T EigKep=  6.98D-06  NBF=   610
 NBsUse=   609 1.00D-06 EigRej=  9.78D-07 NBFU=   609
 Initial guess from the checkpoint file:  "Lig2126_xyz_2.chk"
 B after Tr=    -0.000000   -0.000000   -0.000000
         Rot=    0.999946    0.010267    0.000106    0.001403 Ang=   1.19 deg.
 Initial guess <Sx>= 0.0000 <Sy>= 0.0000 <Sz>= 1.0000 <S**2>= 2.0182 S= 1.0061
 ExpMin= 2.40D-02 ExpMax= 7.14D+04 ExpMxC= 1.07D+04 IAcc=3 IRadAn=         5 AccDes= 0.00D+00
 Harris functional with IExCor=  402 and IRadAn=       5 diagonalized for initial guess.
 HarFok:  IExCor=  402 AccDes= 0.00D+00 IRadAn=         5 IDoV= 1 UseB2=F ITyADJ=14
 ICtDFT=  3500011 ScaDFX=  1.000000  1.000000  1.000000  1.000000
 FoFCou: FMM=F IPFlag=           0 FMFlag=      100000 FMFlg1=        2001
         NFxFlg=           0 DoJE=T BraDBF=F KetDBF=T FulRan=T
         wScrn=  0.000000 ICntrl=       500 IOpCl=  0 I1Cent=   200000004 NGrid=           0
         NMat0=    1 NMatS0=      1 NMatT0=    0 NMatD0=    1 NMtDS0=    0 NMtDT0=    0
 Petite list used in FoFCou.
 Requested convergence on RMS density matrix=1.00D-08 within 128 cycles.
 Requested convergence on MAX density matrix=1.00D-06.
 Requested convergence on             energy=1.00D-06.
 No special actions if energy rises.
 Restarting incremental Fock formation.
 SCF Done:  E(UB3LYP) =  -1636.86085027     A.U. after   34 cycles
            NFock= 34  Conv=0.55D-08     -V/T= 2.0485
 <Sx>= 0.0000 <Sy>= 0.0000 <Sz>= 1.0000 <S**2>= 2.0142 S= 1.0047
 <L.S>=  0.00000000000    
 Annihilation of the first spin contaminant:
 S**2 before annihilation     2.0142,   after     2.0001
 PrsmSu:  requested number of processors reduced to:  12 ShMem   1 Linda.
   1 Symmetry operations used in ECPInt.
 ECPInt:  NShTT=   21115 NPrTT=  128985 LenC2=   17120 LenP2D=   55860.
 LDataN:  DoStor=T MaxTD1= 7 Len=  274
 Number of processors reduced to  13 by ecpmxn.
 Calling FoFJK, ICntrl=      2127 FMM=T ISym2X=0 I1Cent= 0 IOpClX= 1 NMat=1 NMatS=1 NMatT=0.
 ***** Axes restored to original set *****
 -------------------------------------------------------------------
 Center     Atomic                   Forces (Hartrees/Bohr)
 Number     Number              X              Y              Z
 -------------------------------------------------------------------
      1        6           0.002543350   -0.005524538    0.000698281
      2        8          -0.001978988    0.007633577    0.003155626
      3        6           0.000840030   -0.006453422   -0.005062439
      4        6           0.000658376    0.001126591    0.002751792
      5        6          -0.002334478   -0.003298850   -0.007075025
      6        6           0.010388164   -0.012995398    0.008166352
      7        7           0.007689661   -0.006731347    0.009520314
      8        6           0.000866165   -0.003062568    0.009359975
      9        6          -0.005610199    0.003246985    0.006138887
     10        6           0.001396210   -0.000975036   -0.003369461
     11        6          -0.000226989   -0.001151800   -0.003545671
     12        6           0.002916311   -0.001184281   -0.001218842
     13        6           0.003761044    0.009923806    0.011742790
     14        8          -0.005912766   -0.004082763   -0.013464616
     15        7           0.001402012   -0.026097647   -0.006087148
     16        6          -0.000602895    0.000152689   -0.003149308
     17        6           0.000020263    0.006085006   -0.001495144
     18        6           0.004128347   -0.005806090    0.002011424
     19        6          -0.001882686    0.002022908   -0.000205300
     20        6           0.001741640   -0.001283844   -0.001116089
     21        6          -0.001051103   -0.000013064    0.000265466
     22        6           0.000656524    0.001597472   -0.000003614
     23        6          -0.002025054    0.001491711   -0.001598795
     24        6          -0.005788595   -0.001002116    0.000202190
     25        6           0.003186087    0.000403066   -0.000866179
     26        6          -0.001496701   -0.001635694    0.000802987
     27        6           0.000157653    0.000106053   -0.001038727
     28        6           0.001305457    0.000554767    0.001564658
     29        6           0.002287021   -0.000757242   -0.001001294
     30        6          -0.001438121    0.001185684    0.002336175
     31        1          -0.000843397    0.000963510   -0.001178616
     32        1           0.000169895    0.001043720    0.000360465
     33        1          -0.000539797    0.000762739    0.000629095
     34        1          -0.000063921    0.000751545    0.000789330
     35        1          -0.000124097    0.000446997   -0.001148590
     36        1          -0.000274095    0.000578015    0.000798645
     37        1           0.000645785   -0.000447055    0.000837007
     38        1          -0.000136156    0.000936974   -0.000311473
     39        1           0.000253088   -0.000637341    0.001464046
     40        1           0.000638893    0.000764011   -0.001372480
     41        1           0.001295744    0.000889802    0.000950196
     42        1          -0.001106998    0.000032650   -0.000144408
     43        1           0.000228334    0.000901005   -0.000431865
     44        1           0.000372224   -0.000837353   -0.000241938
     45        1          -0.002085268   -0.001585104   -0.001291594
     46        1           0.000014636   -0.001145322   -0.001502673
     47        1           0.000218772    0.000031610   -0.000094422
     48        1           0.001268160   -0.000817402    0.001570002
     49        1          -0.000435679    0.000883793    0.000324376
     50        1          -0.000735769   -0.000187286    0.000106969
     51        1          -0.000130855   -0.001089607   -0.000232736
     52        1           0.001074993   -0.000652300    0.000565195
     53        1          -0.000583986    0.000032622    0.002038523
     54        1           0.000726789    0.000785130    0.000080269
     55        1           0.000188670    0.000200043   -0.000699084
     56        1          -0.000608531   -0.000507024   -0.000726936
     57        1          -0.001276338    0.000325256    0.001041853
     58        1           0.000937124    0.000465791   -0.000695679
     59       28          -0.014970489    0.054966595   -0.009257852
     60        9          -0.004208682   -0.006438726    0.001630275
     61        9           0.004495209   -0.004891903   -0.002275165
 -------------------------------------------------------------------
 Cartesian Forces:  Max     0.054966595 RMS     0.005685469

 GradGradGradGradGradGradGradGradGradGradGradGradGradGradGradGradGradGrad
 Berny optimization.
 Using GEDIIS/GDIIS optimizer.
 FormGI is forming the generalized inverse of G from B-inverse, IUseBI=4.
 Internal  Forces:  Max     0.027412807 RMS     0.002694328
 Search for a local minimum.
 Step number   2 out of a maximum of  362
 All quantities printed in internal units (Hartrees-Bohrs-Radians)
 Mixed Optimization -- RFO/linear search
 Update second derivatives using D2CorX and points    1    2
 DE= -2.43D-02 DEPred=-2.30D-02 R= 1.06D+00
 TightC=F SS=  1.41D+00  RLast= 3.66D-01 DXNew= 5.0454D-01 1.0979D+00
 Trust test= 1.06D+00 RLast= 3.66D-01 DXMaxT set to 5.05D-01
 ITU=  1  0
 Use linear search instead of GDIIS.
     Eigenvalues ---    0.00229   0.00230   0.00230   0.00230   0.00230
     Eigenvalues ---    0.00231   0.00251   0.00697   0.01328   0.01344
     Eigenvalues ---    0.01371   0.01382   0.01898   0.01972   0.02038
     Eigenvalues ---    0.02058   0.02063   0.02070   0.02075   0.02084
     Eigenvalues ---    0.02101   0.02117   0.02123   0.02125   0.02136
     Eigenvalues ---    0.02138   0.02167   0.02167   0.02189   0.02190
     Eigenvalues ---    0.02191   0.02191   0.02192   0.02193   0.02193
     Eigenvalues ---    0.02195   0.02396   0.02751   0.02926   0.03594
     Eigenvalues ---    0.03778   0.03899   0.04443   0.04692   0.04762
     Eigenvalues ---    0.04899   0.05105   0.05219   0.05252   0.05278
     Eigenvalues ---    0.05457   0.05484   0.05508   0.05662   0.06263
     Eigenvalues ---    0.06528   0.06595   0.09982   0.10301   0.10593
     Eigenvalues ---    0.10661   0.11248   0.11364   0.11670   0.12033
     Eigenvalues ---    0.13590   0.14283   0.14481   0.15941   0.15998
     Eigenvalues ---    0.15998   0.15999   0.15999   0.15999   0.15999
     Eigenvalues ---    0.15999   0.16000   0.16000   0.16000   0.16000
     Eigenvalues ---    0.16000   0.16000   0.16000   0.16000   0.16000
     Eigenvalues ---    0.16000   0.16000   0.16000   0.16000   0.16000
     Eigenvalues ---    0.16000   0.16252   0.17580   0.19450   0.19775
     Eigenvalues ---    0.19803   0.19844   0.20380   0.21126   0.21998
     Eigenvalues ---    0.21999   0.22000   0.22025   0.23471   0.23476
     Eigenvalues ---    0.23549   0.23567   0.24152   0.24558   0.24727
     Eigenvalues ---    0.24867   0.24924   0.24986   0.24994   0.25000
     Eigenvalues ---    0.25339   0.26591   0.27044   0.27730   0.27863
     Eigenvalues ---    0.27890   0.28282   0.28590   0.30562   0.34498
     Eigenvalues ---    0.34621   0.34659   0.34683   0.34689   0.34694
     Eigenvalues ---    0.34697   0.34705   0.34734   0.34759   0.34809
     Eigenvalues ---    0.34847   0.34879   0.34887   0.34975   0.35319
     Eigenvalues ---    0.35785   0.35811   0.35945   0.35950   0.35954
     Eigenvalues ---    0.35956   0.35967   0.35975   0.35979   0.36057
     Eigenvalues ---    0.36141   0.36275   0.36860   0.37451   0.40299
     Eigenvalues ---    0.41572   0.41906   0.41943   0.42143   0.42172
     Eigenvalues ---    0.42209   0.42423   0.45345   0.45659   0.45729
     Eigenvalues ---    0.46143   0.46262   0.46275   0.46909   0.46943
     Eigenvalues ---    0.46965   0.47053   0.48759   0.49375   0.49973
     Eigenvalues ---    0.53158   0.72446
 RFO step:  Lambda=-1.48345387D-02 EMin= 2.28973471D-03
 Quartic linear search produced a step of  0.74676.
 Iteration  1 RMS(Cart)=  0.15732634 RMS(Int)=  0.00450069
 Iteration  2 RMS(Cart)=  0.00851952 RMS(Int)=  0.00064953
 Iteration  3 RMS(Cart)=  0.00003612 RMS(Int)=  0.00064941
 Iteration  4 RMS(Cart)=  0.00000006 RMS(Int)=  0.00064941
 Variable       Old X    -DE/DX   Delta X   Delta X   Delta X     New X
                                 (Linear)    (Quad)   (Total)
    R1        2.68238   0.00290  -0.00555   0.01551   0.00996   2.69234
    R2        2.06106  -0.00004   0.00089  -0.00088   0.00001   2.06108
    R3        2.07087   0.00055   0.00670  -0.00262   0.00408   2.07495
    R4        2.07104   0.00054   0.00679  -0.00274   0.00405   2.07509
    R5        2.56434  -0.00608  -0.03075   0.00313  -0.02761   2.53673
    R6        2.64909   0.00206  -0.00476   0.01145   0.00657   2.65566
    R7        2.64269   0.00144  -0.00053   0.00566   0.00516   2.64785
    R8        2.62349  -0.00191  -0.00819  -0.00032  -0.00866   2.61483
    R9        2.04363  -0.00012   0.00420  -0.00377   0.00043   2.04406
   R10        2.75340   0.00464   0.01513   0.00669   0.01964   2.77303
   R11        2.56881  -0.00030  -0.00069  -0.00368  -0.00547   2.56334
   R12        2.42002   0.01198   0.04100  -0.00379   0.03669   2.45671
   R13        2.55679  -0.00733  -0.00969  -0.01531  -0.02501   2.53179
   R14        2.75088   0.00854   0.01841   0.02312   0.04180   2.79268
   R15        3.61173   0.02741   0.10605   0.11912   0.22664   3.83837
   R16        2.92897  -0.00031  -0.03686   0.02740  -0.00947   2.91950
   R17        2.94700  -0.00001   0.01270  -0.01227   0.00020   2.94720
   R18        2.06742   0.00026   0.00182  -0.00017   0.00165   2.06907
   R19        2.90731  -0.00104  -0.01589   0.00656  -0.00933   2.89798
   R20        2.91512  -0.00047  -0.00670   0.00258  -0.00412   2.91099
   R21        2.91248  -0.00118  -0.00896   0.00027  -0.00869   2.90379
   R22        2.06620   0.00080   0.00335   0.00112   0.00447   2.07067
   R23        2.07088   0.00091   0.00868  -0.00250   0.00618   2.07705
   R24        2.06966   0.00020   0.00607  -0.00380   0.00227   2.07193
   R25        2.06880   0.00069   0.00525  -0.00084   0.00441   2.07320
   R26        2.06708   0.00085   0.00634  -0.00099   0.00534   2.07242
   R27        2.06961   0.00141   0.00647   0.00154   0.00801   2.07761
   R28        2.06638   0.00075   0.00306   0.00112   0.00417   2.07055
   R29        2.07063   0.00083   0.00678  -0.00140   0.00538   2.07601
   R30        2.07171   0.00076   0.00934  -0.00370   0.00564   2.07736
   R31        2.72004   0.01048   0.02473   0.01923   0.04366   2.76370
   R32        2.06042  -0.00004   0.00137  -0.00124   0.00013   2.06055
   R33        2.06891  -0.00015   0.00439  -0.00410   0.00029   2.06920
   R34        2.54188  -0.00093  -0.02673   0.01706  -0.00954   2.53234
   R35        3.65941   0.02535   0.08738   0.12854   0.21727   3.87668
   R36        2.86128  -0.00055  -0.03865   0.02739  -0.01126   2.85002
   R37        2.63261  -0.00139  -0.01606   0.00706  -0.00885   2.62376
   R38        2.88862  -0.00196  -0.02001   0.00466  -0.01534   2.87328
   R39        2.88462  -0.00223  -0.01757   0.00135  -0.01623   2.86840
   R40        2.06584   0.00002   0.00903  -0.00692   0.00211   2.06795
   R41        2.63967   0.00084  -0.00562   0.00723   0.00164   2.64131
   R42        2.64553  -0.00050  -0.00463   0.00160  -0.00303   2.64251
   R43        2.63457  -0.00031   0.00317  -0.00345  -0.00026   2.63431
   R44        2.05001   0.00010   0.00432  -0.00291   0.00141   2.05143
   R45        2.63611   0.00058   0.00414  -0.00103   0.00310   2.63922
   R46        2.04946   0.00102   0.00592   0.00003   0.00595   2.05541
   R47        2.63473   0.00048   0.00292  -0.00048   0.00242   2.63715
   R48        2.05134   0.00076   0.00737  -0.00230   0.00508   2.05642
   R49        2.63745   0.00021   0.00477  -0.00294   0.00181   2.63926
   R50        2.05043   0.00106   0.00683  -0.00050   0.00633   2.05676
   R51        2.04902   0.00098   0.00754  -0.00144   0.00609   2.05511
   R52        2.64216   0.00108  -0.00346   0.00644   0.00303   2.64520
   R53        2.64327  -0.00099  -0.00475  -0.00006  -0.00475   2.63852
   R54        2.63606  -0.00034   0.00399  -0.00417  -0.00019   2.63587
   R55        2.05440   0.00144   0.00778   0.00048   0.00825   2.06266
   R56        2.63705   0.00083   0.00431  -0.00028   0.00397   2.64103
   R57        2.04991   0.00105   0.00623  -0.00008   0.00615   2.05605
   R58        2.63624   0.00052   0.00369  -0.00094   0.00269   2.63894
   R59        2.05145   0.00075   0.00739  -0.00236   0.00504   2.05649
   R60        2.63759   0.00033   0.00506  -0.00274   0.00233   2.63991
   R61        2.05040   0.00105   0.00652  -0.00032   0.00620   2.05660
   R62        2.04953   0.00089   0.00625  -0.00084   0.00541   2.05493
   R63        2.04576   0.00032   0.00347  -0.00124   0.00223   2.04799
   R64        3.50112   0.00157  -0.02428   0.03232   0.00804   3.50916
   R65        3.49669   0.00042  -0.02762   0.02588  -0.00174   3.49496
    A1        1.85745  -0.00205  -0.03678   0.01200  -0.02501   1.83245
    A2        1.94693  -0.00067  -0.00019  -0.00670  -0.00704   1.93989
    A3        1.94672  -0.00066  -0.00017  -0.00666  -0.00697   1.93975
    A4        1.89867   0.00152   0.01621   0.00205   0.01804   1.91672
    A5        1.89894   0.00152   0.01633   0.00193   0.01804   1.91698
    A6        1.91326   0.00040   0.00518  -0.00184   0.00324   1.91650
    A7        2.05265   0.00421  -0.02197   0.04438   0.02240   2.07505
    A8        2.16793   0.00146  -0.00396   0.01209   0.00822   2.17615
    A9        2.03133  -0.00071  -0.00261  -0.00284  -0.00536   2.02596
   A10        2.08391  -0.00075   0.00658  -0.00921  -0.00284   2.08107
   A11        2.04705  -0.00058  -0.00889   0.00399  -0.00534   2.04171
   A12        2.13957   0.00139   0.00901   0.00476   0.01391   2.15348
   A13        2.09648  -0.00082  -0.00015  -0.00890  -0.00889   2.08760
   A14        2.19579  -0.00222  -0.00627  -0.00971  -0.01468   2.18111
   A15        2.15288   0.00068   0.00248   0.00194   0.00531   2.15819
   A16        1.93439   0.00154   0.00385   0.00771   0.00935   1.94374
   A17        2.08414  -0.00000   0.00038   0.00852   0.00682   2.09095
   A18        2.15188  -0.00192  -0.02123  -0.00538  -0.02602   2.12586
   A19        2.04611   0.00196   0.02157  -0.00235   0.02013   2.06624
   A20        1.90434  -0.00303  -0.00797  -0.01150  -0.02031   1.88403
   A21        1.95054   0.00120   0.00596   0.01842   0.02501   1.97556
   A22        2.40803   0.00207   0.00396  -0.00039   0.00284   2.41087
   A23        1.94184  -0.00087  -0.01696   0.00535  -0.01191   1.92993
   A24        1.76948  -0.00002  -0.01209   0.01914   0.00734   1.77683
   A25        1.90463   0.00041   0.01581  -0.01277   0.00298   1.90761
   A26        2.02822   0.00112   0.01233   0.00091   0.01297   2.04120
   A27        1.88632  -0.00052  -0.01299   0.00128  -0.01181   1.87451
   A28        1.92929  -0.00009   0.01548  -0.01448   0.00113   1.93042
   A29        1.94720  -0.00067  -0.01854   0.00238  -0.01588   1.93132
   A30        1.90426  -0.00064  -0.01572  -0.00068  -0.01608   1.88818
   A31        1.90270  -0.00068  -0.00846  -0.00701  -0.01510   1.88760
   A32        1.90445   0.00062   0.01444   0.00151   0.01496   1.91941
   A33        1.91175   0.00075   0.01219   0.00501   0.01631   1.92806
   A34        1.89270   0.00065   0.01788  -0.00133   0.01579   1.90849
   A35        1.92237  -0.00077  -0.01681   0.00462  -0.01231   1.91006
   A36        1.96233  -0.00018   0.00074  -0.00135  -0.00063   1.96170
   A37        1.94123  -0.00080  -0.00542  -0.00202  -0.00752   1.93371
   A38        1.87636   0.00031   0.00685  -0.00478   0.00202   1.87837
   A39        1.87418   0.00061   0.00845  -0.00307   0.00520   1.87938
   A40        1.88397   0.00093   0.00760   0.00644   0.01406   1.89802
   A41        1.92449  -0.00185  -0.02065  -0.00158  -0.02247   1.90202
   A42        1.96602   0.00130   0.01218   0.00676   0.01911   1.98513
   A43        1.94222  -0.00120  -0.00902  -0.00738  -0.01667   1.92555
   A44        1.87985   0.00105   0.01830   0.00121   0.01970   1.89955
   A45        1.88103   0.00077   0.00726  -0.00701  -0.00045   1.88058
   A46        1.86670   0.00005  -0.00667   0.00788   0.00135   1.86805
   A47        1.92335  -0.00099  -0.01675   0.00392  -0.01291   1.91044
   A48        1.94335  -0.00043  -0.00343  -0.00111  -0.00460   1.93875
   A49        1.96762  -0.00043   0.00199  -0.00532  -0.00334   1.96428
   A50        1.87661   0.00062   0.00753  -0.00115   0.00625   1.88286
   A51        1.86878   0.00074   0.00791   0.00034   0.00822   1.87701
   A52        1.88021   0.00060   0.00402   0.00351   0.00753   1.88774
   A53        1.83548   0.00074   0.02630  -0.02352   0.00242   1.83790
   A54        1.99471   0.00005  -0.00315   0.00892   0.00587   2.00058
   A55        1.94628   0.00084   0.00358   0.01083   0.01431   1.96059
   A56        1.90270  -0.00126  -0.02205  -0.00195  -0.02370   1.87900
   A57        1.88948  -0.00139  -0.01488  -0.01082  -0.02592   1.86356
   A58        1.89184   0.00083   0.00872   0.01395   0.02196   1.91380
   A59        1.83440   0.00047  -0.02385   0.02298  -0.00158   1.83282
   A60        2.07925   0.00057  -0.00183   0.00412   0.00170   2.08095
   A61        1.96636   0.00552   0.02495   0.01504   0.04069   2.00705
   A62        2.23190  -0.00615  -0.02352  -0.02074  -0.04452   2.18738
   A63        2.01393  -0.00327  -0.04086   0.01225  -0.02881   1.98512
   A64        2.11114  -0.00030   0.01119  -0.01168  -0.00039   2.11075
   A65        2.15809   0.00357   0.02974  -0.00047   0.02905   2.18715
   A66        1.96729  -0.00156  -0.01600  -0.00085  -0.01676   1.95053
   A67        1.95638  -0.00085  -0.00965  -0.00188  -0.01148   1.94490
   A68        1.83707  -0.00001  -0.00929   0.00106  -0.00799   1.82908
   A69        2.00934   0.00205   0.00860   0.00960   0.01768   2.02702
   A70        1.83015   0.00058   0.01598   0.00055   0.01607   1.84622
   A71        1.84537  -0.00018   0.01384  -0.00986   0.00344   1.84881
   A72        2.06730  -0.00207  -0.01022  -0.00460  -0.01498   2.05232
   A73        2.13611   0.00250   0.00992   0.00846   0.01823   2.15434
   A74        2.07925  -0.00041   0.00061  -0.00330  -0.00274   2.07650
   A75        2.10218   0.00011  -0.00076   0.00116   0.00036   2.10254
   A76        2.09066  -0.00124  -0.00908  -0.00419  -0.01341   2.07725
   A77        2.09024   0.00112   0.00980   0.00271   0.01233   2.10257
   A78        2.09639   0.00053   0.00519  -0.00019   0.00504   2.10143
   A79        2.08882  -0.00042  -0.00346  -0.00066  -0.00415   2.08467
   A80        2.09791  -0.00012  -0.00176   0.00077  -0.00103   2.09688
   A81        2.09199  -0.00098  -0.00884   0.00036  -0.00847   2.08352
   A82        2.09538   0.00060   0.00529   0.00014   0.00542   2.10080
   A83        2.09577   0.00038   0.00353  -0.00054   0.00298   2.09875
   A84        2.09308   0.00049   0.00268   0.00134   0.00402   2.09710
   A85        2.09605   0.00013  -0.00013   0.00194   0.00181   2.09787
   A86        2.09404  -0.00062  -0.00256  -0.00329  -0.00585   2.08818
   A87        2.10322   0.00025   0.00110   0.00052   0.00165   2.10487
   A88        2.10263  -0.00068  -0.00809   0.00071  -0.00739   2.09524
   A89        2.07732   0.00043   0.00700  -0.00122   0.00576   2.08308
   A90        2.06426  -0.00348  -0.01168  -0.01234  -0.02457   2.03969
   A91        2.13353   0.00307   0.01009   0.01209   0.02160   2.15513
   A92        2.08506   0.00043   0.00206   0.00122   0.00299   2.08805
   A93        2.09926  -0.00032  -0.00112  -0.00143  -0.00244   2.09682
   A94        2.08930  -0.00141  -0.01070  -0.00506  -0.01582   2.07348
   A95        2.09462   0.00174   0.01183   0.00648   0.01825   2.11287
   A96        2.09493   0.00038   0.00425  -0.00031   0.00394   2.09886
   A97        2.09091  -0.00038  -0.00310  -0.00082  -0.00393   2.08698
   A98        2.09733  -0.00000  -0.00114   0.00113  -0.00002   2.09731
   A99        2.09353  -0.00077  -0.00815   0.00145  -0.00674   2.08679
   A100       2.09487   0.00043   0.00437  -0.00056   0.00382   2.09870
   A101       2.09475   0.00034   0.00379  -0.00089   0.00292   2.09767
   A102       2.09444   0.00058   0.00368   0.00125   0.00495   2.09939
   A103       2.09582  -0.00006  -0.00111   0.00097  -0.00015   2.09567
   A104       2.09288  -0.00052  -0.00259  -0.00223  -0.00483   2.08805
   A105       2.09900  -0.00030  -0.00061  -0.00204  -0.00255   2.09644
   A106       2.09717  -0.00089  -0.00882  -0.00141  -0.01033   2.08684
   A107       2.08698   0.00119   0.00941   0.00338   0.01269   2.09967
   A108       2.09002   0.00038  -0.00941   0.01040   0.00100   2.09102
   A109       2.08812  -0.00010   0.00852  -0.00743   0.00098   2.08910
   A110       2.10496  -0.00028   0.00101  -0.00282  -0.00192   2.10304
   A111       1.46566  -0.00812  -0.03374  -0.04657  -0.07771   1.38796
   A112       2.00784  -0.00027   0.00130  -0.00718  -0.01126   1.99658
   A113       2.00644   0.00064  -0.00037   0.00355  -0.00119   2.00525
   A114       1.98930  -0.00167  -0.01052  -0.02389  -0.03762   1.95169
   A115       1.99129  -0.00276  -0.00834  -0.02781  -0.03725   1.95404
   A116       1.95667   0.00784   0.03472   0.06831   0.10317   2.05984
    D1       -3.13814  -0.00002  -0.00029  -0.00075  -0.00104  -3.13919
    D2       -1.06967   0.00020  -0.00359   0.00535   0.00187  -1.06780
    D3        1.07636  -0.00024   0.00285  -0.00673  -0.00399   1.07237
    D4       -0.00705   0.00004   0.00070   0.00085   0.00166  -0.00539
    D5        3.14082  -0.00018  -0.00198  -0.00588  -0.00797   3.13285
    D6        3.12647  -0.00043  -0.00423  -0.01315  -0.01750   3.10897
    D7       -0.00159   0.00002  -0.00074   0.00021  -0.00033  -0.00192
    D8       -0.02157  -0.00021  -0.00152  -0.00620  -0.00760  -0.02917
    D9        3.13356   0.00024   0.00196   0.00716   0.00957  -3.14006
   D10        3.12784  -0.00004   0.00100  -0.00162  -0.00060   3.12724
   D11       -0.00040  -0.00046  -0.00615  -0.01458  -0.02079  -0.02119
   D12       -0.00780  -0.00026  -0.00148  -0.00809  -0.00971  -0.01751
   D13       -3.13604  -0.00067  -0.00864  -0.02105  -0.02991   3.11724
   D14       -3.11865   0.00051   0.00226   0.02060   0.02358  -3.09506
   D15        0.00452   0.00066   0.00582   0.01575   0.02164   0.02616
   D16        0.00976   0.00009  -0.00109   0.00770   0.00728   0.01704
   D17        3.13293   0.00024   0.00248   0.00284   0.00533   3.13826
   D18        3.14108  -0.00037  -0.00083  -0.01639  -0.01775   3.12333
   D19        0.05041  -0.00129  -0.01609  -0.03521  -0.05057  -0.00016
   D20        0.01595  -0.00050  -0.00402  -0.01202  -0.01601  -0.00006
   D21       -3.07471  -0.00142  -0.01928  -0.03085  -0.04883  -3.12354
   D22        0.04341  -0.00058  -0.00667  -0.01016  -0.01710   0.02631
   D23       -2.99290   0.00040  -0.00161   0.00584   0.00441  -2.98849
   D24       -3.11417  -0.00049  -0.00370  -0.01453  -0.01904  -3.13321
   D25        0.13270   0.00049   0.00137   0.00147   0.00248   0.13518
   D26       -3.12367  -0.00070  -0.00218  -0.01180  -0.01343  -3.13709
   D27       -0.15717   0.00058   0.00636   0.01581   0.02264  -0.13452
   D28       -0.02995   0.00006   0.01051   0.00578   0.01695  -0.01300
   D29        2.93655   0.00134   0.01905   0.03339   0.05302   2.98957
   D30        2.95556   0.00144   0.01602   0.02438   0.03872   2.99429
   D31       -0.13614   0.00059   0.00180   0.00564   0.00669  -0.12944
   D32       -2.00077  -0.00099  -0.01457  -0.02692  -0.04184  -2.04261
   D33        0.16651  -0.00012  -0.01633  -0.01151  -0.02810   0.13841
   D34        2.20256  -0.00007   0.00164  -0.02363  -0.02197   2.18058
   D35        1.38489  -0.00234  -0.02607  -0.06772  -0.09388   1.29102
   D36       -2.73101  -0.00147  -0.02783  -0.05230  -0.08014  -2.81115
   D37       -0.69496  -0.00142  -0.00985  -0.06442  -0.07401  -0.76898
   D38        0.17865  -0.00118  -0.00817  -0.01574  -0.02307   0.15558
   D39        2.16287  -0.00683  -0.03573  -0.06444  -0.09887   2.06401
   D40       -1.80765   0.00556   0.01715   0.03624   0.05251  -1.75514
   D41        3.07184  -0.00020   0.00215   0.02294   0.02649   3.09833
   D42       -1.22712  -0.00584  -0.02541  -0.02576  -0.04930  -1.27642
   D43        1.08555   0.00655   0.02747   0.07492   0.10207   1.18762
   D44        1.03148  -0.00070  -0.02112  -0.03857  -0.05982   0.97166
   D45       -1.07402  -0.00063  -0.01630  -0.04151  -0.05808  -1.13210
   D46       -3.13811  -0.00065  -0.02376  -0.03546  -0.05938   3.08569
   D47       -0.98113  -0.00078  -0.00135  -0.06789  -0.06919  -1.05032
   D48       -3.08663  -0.00070   0.00348  -0.07083  -0.06745   3.12911
   D49        1.13246  -0.00072  -0.00398  -0.06478  -0.06875   1.06371
   D50        3.12224  -0.00105  -0.02046  -0.05025  -0.07045   3.05179
   D51        1.01674  -0.00097  -0.01564  -0.05319  -0.06871   0.94802
   D52       -1.04735  -0.00100  -0.02310  -0.04714  -0.07002  -1.11737
   D53       -0.23779   0.00051   0.01246   0.01844   0.03133  -0.20646
   D54       -2.32377   0.00154   0.02372   0.03160   0.05565  -2.26812
   D55        1.80625  -0.00029   0.01163  -0.00261   0.00912   1.81536
   D56        1.86977   0.00000  -0.01022   0.03877   0.02868   1.89845
   D57       -0.21621   0.00103   0.00104   0.05192   0.05300  -0.16321
   D58       -2.36938  -0.00080  -0.01104   0.01771   0.00647  -2.36291
   D59       -2.25571   0.00008  -0.00569   0.02905   0.02366  -2.23204
   D60        1.94149   0.00111   0.00557   0.04221   0.04799   1.98948
   D61       -0.21168  -0.00072  -0.00652   0.00800   0.00145  -0.21022
   D62        3.14042  -0.00004   0.00293  -0.00685  -0.00394   3.13648
   D63        1.04822   0.00021   0.00537  -0.00307   0.00230   1.05051
   D64       -1.06696  -0.00028  -0.00108  -0.00897  -0.00999  -1.07694
   D65       -1.03737  -0.00085  -0.01889  -0.00519  -0.02428  -1.06165
   D66       -3.12958  -0.00060  -0.01645  -0.00141  -0.01804   3.13557
   D67        1.03844  -0.00110  -0.02291  -0.00731  -0.03033   1.00811
   D68        1.03210   0.00074   0.01734  -0.00296   0.01449   1.04659
   D69       -1.06010   0.00100   0.01978   0.00082   0.02072  -1.03938
   D70        3.10791   0.00050   0.01333  -0.00509   0.00844   3.11635
   D71       -3.02825   0.00026  -0.00478  -0.00832  -0.01336  -3.04161
   D72        1.15437  -0.00065  -0.02210  -0.01330  -0.03539   1.11898
   D73       -0.94185  -0.00077  -0.01567  -0.02289  -0.03834  -0.98019
   D74        1.12345   0.00109   0.01878  -0.01176   0.00696   1.13041
   D75       -0.97712   0.00018   0.00146  -0.01674  -0.01507  -0.99220
   D76       -3.07334   0.00007   0.00789  -0.02633  -0.01802  -3.09137
   D77       -0.95790  -0.00055  -0.01335  -0.01790  -0.03168  -0.98957
   D78       -3.05847  -0.00146  -0.03066  -0.02288  -0.05371  -3.11218
   D79        1.12850  -0.00157  -0.02423  -0.03247  -0.05666   1.07184
   D80        3.06561   0.00006   0.00338   0.00278   0.00619   3.07181
   D81        0.98478   0.00020   0.00730   0.00237   0.00964   0.99442
   D82       -1.13081   0.00003   0.00316   0.00241   0.00559  -1.12522
   D83       -1.08247  -0.00073  -0.01716   0.00442  -0.01286  -1.09533
   D84        3.11988  -0.00059  -0.01324   0.00401  -0.00941   3.11047
   D85        1.00429  -0.00075  -0.01738   0.00405  -0.01346   0.99083
   D86        0.99428   0.00084   0.01662   0.00835   0.02513   1.01941
   D87       -1.08656   0.00098   0.02054   0.00794   0.02858  -1.05798
   D88        3.08104   0.00081   0.01640   0.00798   0.02453   3.10557
   D89        0.22665  -0.00015  -0.00882  -0.01435  -0.02334   0.20331
   D90        2.37287  -0.00034  -0.00874  -0.01860  -0.02777   2.34510
   D91       -1.85569  -0.00083  -0.01978  -0.00912  -0.02843  -1.88412
   D92        3.06188   0.00052   0.00961   0.01334   0.02227   3.08415
   D93       -0.07376   0.00008   0.00255  -0.00449  -0.00188  -0.07564
   D94       -0.20288   0.00025   0.00709  -0.00264   0.00449  -0.19839
   D95        2.94467  -0.00019   0.00003  -0.02047  -0.01966   2.92501
   D96       -0.17348   0.00028   0.00348   0.00946   0.01227  -0.16120
   D97       -2.17649   0.00430   0.01894   0.04002   0.05640  -2.12008
   D98        1.82817  -0.00287  -0.01358  -0.00978  -0.02122   1.80695
   D99        3.08468   0.00077   0.00711   0.02504   0.03139   3.11607
   D100       1.08167   0.00479   0.02257   0.05559   0.07552   1.15719
   D101      -1.19687  -0.00238  -0.00995   0.00580  -0.00210  -1.19897
   D102      -1.68279  -0.00071  -0.01748  -0.06322  -0.08050  -1.76329
   D103       2.29977  -0.00140  -0.00544  -0.07434  -0.07988   2.21989
   D104       0.30211  -0.00078  -0.01176  -0.06237  -0.07402   0.22809
   D105       1.45267  -0.00027  -0.01040  -0.04490  -0.05525   1.39743
   D106      -0.84795  -0.00096   0.00164  -0.05602  -0.05462  -0.90258
   D107      -2.84561  -0.00034  -0.00469  -0.04405  -0.04876  -2.89437
   D108       0.05691   0.00032   0.00136   0.01346   0.01490   0.07182
   D109      -3.09817   0.00074   0.00868   0.02652   0.03529  -3.06288
   D110      -3.07822  -0.00014  -0.00565  -0.00592  -0.01197  -3.09019
   D111       0.04989   0.00028   0.00167   0.00713   0.00842   0.05830
   D112       2.36872  -0.00067  -0.00352  -0.07316  -0.07669   2.29203
   D113      -0.73770  -0.00118  -0.01215  -0.09163  -0.10385  -0.84155
   D114      -1.64042  -0.00148  -0.02518  -0.06764  -0.09302  -1.73344
   D115       1.53634  -0.00200  -0.03381  -0.08610  -0.12018   1.41616
   D116       0.37961  -0.00026   0.00569  -0.07433  -0.06833   0.31128
   D117      -2.72681  -0.00077  -0.00294  -0.09280  -0.09549  -2.82231
   D118      -1.48280   0.00059   0.00803   0.03873   0.04667  -1.43613
   D119       1.68674  -0.00045  -0.00652  -0.00180  -0.00834   1.67840
   D120       2.52107   0.00175   0.03266   0.03278   0.06557   2.58664
   D121      -0.59258   0.00071   0.01811  -0.00775   0.01056  -0.58202
   D122       0.50977   0.00006   0.00031   0.03343   0.03359   0.54336
   D123      -2.60388  -0.00098  -0.01424  -0.00710  -0.02142  -2.62530
   D124      -3.13107  -0.00073  -0.00977  -0.02272  -0.03222   3.11989
   D125      -0.00504  -0.00134  -0.01390  -0.04683  -0.06026  -0.06531
   D126      -0.02348  -0.00017  -0.00117  -0.00462  -0.00587  -0.02934
   D127       3.10255  -0.00079  -0.00529  -0.02873  -0.03390   3.06865
   D128       3.13115   0.00066   0.00915   0.02350   0.03301  -3.11902
   D129      -0.01627   0.00080   0.01132   0.02715   0.03870   0.02243
   D130       0.02496   0.00017   0.00074   0.00494   0.00573   0.03068
   D131      -3.12246   0.00031   0.00292   0.00859   0.01141  -3.11104
   D132       0.00879   0.00006   0.00112   0.00071   0.00188   0.01067
   D133       3.13782  -0.00016  -0.00167  -0.00587  -0.00758   3.13024
   D134      -3.11724   0.00069   0.00535   0.02488   0.03056  -3.08668
   D135       0.01179   0.00047   0.00256   0.01830   0.02110   0.03289
   D136       0.00476   0.00006  -0.00066   0.00298   0.00234   0.00710
   D137       3.13644  -0.00010  -0.00192  -0.00211  -0.00407   3.13237
   D138      -3.12420   0.00028   0.00216   0.00961   0.01189  -3.11231
   D139       0.00747   0.00012   0.00090   0.00452   0.00548   0.01295
   D140      -0.00330  -0.00006   0.00022  -0.00265  -0.00249  -0.00579
   D141       3.13239  -0.00013  -0.00096  -0.00384  -0.00483   3.12756
   D142      -3.13497   0.00010   0.00147   0.00243   0.00389  -3.13108
   D143       0.00072   0.00003   0.00029   0.00124   0.00156   0.00228
   D144      -0.01170  -0.00006  -0.00024  -0.00138  -0.00159  -0.01330
   D145       3.13563  -0.00020  -0.00231  -0.00498  -0.00720   3.12843
   D146       3.13579   0.00001   0.00093  -0.00021   0.00070   3.13649
   D147      -0.00007  -0.00013  -0.00113  -0.00381  -0.00490  -0.00497
   D148      -3.13259  -0.00082  -0.00891  -0.03075  -0.03893   3.11167
   D149       0.00699  -0.00088  -0.00829  -0.03559  -0.04322  -0.03623
   D150      -0.01814   0.00024   0.00546   0.00881   0.01419  -0.00395
   D151       3.12144   0.00017   0.00608   0.00396   0.00990   3.13134
   D152       3.13226   0.00080   0.00914   0.03371   0.04368  -3.10724
   D153      -0.00022   0.00114   0.01465   0.04256   0.05775   0.05753
   D154       0.01894  -0.00019  -0.00521  -0.00708  -0.01236   0.00657
   D155      -3.11354   0.00014   0.00029   0.00177   0.00170  -3.11184
   D156       0.00681  -0.00014  -0.00222  -0.00508  -0.00712  -0.00032
   D157       3.14111  -0.00017  -0.00209  -0.00623  -0.00829   3.13283
   D158      -3.13277  -0.00007  -0.00281  -0.00021  -0.00269  -3.13546
   D159       0.00154  -0.00010  -0.00267  -0.00135  -0.00386  -0.00232
   D160       0.00389  -0.00003  -0.00140  -0.00049  -0.00192   0.00197
   D161       3.13648  -0.00004  -0.00052  -0.00104  -0.00165   3.13483
   D162      -3.13039   0.00000  -0.00152   0.00067  -0.00073  -3.13112
   D163       0.00220  -0.00001  -0.00065   0.00011  -0.00046   0.00174
   D164      -0.00310   0.00008   0.00164   0.00221   0.00375   0.00066
   D165       3.12898  -0.00004   0.00024  -0.00033  -0.00009   3.12889
   D166      -3.13569   0.00009   0.00076   0.00277   0.00347  -3.13221
   D167      -0.00361  -0.00003  -0.00064   0.00022  -0.00037  -0.00398
   D168      -0.00839   0.00003   0.00172   0.00159   0.00344  -0.00495
   D169       3.12414  -0.00031  -0.00377  -0.00723  -0.01085   3.11329
   D170      -3.14048   0.00015   0.00311   0.00412   0.00724  -3.13324
   D171      -0.00795  -0.00019  -0.00237  -0.00471  -0.00705  -0.01500
         Item               Value     Threshold  Converged?
 Maximum Force            0.027413     0.000450     NO 
 RMS     Force            0.002694     0.000300     NO 
 Maximum Displacement     0.784036     0.001800     NO 
 RMS     Displacement     0.160381     0.001200     NO 
 Predicted change in Energy=-1.285218D-02
 GradGradGradGradGradGradGradGradGradGradGradGradGradGradGradGradGradGrad

 Stoichiometry    C26H28F2N2NiO2(3)
 Framework group  C1[X(C26H28F2N2NiO2)]
 Deg. of freedom   177
 Full point group                 C1      NOp   1
 Largest Abelian subgroup         C1      NOp   1
 Largest concise Abelian subgroup C1      NOp   1
                         Standard orientation:                         
 ---------------------------------------------------------------------
 Center     Atomic      Atomic             Coordinates (Angstroms)
 Number     Number       Type             X           Y           Z
 ---------------------------------------------------------------------
      1          6           0        0.734661    5.271015    1.569117
      2          8           0        1.530781    4.125472    1.279701
      3          6           0        0.924339    3.002475    0.863661
      4          6           0       -0.463108    2.859331    0.692190
      5          6           0       -0.914522    1.640701    0.216996
      6          6           0       -2.315621    1.320090   -0.078762
      7          7           0       -2.625816    0.145678   -0.542033
      8          6           0       -4.088522    0.109906   -0.749802
      9          6           0       -4.740408   -0.954535    0.160599
     10          6           0       -4.382005   -0.702285    1.630184
     11          6           0       -4.227250   -2.339851   -0.275863
     12          6           0       -6.262438   -0.888963   -0.040230
     13          6           0       -4.483599    1.596752   -0.493822
     14          8           0       -3.296829    2.215486    0.095772
     15          7           0       -0.099161    0.591654   -0.056255
     16          6           0        1.216928    0.710476    0.166332
     17          6           0        1.995101   -0.552556   -0.105258
     18          6           0        2.327996   -1.296446    1.178349
     19          6           0        2.056248   -2.666818    1.221424
     20          6           0        2.361521   -3.412520    2.358976
     21          6           0        2.931479   -2.797064    3.475618
     22          6           0        3.185405   -1.425157    3.446075
     23          6           0        2.877598   -0.679063    2.306254
     24          6           0        3.155226   -0.296968   -1.050126
     25          6           0        2.862766   -0.272538   -2.418792
     26          6           0        3.870882   -0.007884   -3.345748
     27          6           0        5.177961    0.234719   -2.914594
     28          6           0        5.469176    0.208172   -1.549088
     29          6           0        4.461874   -0.059752   -0.618970
     30          6           0        1.763995    1.915759    0.585565
     31          1           0        1.445737    6.037827    1.878863
     32          1           0        0.187583    5.608396    0.678882
     33          1           0        0.028328    5.066617    2.384666
     34          1           0       -1.171771    3.653364    0.885360
     35          1           0       -4.299961   -0.171982   -1.786457
     36          1           0       -4.858041   -1.464147    2.257582
     37          1           0       -4.725323    0.280720    1.982206
     38          1           0       -3.298802   -0.773220    1.784352
     39          1           0       -4.758876   -3.112734    0.293027
     40          1           0       -3.148195   -2.475556   -0.134698
     41          1           0       -4.435846   -2.505723   -1.342499
     42          1           0       -6.742054   -1.683476    0.542225
     43          1           0       -6.528494   -1.037028   -1.095771
     44          1           0       -6.690279    0.068324    0.289909
     45          1           0       -5.309592    1.733578    0.204732
     46          1           0       -4.693427    2.137345   -1.422635
     47          1           0        1.299632   -1.197423   -0.651138
     48          1           0        1.566822   -3.133548    0.372258
     49          1           0        2.133170   -4.475775    2.378445
     50          1           0        3.161643   -3.378124    4.366458
     51          1           0        3.617126   -0.929496    4.313558
     52          1           0        3.069519    0.391379    2.301930
     53          1           0        1.838745   -0.469406   -2.741313
     54          1           0        3.635021    0.000758   -4.407856
     55          1           0        5.965636    0.434968   -3.638297
     56          1           0        6.486504    0.384211   -1.204913
     57          1           0        4.693482   -0.106484    0.442474
     58          1           0        2.836836    2.024825    0.693429
     59         28           0       -1.003651   -0.984082   -1.008831
     60          9           0       -0.857672   -2.556870   -0.032433
     61          9           0       -0.583860   -1.037001   -2.809233
 ---------------------------------------------------------------------
 Rotational constants (GHZ):           0.1603297           0.0874599           0.0788544
 Basis read from rwf:  (6D, 7F)
 Pseudo-potential data read from rwf file.
 There are   613 symmetry adapted cartesian basis functions of A   symmetry.
 There are   610 symmetry adapted basis functions of A   symmetry.
   610 basis functions,  1162 primitive gaussians,   613 cartesian basis functions
   126 alpha electrons      124 beta electrons
       nuclear repulsion energy      3822.8711969814 Hartrees.
 NAtoms=   61 NActive=   61 NUniq=   61 SFac= 1.00D+00 NAtFMM=   60 NAOKFM=T Big=T
 Integral buffers will be    131072 words long.
 Raffenetti 2 integral format.
 Two-electron integral symmetry is turned on.
 Nuclear repulsion after empirical dispersion term =     3822.7214176092 Hartrees.
 One-electron integrals computed using PRISM.
 PrsmSu:  requested number of processors reduced to:  12 ShMem   1 Linda.
   1 Symmetry operations used in ECPInt.
 ECPInt:  NShTT=   21115 NPrTT=  128985 LenC2=   17115 LenP2D=   55851.
 LDataN:  DoStor=T MaxTD1= 6 Len=  172
 Number of processors reduced to  12 by ecpmxn.
 NBasis=   610 RedAO= T EigKep=  6.99D-06  NBF=   610
 NBsUse=   609 1.00D-06 EigRej=  9.85D-07 NBFU=   609
 Initial guess from the checkpoint file:  "Lig2126_xyz_2.chk"
 B after Tr=    -0.000000    0.000000    0.000000
         Rot=    0.999748    0.017298   -0.014186   -0.001687 Ang=   2.57 deg.
 Initial guess <Sx>= 0.0000 <Sy>= 0.0000 <Sz>= 1.0000 <S**2>= 2.0141 S= 1.0047
 ExpMin= 2.40D-02 ExpMax= 7.14D+04 ExpMxC= 1.07D+04 IAcc=3 IRadAn=         5 AccDes= 0.00D+00
 Harris functional with IExCor=  402 and IRadAn=       5 diagonalized for initial guess.
 HarFok:  IExCor=  402 AccDes= 0.00D+00 IRadAn=         5 IDoV= 1 UseB2=F ITyADJ=14
 ICtDFT=  3500011 ScaDFX=  1.000000  1.000000  1.000000  1.000000
 FoFCou: FMM=F IPFlag=           0 FMFlag=      100000 FMFlg1=        2001
         NFxFlg=           0 DoJE=T BraDBF=F KetDBF=T FulRan=T
         wScrn=  0.000000 ICntrl=       500 IOpCl=  0 I1Cent=   200000004 NGrid=           0
         NMat0=    1 NMatS0=      1 NMatT0=    0 NMatD0=    1 NMtDS0=    0 NMtDT0=    0
 Petite list used in FoFCou.
 Requested convergence on RMS density matrix=1.00D-08 within 128 cycles.
 Requested convergence on MAX density matrix=1.00D-06.
 Requested convergence on             energy=1.00D-06.
 No special actions if energy rises.
 Restarting incremental Fock formation.
 SCF Done:  E(UB3LYP) =  -1636.87102262     A.U. after   37 cycles
            NFock= 37  Conv=0.60D-08     -V/T= 2.0485
 <Sx>= 0.0000 <Sy>= 0.0000 <Sz>= 1.0000 <S**2>= 2.0082 S= 1.0027
 <L.S>=  0.00000000000    
 Annihilation of the first spin contaminant:
 S**2 before annihilation     2.0082,   after     2.0000
 PrsmSu:  requested number of processors reduced to:  12 ShMem   1 Linda.
   1 Symmetry operations used in ECPInt.
 ECPInt:  NShTT=   21115 NPrTT=  128985 LenC2=   17115 LenP2D=   55851.
 LDataN:  DoStor=T MaxTD1= 7 Len=  274
 Number of processors reduced to  13 by ecpmxn.
 Calling FoFJK, ICntrl=      2127 FMM=T ISym2X=0 I1Cent= 0 IOpClX= 1 NMat=1 NMatS=1 NMatT=0.
 ***** Axes restored to original set *****
 -------------------------------------------------------------------
 Center     Atomic                   Forces (Hartrees/Bohr)
 Number     Number              X              Y              Z
 -------------------------------------------------------------------
      1        6           0.000355093   -0.000567430    0.000302237
      2        8           0.000083773   -0.001844313   -0.001204086
      3        6          -0.001201276    0.002220519   -0.001105921
      4        6           0.001159107   -0.000570918    0.000384167
      5        6          -0.004465227    0.008484826   -0.000333713
      6        6          -0.005425619    0.015784056    0.001423638
      7        7           0.012860767   -0.014064036   -0.003318538
      8        6          -0.001238697   -0.004056004   -0.004156351
      9        6           0.000789739   -0.000414785   -0.000601652
     10        6          -0.002290621   -0.000300328    0.000046046
     11        6           0.001247522    0.002398759    0.000521337
     12        6          -0.000306475    0.000569429    0.001058441
     13        6           0.001032874    0.002485998    0.002998462
     14        8          -0.001434149    0.002788706   -0.001853319
     15        7           0.003931185   -0.008008217    0.007659093
     16        6           0.002878912    0.004910681    0.001832877
     17        6          -0.002777348    0.000848579   -0.002151789
     18        6          -0.000853894    0.000166306    0.000434160
     19        6          -0.001513794    0.001601703    0.000535616
     20        6          -0.000956307    0.000445754    0.000808933
     21        6           0.000568965    0.000178298    0.000094223
     22        6          -0.000049740   -0.001046813   -0.000102545
     23        6          -0.000030676   -0.000970042   -0.002142983
     24        6           0.000609839    0.000145292   -0.002166603
     25        6           0.002480453    0.001124011    0.000509112
     26        6           0.000612765    0.000481139    0.000472960
     27        6          -0.000508900   -0.000561198    0.000470237
     28        6          -0.000269536    0.000030430   -0.001003212
     29        6          -0.000640134   -0.000715001   -0.000212259
     30        6          -0.000689857   -0.002212332   -0.000519386
     31        1           0.000660450   -0.000415568    0.001295253
     32        1          -0.001036932   -0.000423528   -0.000287090
     33        1           0.000647763    0.000299078   -0.000955752
     34        1          -0.000117484   -0.000524105   -0.000528252
     35        1           0.000873962   -0.000812331   -0.002538998
     36        1          -0.000018555   -0.001058615   -0.000280532
     37        1          -0.000432742    0.000997766   -0.000279151
     38        1           0.000393618   -0.000059953    0.001365455
     39        1          -0.000414144    0.000855392   -0.001955205
     40        1          -0.001352445   -0.002137525    0.001791727
     41        1          -0.000866648   -0.000420817    0.001302298
     42        1           0.001057579   -0.000146233    0.000634725
     43        1          -0.000803299   -0.000805381    0.000440719
     44        1          -0.001059336    0.001681991   -0.000236916
     45        1          -0.000478332   -0.000283628   -0.001124668
     46        1          -0.001268027   -0.000293363    0.000772654
     47        1          -0.001791003   -0.000845123   -0.001991266
     48        1          -0.000643272   -0.000824153    0.001114278
     49        1           0.000479610   -0.000645545   -0.000511581
     50        1           0.001244114    0.000208388   -0.000226182
     51        1           0.000496717    0.000978550    0.000302743
     52        1          -0.001354216    0.000478794    0.000516030
     53        1           0.000126627    0.000637638   -0.001442298
     54        1          -0.000813126   -0.000607467   -0.000042479
     55        1          -0.000511523   -0.000415230    0.001060386
     56        1           0.000430269    0.000322699    0.000888871
     57        1           0.000730592    0.000823584   -0.000758678
     58        1           0.000856463   -0.000307645    0.000383036
     59       28          -0.003534154    0.009085468    0.000486242
     60        9           0.004609070   -0.006843465    0.002004941
     61        9          -0.000070339   -0.007832744    0.000120511
 -------------------------------------------------------------------
 Cartesian Forces:  Max     0.015784056 RMS     0.002732083

 GradGradGradGradGradGradGradGradGradGradGradGradGradGradGradGradGradGrad
 Berny optimization.
 Using GEDIIS/GDIIS optimizer.
 FormGI is forming the generalized inverse of G from B-inverse, IUseBI=4.
 Internal  Forces:  Max     0.016210376 RMS     0.001749808
 Search for a local minimum.
 Step number   3 out of a maximum of  362
 All quantities printed in internal units (Hartrees-Bohrs-Radians)
 Mixed Optimization -- RFO/linear search
 Update second derivatives using D2CorX and points    2    3
 DE= -1.02D-02 DEPred=-1.29D-02 R= 7.91D-01
 TightC=F SS=  1.41D+00  RLast= 6.34D-01 DXNew= 8.4853D-01 1.9024D+00
 Trust test= 7.91D-01 RLast= 6.34D-01 DXMaxT set to 8.49D-01
 ITU=  1  1  0
 Use linear search instead of GDIIS.
     Eigenvalues ---    0.00224   0.00230   0.00230   0.00230   0.00230
     Eigenvalues ---    0.00245   0.00252   0.00685   0.01324   0.01348
     Eigenvalues ---    0.01369   0.01382   0.01895   0.01973   0.02037
     Eigenvalues ---    0.02055   0.02063   0.02072   0.02076   0.02084
     Eigenvalues ---    0.02101   0.02117   0.02124   0.02127   0.02135
     Eigenvalues ---    0.02140   0.02168   0.02168   0.02189   0.02190
     Eigenvalues ---    0.02191   0.02192   0.02192   0.02194   0.02194
     Eigenvalues ---    0.02196   0.02395   0.02733   0.02848   0.03576
     Eigenvalues ---    0.03841   0.03894   0.04568   0.04600   0.04703
     Eigenvalues ---    0.04858   0.05080   0.05198   0.05262   0.05282
     Eigenvalues ---    0.05475   0.05585   0.05622   0.05668   0.06084
     Eigenvalues ---    0.06628   0.06671   0.08885   0.10091   0.10410
     Eigenvalues ---    0.10668   0.10745   0.11047   0.11454   0.13097
     Eigenvalues ---    0.13750   0.14272   0.14492   0.15984   0.15991
     Eigenvalues ---    0.15994   0.15996   0.15996   0.15998   0.15999
     Eigenvalues ---    0.15999   0.16000   0.16000   0.16000   0.16000
     Eigenvalues ---    0.16000   0.16000   0.16000   0.16000   0.16000
     Eigenvalues ---    0.16000   0.16000   0.16000   0.16000   0.16000
     Eigenvalues ---    0.16036   0.16419   0.18920   0.19241   0.19803
     Eigenvalues ---    0.19881   0.20132   0.21011   0.21800   0.21998
     Eigenvalues ---    0.22000   0.22009   0.22032   0.23475   0.23480
     Eigenvalues ---    0.23561   0.23574   0.24395   0.24669   0.24765
     Eigenvalues ---    0.24907   0.24972   0.24997   0.24999   0.25307
     Eigenvalues ---    0.26129   0.26627   0.27073   0.27730   0.27869
     Eigenvalues ---    0.27891   0.28283   0.28613   0.30758   0.34498
     Eigenvalues ---    0.34620   0.34661   0.34683   0.34690   0.34694
     Eigenvalues ---    0.34697   0.34705   0.34734   0.34767   0.34809
     Eigenvalues ---    0.34847   0.34879   0.34886   0.35008   0.35350
     Eigenvalues ---    0.35787   0.35815   0.35947   0.35952   0.35954
     Eigenvalues ---    0.35956   0.35967   0.35975   0.35980   0.36087
     Eigenvalues ---    0.36174   0.36469   0.37290   0.37585   0.40244
     Eigenvalues ---    0.41580   0.41931   0.41976   0.42126   0.42162
     Eigenvalues ---    0.42205   0.42466   0.45360   0.45657   0.45725
     Eigenvalues ---    0.46166   0.46264   0.46278   0.46909   0.46943
     Eigenvalues ---    0.46966   0.47064   0.48997   0.49330   0.50020
     Eigenvalues ---    0.53307   0.76379
 RFO step:  Lambda=-5.35084512D-03 EMin= 2.23533526D-03
 Quartic linear search produced a step of -0.01782.
 Iteration  1 RMS(Cart)=  0.16840275 RMS(Int)=  0.00586817
 Iteration  2 RMS(Cart)=  0.01347425 RMS(Int)=  0.00005862
 Iteration  3 RMS(Cart)=  0.00010544 RMS(Int)=  0.00004247
 Iteration  4 RMS(Cart)=  0.00000001 RMS(Int)=  0.00004247
 Variable       Old X    -DE/DX   Delta X   Delta X   Delta X     New X
                                 (Linear)    (Quad)   (Total)
    R1        2.69234   0.00128  -0.00018   0.00268   0.00251   2.69484
    R2        2.06108  -0.00053  -0.00000  -0.00126  -0.00126   2.05982
    R3        2.07495  -0.00116  -0.00007  -0.00175  -0.00182   2.07312
    R4        2.07509  -0.00119  -0.00007  -0.00182  -0.00189   2.07320
    R5        2.53673   0.00306   0.00049  -0.00080  -0.00031   2.53642
    R6        2.65566   0.00100  -0.00012   0.00144   0.00129   2.65695
    R7        2.64785  -0.00033  -0.00009  -0.00014  -0.00026   2.64759
    R8        2.61483   0.00182   0.00015   0.00119   0.00134   2.61617
    R9        2.04406  -0.00001  -0.00001   0.00067   0.00066   2.04472
   R10        2.77303   0.00042  -0.00035   0.00121   0.00084   2.77387
   R11        2.56334  -0.00817   0.00010  -0.01457  -0.01444   2.54889
   R12        2.45671  -0.01621  -0.00065  -0.01346  -0.01408   2.44263
   R13        2.53179  -0.00067   0.00045  -0.00601  -0.00556   2.52623
   R14        2.79268  -0.00404  -0.00074  -0.00484  -0.00555   2.78713
   R15        3.83837  -0.00365  -0.00404   0.01887   0.01485   3.85322
   R16        2.91950   0.00568   0.00017   0.01373   0.01390   2.93340
   R17        2.94720  -0.00406  -0.00000  -0.00645  -0.00649   2.94071
   R18        2.06907  -0.00019  -0.00003  -0.00012  -0.00015   2.06893
   R19        2.89798   0.00185   0.00017   0.00294   0.00311   2.90109
   R20        2.91099   0.00079   0.00007   0.00124   0.00131   2.91231
   R21        2.90379   0.00142   0.00015   0.00265   0.00280   2.90660
   R22        2.07067  -0.00036  -0.00008  -0.00012  -0.00020   2.07047
   R23        2.07705  -0.00112  -0.00011  -0.00119  -0.00130   2.07575
   R24        2.07193  -0.00140  -0.00004  -0.00262  -0.00267   2.06926
   R25        2.07320  -0.00086  -0.00008  -0.00117  -0.00124   2.07196
   R26        2.07242  -0.00102  -0.00010  -0.00133  -0.00143   2.07099
   R27        2.07761  -0.00090  -0.00014  -0.00083  -0.00097   2.07664
   R28        2.07055  -0.00039  -0.00007  -0.00028  -0.00036   2.07020
   R29        2.07601  -0.00112  -0.00010  -0.00154  -0.00164   2.07437
   R30        2.07736  -0.00195  -0.00010  -0.00332  -0.00342   2.07393
   R31        2.76370   0.00041  -0.00078   0.01049   0.00967   2.77337
   R32        2.06055  -0.00072  -0.00000  -0.00169  -0.00169   2.05886
   R33        2.06920  -0.00135  -0.00001  -0.00291  -0.00291   2.06628
   R34        2.53234   0.00445   0.00017   0.00358   0.00378   2.53612
   R35        3.87668  -0.00418  -0.00387   0.01718   0.01332   3.88999
   R36        2.85002   0.00625   0.00020   0.01327   0.01347   2.86349
   R37        2.62376   0.00308   0.00016   0.00392   0.00408   2.62783
   R38        2.87328   0.00250   0.00027   0.00385   0.00413   2.87741
   R39        2.86840   0.00314   0.00029   0.00617   0.00646   2.87486
   R40        2.06795  -0.00215  -0.00004  -0.00409  -0.00413   2.06382
   R41        2.64131   0.00236  -0.00003   0.00436   0.00434   2.64565
   R42        2.64251   0.00103   0.00005   0.00139   0.00145   2.64395
   R43        2.63431  -0.00059   0.00000  -0.00062  -0.00061   2.63371
   R44        2.05143  -0.00060  -0.00003  -0.00077  -0.00080   2.05063
   R45        2.63922  -0.00085  -0.00006  -0.00101  -0.00107   2.63815
   R46        2.05541  -0.00093  -0.00011  -0.00106  -0.00117   2.05424
   R47        2.63715  -0.00054  -0.00004  -0.00073  -0.00078   2.63637
   R48        2.05642  -0.00127  -0.00009  -0.00177  -0.00186   2.05456
   R49        2.63926  -0.00119  -0.00003  -0.00158  -0.00162   2.63764
   R50        2.05676  -0.00114  -0.00011  -0.00143  -0.00154   2.05521
   R51        2.05511  -0.00130  -0.00011  -0.00173  -0.00184   2.05327
   R52        2.64520   0.00265  -0.00005   0.00537   0.00532   2.65052
   R53        2.63852   0.00060   0.00008   0.00041   0.00050   2.63901
   R54        2.63587  -0.00130   0.00000  -0.00191  -0.00190   2.63397
   R55        2.06266  -0.00098  -0.00015  -0.00076  -0.00090   2.06175
   R56        2.64103  -0.00054  -0.00007  -0.00035  -0.00042   2.64060
   R57        2.05605  -0.00101  -0.00011  -0.00121  -0.00132   2.05474
   R58        2.63894  -0.00114  -0.00005  -0.00180  -0.00185   2.63709
   R59        2.05649  -0.00124  -0.00009  -0.00170  -0.00179   2.05470
   R60        2.63991  -0.00095  -0.00004  -0.00101  -0.00105   2.63887
   R61        2.05660  -0.00104  -0.00011  -0.00123  -0.00134   2.05526
   R62        2.05493  -0.00109  -0.00010  -0.00145  -0.00155   2.05339
   R63        2.04799  -0.00054  -0.00004  -0.00070  -0.00074   2.04725
   R64        3.50916  -0.00613  -0.00014  -0.03204  -0.03218   3.47698
   R65        3.49496  -0.00509   0.00003  -0.02844  -0.02841   3.46655
    A1        1.83245   0.00223   0.00045   0.00494   0.00539   1.83783
    A2        1.93989  -0.00025   0.00013  -0.00232  -0.00219   1.93770
    A3        1.93975  -0.00026   0.00012  -0.00236  -0.00224   1.93751
    A4        1.91672  -0.00069  -0.00032   0.00085   0.00053   1.91724
    A5        1.91698  -0.00071  -0.00032   0.00070   0.00038   1.91736
    A6        1.91650  -0.00025  -0.00006  -0.00150  -0.00156   1.91494
    A7        2.07505  -0.00191  -0.00040  -0.00916  -0.00956   2.06549
    A8        2.17615  -0.00177  -0.00015  -0.00670  -0.00683   2.16932
    A9        2.02596   0.00202   0.00010   0.00653   0.00664   2.03260
   A10        2.08107  -0.00025   0.00005   0.00016   0.00018   2.08125
   A11        2.04171   0.00070   0.00010  -0.00054  -0.00045   2.04125
   A12        2.15348  -0.00112  -0.00025  -0.00258  -0.00283   2.15065
   A13        2.08760   0.00042   0.00016   0.00302   0.00318   2.09077
   A14        2.18111  -0.00050   0.00026  -0.00178  -0.00158   2.17953
   A15        2.15819  -0.00075  -0.00009  -0.00154  -0.00161   2.15657
   A16        1.94374   0.00125  -0.00017   0.00323   0.00309   1.94683
   A17        2.09095   0.00271  -0.00012   0.00529   0.00520   2.09616
   A18        2.12586  -0.00132   0.00046  -0.00167  -0.00123   2.12462
   A19        2.06624  -0.00138  -0.00036  -0.00348  -0.00387   2.06236
   A20        1.88403   0.00419   0.00036   0.00896   0.00921   1.89324
   A21        1.97556  -0.00163  -0.00045  -0.00176  -0.00229   1.97327
   A22        2.41087  -0.00241  -0.00005  -0.00251  -0.00276   2.40811
   A23        1.92993   0.00002   0.00021  -0.00280  -0.00250   1.92743
   A24        1.77683   0.00012  -0.00013   0.00087   0.00069   1.77752
   A25        1.90761  -0.00083  -0.00005  -0.01597  -0.01603   1.89157
   A26        2.04120  -0.00007  -0.00023   0.00365   0.00337   2.04457
   A27        1.87451   0.00076   0.00021   0.00692   0.00706   1.88157
   A28        1.93042  -0.00014  -0.00002   0.00503   0.00499   1.93542
   A29        1.93132   0.00018   0.00028  -0.00170  -0.00143   1.92989
   A30        1.88818   0.00044   0.00029   0.00036   0.00064   1.88882
   A31        1.88760   0.00038   0.00027   0.00472   0.00499   1.89258
   A32        1.91941  -0.00062  -0.00027  -0.00511  -0.00537   1.91403
   A33        1.92806  -0.00004  -0.00029   0.00140   0.00111   1.92918
   A34        1.90849  -0.00032  -0.00028   0.00049   0.00021   1.90869
   A35        1.91006   0.00143   0.00022   0.00497   0.00519   1.91525
   A36        1.96170  -0.00038   0.00001  -0.00292  -0.00291   1.95879
   A37        1.93371   0.00016   0.00013  -0.00044  -0.00031   1.93339
   A38        1.87837  -0.00061  -0.00004  -0.00239  -0.00242   1.87596
   A39        1.87938  -0.00057  -0.00009   0.00033   0.00024   1.87962
   A40        1.89802  -0.00008  -0.00025   0.00050   0.00025   1.89827
   A41        1.90202   0.00249   0.00040   0.00565   0.00602   1.90804
   A42        1.98513  -0.00258  -0.00034  -0.01250  -0.01285   1.97229
   A43        1.92555   0.00050   0.00030   0.00466   0.00497   1.93052
   A44        1.89955  -0.00117  -0.00035  -0.01029  -0.01068   1.88887
   A45        1.88058  -0.00109   0.00001  -0.00224  -0.00225   1.87833
   A46        1.86805   0.00183  -0.00002   0.01495   0.01496   1.88301
   A47        1.91044   0.00151   0.00023   0.00467   0.00490   1.91534
   A48        1.93875   0.00041   0.00008   0.00170   0.00178   1.94053
   A49        1.96428  -0.00002   0.00006  -0.00028  -0.00022   1.96406
   A50        1.88286  -0.00088  -0.00011  -0.00263  -0.00275   1.88011
   A51        1.87701  -0.00088  -0.00015  -0.00362  -0.00377   1.87324
   A52        1.88774  -0.00024  -0.00013  -0.00017  -0.00031   1.88743
   A53        1.83790  -0.00435  -0.00004  -0.00334  -0.00354   1.83436
   A54        2.00058   0.00116  -0.00010   0.00361   0.00353   2.00412
   A55        1.96059   0.00090  -0.00025   0.00399   0.00373   1.96432
   A56        1.87900   0.00158   0.00042  -0.00910  -0.00867   1.87033
   A57        1.86356   0.00112   0.00046  -0.00129  -0.00071   1.86285
   A58        1.91380  -0.00049  -0.00039   0.00465   0.00421   1.91801
   A59        1.83282   0.00143   0.00003   0.00432   0.00422   1.83705
   A60        2.08095   0.00351  -0.00003   0.00918   0.00905   2.09000
   A61        2.00705  -0.00355  -0.00073  -0.00074  -0.00152   2.00553
   A62        2.18738  -0.00003   0.00079  -0.01147  -0.01081   2.17657
   A63        1.98512   0.00605   0.00051   0.01249   0.01297   1.99810
   A64        2.11075  -0.00320   0.00001  -0.00786  -0.00780   2.10296
   A65        2.18715  -0.00285  -0.00052  -0.00467  -0.00522   2.18193
   A66        1.95053   0.00099   0.00030   0.00263   0.00293   1.95346
   A67        1.94490  -0.00105   0.00020  -0.00532  -0.00513   1.93977
   A68        1.82908   0.00021   0.00014  -0.00252  -0.00238   1.82670
   A69        2.02702   0.00055  -0.00031   0.00696   0.00665   2.03367
   A70        1.84622  -0.00074  -0.00029  -0.00239  -0.00267   1.84356
   A71        1.84881  -0.00004  -0.00006  -0.00040  -0.00047   1.84834
   A72        2.05232   0.00135   0.00027   0.00183   0.00209   2.05440
   A73        2.15434  -0.00080  -0.00032  -0.00051  -0.00085   2.15349
   A74        2.07650  -0.00055   0.00005  -0.00128  -0.00121   2.07529
   A75        2.10254  -0.00015  -0.00001  -0.00016  -0.00020   2.10233
   A76        2.07725   0.00060   0.00024   0.00015   0.00031   2.07756
   A77        2.10257  -0.00047  -0.00022  -0.00084  -0.00113   2.10143
   A78        2.10143  -0.00034  -0.00009  -0.00040  -0.00047   2.10095
   A79        2.08467   0.00021   0.00007   0.00016   0.00023   2.08489
   A80        2.09688   0.00013   0.00002   0.00025   0.00026   2.09714
   A81        2.08352   0.00103   0.00015   0.00128   0.00142   2.08494
   A82        2.10080  -0.00052  -0.00010  -0.00045  -0.00054   2.10026
   A83        2.09875  -0.00051  -0.00005  -0.00086  -0.00092   2.09784
   A84        2.09710   0.00007  -0.00007   0.00025   0.00017   2.09727
   A85        2.09787  -0.00000  -0.00003   0.00053   0.00051   2.09837
   A86        2.08818  -0.00007   0.00010  -0.00077  -0.00066   2.08752
   A87        2.10487  -0.00007  -0.00003   0.00021   0.00018   2.10504
   A88        2.09524   0.00083   0.00013   0.00262   0.00275   2.09799
   A89        2.08308  -0.00076  -0.00010  -0.00282  -0.00293   2.08015
   A90        2.03969   0.00088   0.00044  -0.00098  -0.00058   2.03912
   A91        2.15513  -0.00056  -0.00038   0.00044   0.00002   2.15515
   A92        2.08805  -0.00032  -0.00005   0.00017   0.00010   2.08815
   A93        2.09682  -0.00056   0.00004  -0.00194  -0.00189   2.09492
   A94        2.07348   0.00144   0.00028   0.00440   0.00468   2.07816
   A95        2.11287  -0.00088  -0.00033  -0.00248  -0.00281   2.11006
   A96        2.09886  -0.00005  -0.00007   0.00048   0.00042   2.09928
   A97        2.08698   0.00007   0.00007  -0.00030  -0.00023   2.08675
   A98        2.09731  -0.00002   0.00000  -0.00019  -0.00019   2.09712
   A99        2.08679   0.00110   0.00012   0.00173   0.00185   2.08863
   A100       2.09870  -0.00050  -0.00007  -0.00050  -0.00057   2.09813
   A101       2.09767  -0.00060  -0.00005  -0.00124  -0.00130   2.09637
   A102       2.09939  -0.00016  -0.00009  -0.00040  -0.00049   2.09890
   A103       2.09567   0.00007   0.00000   0.00043   0.00043   2.09610
   A104       2.08805   0.00009   0.00009  -0.00000   0.00008   2.08813
   A105       2.09644  -0.00002   0.00005  -0.00004   0.00001   2.09646
   A106       2.08684   0.00076   0.00018   0.00183   0.00201   2.08885
   A107       2.09967  -0.00074  -0.00023  -0.00187  -0.00210   2.09757
   A108       2.09102   0.00000  -0.00002   0.00063   0.00061   2.09163
   A109       2.08910  -0.00066  -0.00002  -0.00332  -0.00334   2.08576
   A110       2.10304   0.00066   0.00003   0.00265   0.00267   2.10571
   A111       1.38796   0.00122   0.00138  -0.00499  -0.00364   1.38432
   A112       1.99658  -0.00363   0.00020  -0.02187  -0.02186   1.97472
   A113       2.00525  -0.00144   0.00002  -0.00410  -0.00421   2.00104
   A114       1.95169  -0.00273   0.00067  -0.01866  -0.01814   1.93355
   A115       1.95404  -0.00402   0.00066  -0.03137  -0.03078   1.92326
   A116       2.05984   0.00753  -0.00184   0.05410   0.05229   2.11213
    D1       -3.13919  -0.00002   0.00002  -0.00093  -0.00091  -3.14010
    D2       -1.06780   0.00033  -0.00003   0.00178   0.00174  -1.06606
    D3        1.07237  -0.00035   0.00007  -0.00344  -0.00337   1.06901
    D4       -0.00539   0.00003  -0.00003   0.00089   0.00086  -0.00453
    D5        3.13285  -0.00003   0.00014  -0.00157  -0.00142   3.13142
    D6        3.10897  -0.00003   0.00031  -0.00140  -0.00109   3.10788
    D7       -0.00192   0.00005   0.00001   0.00273   0.00276   0.00084
    D8       -0.02917   0.00002   0.00014   0.00112   0.00124  -0.02792
    D9       -3.14006   0.00010  -0.00017   0.00525   0.00509  -3.13497
   D10        3.12724  -0.00019   0.00001  -0.00476  -0.00475   3.12249
   D11       -0.02119  -0.00031   0.00037  -0.01210  -0.01170  -0.03289
   D12       -0.01751  -0.00025   0.00017  -0.00709  -0.00693  -0.02445
   D13        3.11724  -0.00036   0.00053  -0.01443  -0.01388   3.10336
   D14       -3.09506   0.00033  -0.00042   0.01453   0.01417  -3.08089
   D15        0.02616   0.00025  -0.00039   0.00860   0.00827   0.03443
   D16        0.01704   0.00022  -0.00013   0.01047   0.01036   0.02740
   D17        3.13826   0.00015  -0.00010   0.00454   0.00446  -3.14047
   D18        3.12333  -0.00059   0.00032  -0.02158  -0.02139   3.10194
   D19       -0.00016  -0.00052   0.00090  -0.03022  -0.02942  -0.02957
   D20       -0.00006  -0.00051   0.00029  -0.01624  -0.01606  -0.01612
   D21       -3.12354  -0.00044   0.00087  -0.02488  -0.02409   3.13555
   D22        0.02631  -0.00026   0.00030  -0.01194  -0.01175   0.01456
   D23       -2.98849   0.00035  -0.00008   0.01345   0.01341  -2.97508
   D24       -3.13321  -0.00034   0.00034  -0.01720  -0.01699   3.13298
   D25        0.13518   0.00027  -0.00004   0.00819   0.00816   0.14334
   D26       -3.13709  -0.00013   0.00024  -0.00911  -0.00892   3.13718
   D27       -0.13452   0.00037  -0.00040   0.01603   0.01564  -0.11888
   D28       -0.01300  -0.00020  -0.00030  -0.00074  -0.00114  -0.01414
   D29        2.98957   0.00030  -0.00094   0.02439   0.02341   3.01299
   D30        2.99429  -0.00003  -0.00069   0.02817   0.02751   3.02180
   D31       -0.12944  -0.00001  -0.00012   0.01956   0.01954  -0.10990
   D32       -2.04261   0.00046   0.00075  -0.01975  -0.01900  -2.06161
   D33        0.13841   0.00047   0.00050  -0.01635  -0.01588   0.12253
   D34        2.18058   0.00003   0.00039  -0.01679  -0.01644   2.16414
   D35        1.29102  -0.00062   0.00167  -0.05507  -0.05341   1.23761
   D36       -2.81115  -0.00062   0.00143  -0.05167  -0.05029  -2.86144
   D37       -0.76898  -0.00106   0.00132  -0.05211  -0.05085  -0.81982
   D38        0.15558  -0.00010   0.00041  -0.00906  -0.00865   0.14692
   D39        2.06401  -0.00245   0.00176  -0.03083  -0.02891   2.03509
   D40       -1.75514   0.00378  -0.00094   0.02754   0.02663  -1.72851
   D41        3.09833   0.00145  -0.00047   0.02828   0.02765   3.12599
   D42       -1.27642  -0.00091   0.00088   0.00651   0.00739  -1.26903
   D43        1.18762   0.00532  -0.00182   0.06488   0.06294   1.25056
   D44        0.97166   0.00042   0.00107   0.04666   0.04773   1.01939
   D45       -1.13210   0.00079   0.00103   0.05374   0.05478  -1.07732
   D46        3.08569   0.00072   0.00106   0.05036   0.05142   3.13711
   D47       -1.05032   0.00029   0.00123   0.04520   0.04646  -1.00386
   D48        3.12911   0.00066   0.00120   0.05228   0.05351  -3.10057
   D49        1.06371   0.00059   0.00123   0.04890   0.05015   1.11386
   D50        3.05179  -0.00011   0.00126   0.02994   0.03117   3.08295
   D51        0.94802   0.00026   0.00122   0.03701   0.03821   0.98624
   D52       -1.11737   0.00019   0.00125   0.03364   0.03486  -1.08251
   D53       -0.20646   0.00046  -0.00056   0.02826   0.02759  -0.17886
   D54       -2.26812   0.00077  -0.00099   0.03970   0.03867  -2.22944
   D55        1.81536  -0.00031  -0.00016   0.02677   0.02652   1.84189
   D56        1.89845   0.00054  -0.00051   0.02738   0.02680   1.92525
   D57       -0.16321   0.00084  -0.00094   0.03881   0.03788  -0.12533
   D58       -2.36291  -0.00024  -0.00012   0.02588   0.02573  -2.33718
   D59       -2.23204   0.00141  -0.00042   0.04402   0.04355  -2.18849
   D60        1.98948   0.00172  -0.00086   0.05546   0.05463   2.04411
   D61       -0.21022   0.00064  -0.00003   0.04253   0.04248  -0.16774
   D62        3.13648  -0.00010   0.00007  -0.00799  -0.00793   3.12856
   D63        1.05051  -0.00005  -0.00004  -0.00647  -0.00651   1.04400
   D64       -1.07694   0.00020   0.00018  -0.00474  -0.00457  -1.08151
   D65       -1.06165   0.00017   0.00043  -0.01188  -0.01144  -1.07309
   D66        3.13557   0.00022   0.00032  -0.01036  -0.01003   3.12554
   D67        1.00811   0.00047   0.00054  -0.00863  -0.00808   1.00003
   D68        1.04659  -0.00066  -0.00026  -0.01370  -0.01396   1.03263
   D69       -1.03938  -0.00062  -0.00037  -0.01218  -0.01254  -1.05192
   D70        3.11635  -0.00037  -0.00015  -0.01045  -0.01060   3.10575
   D71       -3.04161  -0.00071   0.00024  -0.01150  -0.01126  -3.05286
   D72        1.11898   0.00071   0.00063   0.00603   0.00664   1.12562
   D73       -0.98019  -0.00024   0.00068  -0.00807  -0.00737  -0.98757
   D74        1.13041  -0.00084  -0.00012  -0.00657  -0.00669   1.12372
   D75       -0.99220   0.00059   0.00027   0.01096   0.01121  -0.98099
   D76       -3.09137  -0.00037   0.00032  -0.00314  -0.00281  -3.09417
   D77       -0.98957  -0.00019   0.00056  -0.00537  -0.00481  -0.99438
   D78       -3.11218   0.00124   0.00096   0.01216   0.01309  -3.09908
   D79        1.07184   0.00029   0.00101  -0.00194  -0.00092   1.07092
   D80        3.07181   0.00008  -0.00011  -0.00091  -0.00102   3.07079
   D81        0.99442  -0.00004  -0.00017  -0.00168  -0.00185   0.99257
   D82       -1.12522  -0.00001  -0.00010  -0.00248  -0.00259  -1.12780
   D83       -1.09533   0.00052   0.00023   0.00086   0.00109  -1.09424
   D84        3.11047   0.00040   0.00017   0.00009   0.00026   3.11073
   D85        0.99083   0.00043   0.00024  -0.00072  -0.00048   0.99035
   D86        1.01941  -0.00048  -0.00045  -0.00429  -0.00474   1.01467
   D87       -1.05798  -0.00061  -0.00051  -0.00506  -0.00557  -1.06355
   D88        3.10557  -0.00058  -0.00044  -0.00587  -0.00631   3.09926
   D89        0.20331  -0.00027   0.00042  -0.02822  -0.02786   0.17545
   D90        2.34510  -0.00048   0.00049  -0.03064  -0.03020   2.31490
   D91       -1.88412   0.00033   0.00051  -0.03051  -0.03004  -1.91416
   D92        3.08415   0.00017  -0.00040   0.00849   0.00816   3.09231
   D93       -0.07564   0.00018   0.00003   0.00570   0.00580  -0.06984
   D94       -0.19839  -0.00074  -0.00008  -0.01866  -0.01868  -0.21707
   D95        2.92501  -0.00073   0.00035  -0.02146  -0.02105   2.90397
   D96       -0.16120   0.00011  -0.00022   0.00005  -0.00019  -0.16139
   D97       -2.12008   0.00349  -0.00100   0.02473   0.02371  -2.09638
   D98        1.80695  -0.00087   0.00038  -0.00519  -0.00466   1.80228
   D99        3.11607   0.00050  -0.00056   0.02542   0.02468   3.14075
   D100       1.15719   0.00388  -0.00135   0.05011   0.04858   1.20577
   D101      -1.19897  -0.00049   0.00004   0.02019   0.02021  -1.17876
   D102      -1.76329  -0.00050   0.00143  -0.10266  -0.10123  -1.86452
   D103       2.21989  -0.00121   0.00142  -0.10996  -0.10852   2.11136
   D104       0.22809  -0.00079   0.00132  -0.10563  -0.10432   0.12378
   D105       1.39743  -0.00051   0.00098  -0.09970  -0.09872   1.29870
   D106      -0.90258  -0.00122   0.00097  -0.10700  -0.10602  -1.00860
   D107      -2.89437  -0.00080   0.00087  -0.10267  -0.10181  -2.99618
   D108       0.07182  -0.00005  -0.00027   0.00332   0.00308   0.07489
   D109      -3.06288   0.00007  -0.00063   0.01075   0.01013  -3.05275
   D110      -3.09019   0.00005   0.00021   0.00036   0.00064  -3.08954
   D111       0.05830   0.00017  -0.00015   0.00780   0.00769   0.06600
   D112       2.29203  -0.00110   0.00137  -0.15263  -0.15127   2.14076
   D113      -0.84155  -0.00112   0.00185  -0.15817  -0.15633  -0.99788
   D114      -1.73344  -0.00116   0.00166  -0.15139  -0.14972  -1.88316
   D115       1.41616  -0.00118   0.00214  -0.15693  -0.15478   1.26139
   D116       0.31128  -0.00141   0.00122  -0.14959  -0.14838   0.16290
   D117      -2.82231  -0.00143   0.00170  -0.15513  -0.15344  -2.97574
   D118      -1.43613   0.00058  -0.00083   0.02795   0.02712  -1.40901
   D119       1.67840   0.00041   0.00015   0.01174   0.01188   1.69028
   D120       2.58664  -0.00034  -0.00117   0.02291   0.02175   2.60839
   D121      -0.58202  -0.00051  -0.00019   0.00670   0.00652  -0.57550
   D122       0.54336   0.00030  -0.00060   0.02221   0.02161   0.56497
   D123      -2.62530   0.00013   0.00038   0.00599   0.00638  -2.61892
   D124       3.11989  -0.00007   0.00057  -0.00790  -0.00733   3.11257
   D125      -0.06531  -0.00065   0.00107  -0.02996  -0.02890  -0.09421
   D126      -0.02934  -0.00006   0.00010  -0.00261  -0.00250  -0.03184
   D127       3.06865  -0.00063   0.00060  -0.02467  -0.02408   3.04457
   D128      -3.11902   0.00010  -0.00059   0.00893   0.00833  -3.11069
   D129       0.02243   0.00014  -0.00069   0.01133   0.01063   0.03307
   D130       0.03068   0.00008  -0.00010   0.00331   0.00320   0.03389
   D131      -3.11104   0.00012  -0.00020   0.00570   0.00550  -3.10554
   D132       0.01067  -0.00006  -0.00003  -0.00187  -0.00190   0.00877
   D133       3.13024  -0.00001   0.00014  -0.00155  -0.00141   3.12883
   D134      -3.08668   0.00050  -0.00054   0.02049   0.01994  -3.06675
   D135       0.03289   0.00055  -0.00038   0.02081   0.02042   0.05331
   D136       0.00710   0.00017  -0.00004   0.00567   0.00563   0.01273
   D137       3.13237   0.00012   0.00007   0.00326   0.00333   3.13570
   D138      -3.11231   0.00012  -0.00021   0.00536   0.00514  -3.10717
   D139       0.01295   0.00007  -0.00010   0.00294   0.00284   0.01579
   D140      -0.00579  -0.00015   0.00004  -0.00498  -0.00493  -0.01072
   D141       3.12756  -0.00009   0.00009  -0.00332  -0.00323   3.12433
   D142      -3.13108  -0.00010  -0.00007  -0.00257  -0.00264  -3.13372
   D143       0.00228  -0.00004  -0.00003  -0.00091  -0.00094   0.00134
   D144      -0.01330   0.00001   0.00003   0.00046   0.00049  -0.01281
   D145       3.12843  -0.00003   0.00013  -0.00192  -0.00179   3.12664
   D146       3.13649  -0.00005  -0.00001  -0.00119  -0.00121   3.13528
   D147      -0.00497  -0.00009   0.00009  -0.00357  -0.00349  -0.00846
   D148       3.11167  -0.00029   0.00069  -0.01590  -0.01521   3.09646
   D149      -0.03623  -0.00042   0.00077  -0.02036  -0.01961  -0.05584
   D150      -0.00395  -0.00012  -0.00025  -0.00034  -0.00059  -0.00455
   D151       3.13134  -0.00025  -0.00018  -0.00481  -0.00499   3.12635
   D152      -3.10724   0.00025  -0.00078   0.01627   0.01548  -3.09176
   D153       0.05753   0.00029  -0.00103   0.01996   0.01892   0.07645
   D154       0.00657   0.00009   0.00022  -0.00038  -0.00017   0.00641
   D155      -3.11184   0.00013  -0.00003   0.00330   0.00328  -3.10857
   D156      -0.00032   0.00001   0.00013  -0.00103  -0.00091  -0.00122
   D157       3.13283   0.00000   0.00015  -0.00135  -0.00120   3.13162
   D158      -3.13546   0.00014   0.00005   0.00351   0.00355  -3.13192
   D159      -0.00232   0.00013   0.00007   0.00319   0.00325   0.00093
   D160       0.00197   0.00012   0.00003   0.00313   0.00316   0.00513
   D161       3.13483   0.00004   0.00003   0.00114   0.00117   3.13600
   D162      -3.13112   0.00013   0.00001   0.00345   0.00346  -3.12767
   D163       0.00174   0.00005   0.00001   0.00146   0.00146   0.00321
   D164       0.00066  -0.00014  -0.00007  -0.00386  -0.00392  -0.00326
   D165       3.12889  -0.00005   0.00000  -0.00139  -0.00139   3.12750
   D166      -3.13221  -0.00006  -0.00006  -0.00187  -0.00193  -3.13415
   D167      -0.00398   0.00002   0.00001   0.00060   0.00060  -0.00338
   D168      -0.00495   0.00003  -0.00006   0.00250   0.00244  -0.00251
   D169       3.11329   0.00001   0.00019  -0.00116  -0.00097   3.11232
   D170      -3.13324  -0.00005  -0.00013   0.00004  -0.00009  -3.13333
   D171      -0.01500  -0.00007   0.00013  -0.00362  -0.00350  -0.01849
         Item               Value     Threshold  Converged?
 Maximum Force            0.016210     0.000450     NO 
 RMS     Force            0.001750     0.000300     NO 
 Maximum Displacement     1.091252     0.001800     NO 
 RMS     Displacement     0.175912     0.001200     NO 
 Predicted change in Energy=-3.512639D-03
 GradGradGradGradGradGradGradGradGradGradGradGradGradGradGradGradGradGrad

 Stoichiometry    C26H28F2N2NiO2(3)
 Framework group  C1[X(C26H28F2N2NiO2)]
 Deg. of freedom   177
 Full point group                 C1      NOp   1
 Largest Abelian subgroup         C1      NOp   1
 Largest concise Abelian subgroup C1      NOp   1
                         Standard orientation:                         
 ---------------------------------------------------------------------
 Center     Atomic      Atomic             Coordinates (Angstroms)
 Number     Number       Type             X           Y           Z
 ---------------------------------------------------------------------
      1          6           0        0.704944    5.311180    1.372030
      2          8           0        1.519364    4.166637    1.126347
      3          6           0        0.917853    3.021707    0.767371
      4          6           0       -0.472115    2.869377    0.620359
      5          6           0       -0.926985    1.630074    0.203423
      6          6           0       -2.330046    1.301359   -0.075883
      7          7           0       -2.647175    0.123503   -0.503495
      8          6           0       -4.109117    0.072549   -0.691679
      9          6           0       -4.738396   -0.998184    0.239527
     10          6           0       -4.416410   -0.691628    1.708935
     11          6           0       -4.155406   -2.372438   -0.143379
     12          6           0       -6.259433   -1.008031    0.011227
     13          6           0       -4.514733    1.554563   -0.445239
     14          8           0       -3.308345    2.197398    0.088862
     15          7           0       -0.116507    0.576293   -0.024556
     16          6           0        1.205772    0.698938    0.169492
     17          6           0        1.994534   -0.574877   -0.057151
     18          6           0        2.476014   -1.185950    1.251762
     19          6           0        2.091615   -2.501785    1.536134
     20          6           0        2.528367   -3.129124    2.701503
     21          6           0        3.346604   -2.448931    3.605258
     22          6           0        3.712276   -1.128883    3.340518
     23          6           0        3.272957   -0.499777    2.174577
     24          6           0        3.041796   -0.385662   -1.144267
     25          6           0        2.598581   -0.471778   -2.472204
     26          6           0        3.490989   -0.255589   -3.520845
     27          6           0        4.828810    0.048900   -3.256079
     28          6           0        5.270393    0.129856   -1.934780
     29          6           0        4.380570   -0.088115   -0.880875
     30          6           0        1.756137    1.925910    0.523579
     31          1           0        1.400055    6.106249    1.641856
     32          1           0        0.144427    5.595665    0.472915
     33          1           0        0.008637    5.128132    2.199833
     34          1           0       -1.177396    3.673034    0.786120
     35          1           0       -4.313965   -0.221427   -1.726215
     36          1           0       -4.877712   -1.447419    2.354243
     37          1           0       -4.799933    0.288717    2.022629
     38          1           0       -3.335806   -0.719462    1.883743
     39          1           0       -4.654533   -3.154015    0.441579
     40          1           0       -3.076888   -2.445429    0.036943
     41          1           0       -4.335186   -2.586388   -1.206164
     42          1           0       -6.717615   -1.806290    0.605343
     43          1           0       -6.501112   -1.195390   -1.043030
     44          1           0       -6.735448   -0.064918    0.308552
     45          1           0       -5.306542    1.696003    0.289640
     46          1           0       -4.767751    2.079417   -1.370494
     47          1           0        1.267327   -1.281979   -0.462016
     48          1           0        1.400203   -3.004607    0.867806
     49          1           0        2.210293   -4.147064    2.912029
     50          1           0        3.682459   -2.937094    4.516828
     51          1           0        4.336010   -0.581955    4.043822
     52          1           0        3.555697    0.533174    1.991133
     53          1           0        1.554003   -0.718942   -2.667441
     54          1           0        3.141353   -0.333437   -4.547470
     55          1           0        5.525210    0.212218   -4.074964
     56          1           0        6.313050    0.353440   -1.720914
     57          1           0        4.731547   -0.051631    0.146840
     58          1           0        2.829829    2.047912    0.600829
     59         28           0       -1.024364   -1.036825   -0.925139
     60          9           0       -0.907248   -2.531425    0.141548
     61          9           0       -0.574288   -1.106155   -2.702134
 ---------------------------------------------------------------------
 Rotational constants (GHZ):           0.1596657           0.0865696           0.0795222
 Basis read from rwf:  (6D, 7F)
 Pseudo-potential data read from rwf file.
 There are   613 symmetry adapted cartesian basis functions of A   symmetry.
 There are   610 symmetry adapted basis functions of A   symmetry.
   610 basis functions,  1162 primitive gaussians,   613 cartesian basis functions
   126 alpha electrons      124 beta electrons
       nuclear repulsion energy      3824.0870400658 Hartrees.
 NAtoms=   61 NActive=   61 NUniq=   61 SFac= 1.00D+00 NAtFMM=   60 NAOKFM=T Big=T
 Integral buffers will be    131072 words long.
 Raffenetti 2 integral format.
 Two-electron integral symmetry is turned on.
 Nuclear repulsion after empirical dispersion term =     3823.9370736398 Hartrees.
 One-electron integrals computed using PRISM.
 PrsmSu:  requested number of processors reduced to:  12 ShMem   1 Linda.
   1 Symmetry operations used in ECPInt.
 ECPInt:  NShTT=   21115 NPrTT=  128985 LenC2=   17093 LenP2D=   55860.
 LDataN:  DoStor=T MaxTD1= 6 Len=  172
 Number of processors reduced to  12 by ecpmxn.
 NBasis=   610 RedAO= T EigKep=  6.98D-06  NBF=   610
 NBsUse=   609 1.00D-06 EigRej=  9.83D-07 NBFU=   609
 Initial guess from the checkpoint file:  "Lig2126_xyz_2.chk"
 B after Tr=    -0.000000    0.000000    0.000000
         Rot=    0.999406    0.028081   -0.019035   -0.006083 Ang=   3.95 deg.
 Initial guess <Sx>= 0.0000 <Sy>= 0.0000 <Sz>= 1.0000 <S**2>= 2.0082 S= 1.0027
 ExpMin= 2.40D-02 ExpMax= 7.14D+04 ExpMxC= 1.07D+04 IAcc=3 IRadAn=         5 AccDes= 0.00D+00
 Harris functional with IExCor=  402 and IRadAn=       5 diagonalized for initial guess.
 HarFok:  IExCor=  402 AccDes= 0.00D+00 IRadAn=         5 IDoV= 1 UseB2=F ITyADJ=14
 ICtDFT=  3500011 ScaDFX=  1.000000  1.000000  1.000000  1.000000
 FoFCou: FMM=F IPFlag=           0 FMFlag=      100000 FMFlg1=        2001
         NFxFlg=           0 DoJE=T BraDBF=F KetDBF=T FulRan=T
         wScrn=  0.000000 ICntrl=       500 IOpCl=  0 I1Cent=   200000004 NGrid=           0
         NMat0=    1 NMatS0=      1 NMatT0=    0 NMatD0=    1 NMtDS0=    0 NMtDT0=    0
 Petite list used in FoFCou.
 Requested convergence on RMS density matrix=1.00D-08 within 128 cycles.
 Requested convergence on MAX density matrix=1.00D-06.
 Requested convergence on             energy=1.00D-06.
 No special actions if energy rises.
 Restarting incremental Fock formation.
 SCF Done:  E(UB3LYP) =  -1636.87457491     A.U. after   34 cycles
            NFock= 34  Conv=0.70D-08     -V/T= 2.0485
 <Sx>= 0.0000 <Sy>= 0.0000 <Sz>= 1.0000 <S**2>= 2.0075 S= 1.0025
 <L.S>=  0.00000000000    
 Annihilation of the first spin contaminant:
 S**2 before annihilation     2.0075,   after     2.0000
 PrsmSu:  requested number of processors reduced to:  12 ShMem   1 Linda.
   1 Symmetry operations used in ECPInt.
 ECPInt:  NShTT=   21115 NPrTT=  128985 LenC2=   17093 LenP2D=   55860.
 LDataN:  DoStor=T MaxTD1= 7 Len=  274
 Number of processors reduced to  13 by ecpmxn.
 Calling FoFJK, ICntrl=      2127 FMM=T ISym2X=0 I1Cent= 0 IOpClX= 1 NMat=1 NMatS=1 NMatT=0.
 ***** Axes restored to original set *****
 -------------------------------------------------------------------
 Center     Atomic                   Forces (Hartrees/Bohr)
 Number     Number              X              Y              Z
 -------------------------------------------------------------------
      1        6          -0.000056215   -0.000110530   -0.000266028
      2        8           0.000421793   -0.002577775   -0.001312239
      3        6          -0.000875016    0.002851850    0.000409609
      4        6           0.001054825   -0.000341449    0.000393439
      5        6          -0.001591577    0.003756015    0.000705954
      6        6          -0.004167896    0.010501544    0.000705278
      7        7           0.007606181   -0.006583505   -0.004125401
      8        6          -0.004078383   -0.001706735   -0.002929756
      9        6           0.001458976    0.000076060   -0.000432885
     10        6          -0.000654957   -0.000033986    0.000531824
     11        6           0.001064496    0.000700406    0.000518187
     12        6          -0.000224803    0.000077151   -0.000008798
     13        6           0.000430065    0.000412090    0.000718141
     14        8           0.001054754    0.000720585    0.001122910
     15        7          -0.000034232   -0.000716162    0.002369874
     16        6           0.002447126    0.002930041    0.000599163
     17        6          -0.002581314   -0.000322969   -0.000858457
     18        6           0.000199704    0.001019146    0.000331406
     19        6          -0.000024017   -0.000691417    0.001194426
     20        6          -0.001201247   -0.000386547    0.000579878
     21        6           0.000185735    0.000373522    0.000223842
     22        6           0.000266136   -0.000897068   -0.000177771
     23        6          -0.000451415   -0.000583603   -0.001209358
     24        6           0.002237872   -0.000880329   -0.001961294
     25        6          -0.000142092    0.000314597    0.000755318
     26        6          -0.000059520    0.000068711   -0.000189569
     27        6          -0.000190131   -0.000165838    0.000192527
     28        6          -0.000121140    0.000086935   -0.000853078
     29        6          -0.000580704   -0.000353645    0.000309991
     30        6          -0.000513269   -0.001184944   -0.000200860
     31        1           0.000419869   -0.000372945    0.000663330
     32        1          -0.000396747   -0.000444850   -0.000268192
     33        1           0.000317521   -0.000161987   -0.000601578
     34        1          -0.000386007    0.000158678   -0.000435507
     35        1           0.000811042   -0.000646535   -0.000561369
     36        1           0.000108644   -0.000501929   -0.000278228
     37        1          -0.000635618    0.000551070   -0.000267002
     38        1          -0.000011877   -0.000103136    0.000397069
     39        1          -0.000134592    0.000313971   -0.000687724
     40        1          -0.000910366    0.000106229    0.001957206
     41        1          -0.000575896   -0.000314013    0.000506471
     42        1           0.000475604   -0.000108008    0.000162450
     43        1          -0.000471863   -0.000433066    0.000091266
     44        1          -0.000055621    0.000154914   -0.000284593
     45        1          -0.000276343    0.000180087    0.000157593
     46        1          -0.000554721   -0.000294646    0.000828592
     47        1          -0.001674204   -0.000188357   -0.000847137
     48        1           0.000415823    0.000469011    0.000487490
     49        1           0.000204941   -0.000191136   -0.000443108
     50        1           0.000536408    0.000170072   -0.000174643
     51        1           0.000165014    0.000500970    0.000300830
     52        1          -0.001453317    0.000280241    0.000541190
     53        1           0.001160478    0.000401218   -0.001328556
     54        1          -0.000380890   -0.000331485    0.000016143
     55        1          -0.000186829   -0.000251462    0.000353434
     56        1           0.000171602    0.000160524    0.000451080
     57        1           0.001059162    0.001094016   -0.001203830
     58        1           0.000651784   -0.000505206    0.000536034
     59       28          -0.000597516    0.001237144    0.001946715
     60        9          -0.002036014   -0.004040599    0.001580956
     61        9           0.003360796   -0.003240937   -0.000732658
 -------------------------------------------------------------------
 Cartesian Forces:  Max     0.010501544 RMS     0.001567654

 GradGradGradGradGradGradGradGradGradGradGradGradGradGradGradGradGradGrad
 Berny optimization.
 Using GEDIIS/GDIIS optimizer.
 FormGI is forming the generalized inverse of G from B-inverse, IUseBI=4.
 Internal  Forces:  Max     0.008836573 RMS     0.001197786
 Search for a local minimum.
 Step number   4 out of a maximum of  362
 All quantities printed in internal units (Hartrees-Bohrs-Radians)
 Mixed Optimization -- RFO/linear search
 Update second derivatives using D2CorX and points    3    4
 DE= -3.55D-03 DEPred=-3.51D-03 R= 1.01D+00
 TightC=F SS=  1.41D+00  RLast= 5.30D-01 DXNew= 1.4270D+00 1.5914D+00
 Trust test= 1.01D+00 RLast= 5.30D-01 DXMaxT set to 1.43D+00
 ITU=  1  1  1  0
 Use linear search instead of GDIIS.
     Eigenvalues ---    0.00176   0.00230   0.00230   0.00230   0.00243
     Eigenvalues ---    0.00250   0.00515   0.00715   0.01325   0.01343
     Eigenvalues ---    0.01382   0.01404   0.01839   0.01972   0.02018
     Eigenvalues ---    0.02042   0.02063   0.02071   0.02077   0.02084
     Eigenvalues ---    0.02101   0.02118   0.02123   0.02126   0.02140
     Eigenvalues ---    0.02167   0.02168   0.02173   0.02189   0.02190
     Eigenvalues ---    0.02191   0.02192   0.02192   0.02194   0.02194
     Eigenvalues ---    0.02196   0.02377   0.02598   0.02896   0.03560
     Eigenvalues ---    0.03775   0.04009   0.04513   0.04630   0.04793
     Eigenvalues ---    0.04857   0.05068   0.05130   0.05252   0.05297
     Eigenvalues ---    0.05468   0.05551   0.05593   0.05640   0.06067
     Eigenvalues ---    0.06674   0.06776   0.07711   0.10123   0.10266
     Eigenvalues ---    0.10667   0.10720   0.11058   0.11468   0.13379
     Eigenvalues ---    0.13633   0.14267   0.14429   0.15275   0.15967
     Eigenvalues ---    0.15991   0.15995   0.15996   0.15997   0.15998
     Eigenvalues ---    0.15999   0.15999   0.15999   0.16000   0.16000
     Eigenvalues ---    0.16000   0.16000   0.16000   0.16000   0.16000
     Eigenvalues ---    0.16000   0.16000   0.16000   0.16000   0.16000
     Eigenvalues ---    0.16072   0.16334   0.17479   0.19116   0.19801
     Eigenvalues ---    0.19904   0.20218   0.20789   0.21199   0.21998
     Eigenvalues ---    0.21999   0.22012   0.22034   0.23473   0.23506
     Eigenvalues ---    0.23558   0.23574   0.23682   0.24512   0.24730
     Eigenvalues ---    0.24862   0.24941   0.24967   0.24996   0.25256
     Eigenvalues ---    0.26452   0.27043   0.27375   0.27740   0.27885
     Eigenvalues ---    0.27944   0.28282   0.29083   0.29949   0.34499
     Eigenvalues ---    0.34615   0.34657   0.34683   0.34690   0.34691
     Eigenvalues ---    0.34696   0.34705   0.34732   0.34738   0.34808
     Eigenvalues ---    0.34854   0.34877   0.34886   0.34954   0.35240
     Eigenvalues ---    0.35773   0.35831   0.35929   0.35947   0.35953
     Eigenvalues ---    0.35956   0.35959   0.35968   0.35981   0.36068
     Eigenvalues ---    0.36107   0.36206   0.37402   0.37608   0.40415
     Eigenvalues ---    0.41533   0.41872   0.41945   0.42102   0.42181
     Eigenvalues ---    0.42210   0.42258   0.45268   0.45678   0.45737
     Eigenvalues ---    0.46114   0.46261   0.46270   0.46903   0.46942
     Eigenvalues ---    0.46956   0.47072   0.48649   0.49808   0.49988
     Eigenvalues ---    0.52340   0.68957
 RFO step:  Lambda=-6.24410262D-03 EMin= 1.75711476D-03
 Quartic linear search produced a step of  0.19852.
 Iteration  1 RMS(Cart)=  0.18000127 RMS(Int)=  0.00382927
 Iteration  2 RMS(Cart)=  0.00951515 RMS(Int)=  0.00012251
 Iteration  3 RMS(Cart)=  0.00002953 RMS(Int)=  0.00012204
 Iteration  4 RMS(Cart)=  0.00000000 RMS(Int)=  0.00012204
 Variable       Old X    -DE/DX   Delta X   Delta X   Delta X     New X
                                 (Linear)    (Quad)   (Total)
    R1        2.69484   0.00071   0.00050   0.00339   0.00389   2.69873
    R2        2.05982  -0.00013  -0.00025  -0.00187  -0.00212   2.05770
    R3        2.07312  -0.00056  -0.00036  -0.00385  -0.00421   2.06891
    R4        2.07320  -0.00061  -0.00038  -0.00408  -0.00445   2.06875
    R5        2.53642   0.00413  -0.00006   0.00945   0.00939   2.54581
    R6        2.65695   0.00043   0.00026   0.00115   0.00136   2.65831
    R7        2.64759  -0.00073  -0.00005  -0.00277  -0.00284   2.64475
    R8        2.61617   0.00127   0.00027   0.00466   0.00490   2.62107
    R9        2.04472  -0.00054   0.00013  -0.00054  -0.00041   2.04431
   R10        2.77387   0.00034   0.00017  -0.00118  -0.00106   2.77282
   R11        2.54889  -0.00253  -0.00287  -0.02189  -0.02483   2.52406
   R12        2.44263  -0.00884  -0.00280  -0.03200  -0.03459   2.40804
   R13        2.52623   0.00141  -0.00110  -0.00213  -0.00323   2.52300
   R14        2.78713  -0.00027  -0.00110  -0.01144  -0.01240   2.77472
   R15        3.85322  -0.00270   0.00295  -0.00953  -0.00648   3.84674
   R16        2.93340   0.00194   0.00276   0.02265   0.02541   2.95881
   R17        2.94071  -0.00165  -0.00129  -0.01191  -0.01332   2.92739
   R18        2.06893   0.00002  -0.00003  -0.00016  -0.00019   2.06874
   R19        2.90109   0.00088   0.00062   0.00682   0.00744   2.90853
   R20        2.91231   0.00025   0.00026   0.00242   0.00268   2.91499
   R21        2.90660  -0.00019   0.00056   0.00278   0.00333   2.90993
   R22        2.07047  -0.00037  -0.00004  -0.00162  -0.00166   2.06881
   R23        2.07575  -0.00081  -0.00026  -0.00406  -0.00432   2.07144
   R24        2.06926  -0.00034  -0.00053  -0.00403  -0.00456   2.06470
   R25        2.07196  -0.00029  -0.00025  -0.00245  -0.00270   2.06926
   R26        2.07099  -0.00133  -0.00028  -0.00595  -0.00624   2.06475
   R27        2.07664  -0.00065  -0.00019  -0.00356  -0.00376   2.07289
   R28        2.07020  -0.00026  -0.00007  -0.00145  -0.00153   2.06867
   R29        2.07437  -0.00064  -0.00033  -0.00402  -0.00435   2.07003
   R30        2.07393  -0.00025  -0.00068  -0.00476  -0.00544   2.06849
   R31        2.77337  -0.00205   0.00192   0.00527   0.00705   2.78042
   R32        2.05886   0.00011  -0.00034  -0.00160  -0.00194   2.05692
   R33        2.06628  -0.00064  -0.00058  -0.00522  -0.00580   2.06048
   R34        2.53612   0.00317   0.00075   0.01062   0.01141   2.54753
   R35        3.88999  -0.00295   0.00264  -0.01019  -0.00759   3.88241
   R36        2.86349   0.00250   0.00267   0.02363   0.02631   2.88980
   R37        2.62783   0.00170   0.00081   0.00910   0.00993   2.63777
   R38        2.87741   0.00110   0.00082   0.00910   0.00992   2.88733
   R39        2.87486   0.00424   0.00128   0.02417   0.02545   2.90031
   R40        2.06382  -0.00086  -0.00082  -0.00716  -0.00798   2.05584
   R41        2.64565   0.00074   0.00086   0.00659   0.00747   2.65313
   R42        2.64395   0.00131   0.00029   0.00502   0.00532   2.64927
   R43        2.63371   0.00049  -0.00012   0.00073   0.00062   2.63432
   R44        2.05063   0.00077  -0.00016   0.00161   0.00145   2.05208
   R45        2.63815  -0.00065  -0.00021  -0.00294  -0.00317   2.63498
   R46        2.05424  -0.00046  -0.00023  -0.00295  -0.00318   2.05106
   R47        2.63637  -0.00013  -0.00015  -0.00143  -0.00161   2.63477
   R48        2.05456  -0.00055  -0.00037  -0.00387  -0.00424   2.05032
   R49        2.63764  -0.00058  -0.00032  -0.00320  -0.00354   2.63410
   R50        2.05521  -0.00060  -0.00031  -0.00382  -0.00413   2.05109
   R51        2.05327  -0.00129  -0.00036  -0.00618  -0.00654   2.04673
   R52        2.65052   0.00128   0.00106   0.00917   0.01023   2.66075
   R53        2.63901   0.00114   0.00010   0.00369   0.00379   2.64280
   R54        2.63397  -0.00024  -0.00038  -0.00253  -0.00290   2.63106
   R55        2.06175  -0.00073  -0.00018  -0.00357  -0.00375   2.05800
   R56        2.64060  -0.00069  -0.00008  -0.00241  -0.00249   2.63811
   R57        2.05474  -0.00050  -0.00026  -0.00327  -0.00353   2.05120
   R58        2.63709  -0.00112  -0.00037  -0.00507  -0.00544   2.63164
   R59        2.05470  -0.00046  -0.00036  -0.00349  -0.00385   2.05085
   R60        2.63887  -0.00024  -0.00021  -0.00170  -0.00190   2.63696
   R61        2.05526  -0.00051  -0.00027  -0.00330  -0.00357   2.05169
   R62        2.05339  -0.00142  -0.00031  -0.00627  -0.00657   2.04681
   R63        2.04725  -0.00061  -0.00015  -0.00270  -0.00285   2.04440
   R64        3.47698   0.00097  -0.00639  -0.03610  -0.04249   3.43449
   R65        3.46655   0.00059  -0.00564  -0.03300  -0.03864   3.42791
    A1        1.83783   0.00113   0.00107   0.01256   0.01362   1.85145
    A2        1.93770   0.00012  -0.00044  -0.00099  -0.00143   1.93627
    A3        1.93751   0.00014  -0.00044  -0.00091  -0.00136   1.93615
    A4        1.91724  -0.00064   0.00010  -0.00408  -0.00398   1.91326
    A5        1.91736  -0.00065   0.00007  -0.00436  -0.00429   1.91306
    A6        1.91494  -0.00008  -0.00031  -0.00190  -0.00221   1.91273
    A7        2.06549   0.00169  -0.00190  -0.00848  -0.01038   2.05512
    A8        2.16932   0.00077  -0.00136  -0.00582  -0.00715   2.16216
    A9        2.03260  -0.00030   0.00132   0.00726   0.00859   2.04120
   A10        2.08125  -0.00047   0.00004  -0.00143  -0.00144   2.07982
   A11        2.04125   0.00056  -0.00009   0.00108   0.00092   2.04217
   A12        2.15065  -0.00051  -0.00056  -0.00625  -0.00680   2.14384
   A13        2.09077  -0.00003   0.00063   0.00554   0.00618   2.09695
   A14        2.17953  -0.00142  -0.00031  -0.00637  -0.00671   2.17282
   A15        2.15657  -0.00001  -0.00032  -0.00154  -0.00187   2.15470
   A16        1.94683   0.00143   0.00061   0.00793   0.00858   1.95541
   A17        2.09616   0.00218   0.00103   0.01184   0.01297   2.10912
   A18        2.12462  -0.00227  -0.00024  -0.00565  -0.00609   2.11854
   A19        2.06236   0.00010  -0.00077  -0.00609  -0.00684   2.05552
   A20        1.89324   0.00100   0.00183   0.01288   0.01436   1.90759
   A21        1.97327  -0.00206  -0.00045  -0.01316  -0.01397   1.95930
   A22        2.40811   0.00118  -0.00055   0.00640   0.00509   2.41320
   A23        1.92743   0.00282  -0.00050   0.02627   0.02592   1.95335
   A24        1.77752   0.00002   0.00014   0.00116   0.00148   1.77900
   A25        1.89157  -0.00056  -0.00318  -0.01080  -0.01423   1.87735
   A26        2.04457  -0.00261   0.00067  -0.01842  -0.01801   2.02656
   A27        1.88157   0.00054   0.00140   0.00806   0.00939   1.89096
   A28        1.93542  -0.00007   0.00099  -0.00622  -0.00512   1.93030
   A29        1.92989   0.00014  -0.00028   0.00224   0.00194   1.93182
   A30        1.88882   0.00181   0.00013   0.02218   0.02232   1.91113
   A31        1.89258  -0.00119   0.00099  -0.00776  -0.00674   1.88584
   A32        1.91403  -0.00066  -0.00107  -0.00581  -0.00698   1.90705
   A33        1.92918   0.00051   0.00022  -0.00321  -0.00304   1.92614
   A34        1.90869  -0.00058   0.00004  -0.00722  -0.00720   1.90150
   A35        1.91525   0.00052   0.00103   0.00903   0.01005   1.92530
   A36        1.95879   0.00035  -0.00058  -0.00080  -0.00138   1.95741
   A37        1.93339   0.00014  -0.00006   0.00077   0.00070   1.93409
   A38        1.87596  -0.00044  -0.00048  -0.00518  -0.00566   1.87030
   A39        1.87962  -0.00033   0.00005  -0.00190  -0.00187   1.87775
   A40        1.89827  -0.00029   0.00005  -0.00222  -0.00217   1.89611
   A41        1.90804   0.00054   0.00120   0.00829   0.00940   1.91744
   A42        1.97229   0.00054  -0.00255  -0.01132  -0.01391   1.95837
   A43        1.93052   0.00009   0.00099   0.00905   0.01000   1.94052
   A44        1.88887  -0.00111  -0.00212  -0.02334  -0.02555   1.86332
   A45        1.87833  -0.00043  -0.00045  -0.00657  -0.00708   1.87125
   A46        1.88301   0.00029   0.00297   0.02336   0.02634   1.90935
   A47        1.91534   0.00070   0.00097   0.01069   0.01165   1.92699
   A48        1.94053   0.00004   0.00035   0.00226   0.00260   1.94313
   A49        1.96406  -0.00040  -0.00004  -0.00280  -0.00283   1.96123
   A50        1.88011  -0.00028  -0.00055  -0.00423  -0.00481   1.87530
   A51        1.87324  -0.00013  -0.00075  -0.00491  -0.00565   1.86758
   A52        1.88743   0.00006  -0.00006  -0.00151  -0.00157   1.88586
   A53        1.83436  -0.00152  -0.00070  -0.00746  -0.00848   1.82588
   A54        2.00412  -0.00012   0.00070   0.00044   0.00114   2.00526
   A55        1.96432   0.00065   0.00074   0.00706   0.00785   1.97216
   A56        1.87033   0.00122  -0.00172  -0.00454  -0.00627   1.86406
   A57        1.86285   0.00010  -0.00014   0.00233   0.00242   1.86527
   A58        1.91801  -0.00031   0.00084   0.00125   0.00202   1.92003
   A59        1.83705   0.00036   0.00084   0.00503   0.00564   1.84269
   A60        2.09000   0.00061   0.00180   0.01210   0.01383   2.10383
   A61        2.00553  -0.00382  -0.00030  -0.01550  -0.01584   1.98969
   A62        2.17657   0.00326  -0.00215   0.00137  -0.00090   2.17568
   A63        1.99810   0.00381   0.00257   0.03098   0.03327   2.03137
   A64        2.10296  -0.00146  -0.00155  -0.01278  -0.01447   2.08849
   A65        2.18193  -0.00234  -0.00104  -0.01745  -0.01875   2.16318
   A66        1.95346  -0.00004   0.00058   0.00518   0.00561   1.95906
   A67        1.93977  -0.00124  -0.00102  -0.00650  -0.00772   1.93205
   A68        1.82670   0.00033  -0.00047  -0.00743  -0.00793   1.81876
   A69        2.03367   0.00212   0.00132   0.02318   0.02448   2.05815
   A70        1.84356  -0.00194  -0.00053  -0.02789  -0.02842   1.81514
   A71        1.84834   0.00059  -0.00009   0.00883   0.00887   1.85722
   A72        2.05440  -0.00159   0.00041  -0.00398  -0.00366   2.05075
   A73        2.15349   0.00222  -0.00017   0.00739   0.00712   2.16061
   A74        2.07529  -0.00062  -0.00024  -0.00347  -0.00376   2.07153
   A75        2.10233   0.00012  -0.00004   0.00055   0.00046   2.10279
   A76        2.07756  -0.00017   0.00006  -0.00028  -0.00031   2.07725
   A77        2.10143   0.00005  -0.00023  -0.00126  -0.00158   2.09985
   A78        2.10095  -0.00014  -0.00009  -0.00155  -0.00165   2.09930
   A79        2.08489   0.00014   0.00005   0.00135   0.00139   2.08628
   A80        2.09714   0.00000   0.00005   0.00032   0.00036   2.09750
   A81        2.08494   0.00043   0.00028   0.00322   0.00348   2.08842
   A82        2.10026  -0.00019  -0.00011  -0.00132  -0.00142   2.09883
   A83        2.09784  -0.00023  -0.00018  -0.00196  -0.00213   2.09570
   A84        2.09727   0.00010   0.00003   0.00004   0.00005   2.09732
   A85        2.09837  -0.00012   0.00010  -0.00007   0.00005   2.09842
   A86        2.08752   0.00002  -0.00013   0.00004  -0.00008   2.08745
   A87        2.10504   0.00011   0.00004   0.00069   0.00072   2.10577
   A88        2.09799   0.00084   0.00055   0.00890   0.00944   2.10742
   A89        2.08015  -0.00095  -0.00058  -0.00961  -0.01020   2.06996
   A90        2.03912   0.00126  -0.00011   0.00620   0.00607   2.04518
   A91        2.15515   0.00009   0.00000  -0.00118  -0.00120   2.15395
   A92        2.08815  -0.00135   0.00002  -0.00521  -0.00519   2.08296
   A93        2.09492  -0.00006  -0.00038  -0.00208  -0.00245   2.09247
   A94        2.07816   0.00171   0.00093   0.01738   0.01830   2.09646
   A95        2.11006  -0.00165  -0.00056  -0.01526  -0.01582   2.09423
   A96        2.09928   0.00062   0.00008   0.00307   0.00315   2.10243
   A97        2.08675  -0.00036  -0.00005  -0.00180  -0.00185   2.08490
   A98        2.09712  -0.00026  -0.00004  -0.00125  -0.00128   2.09584
   A99        2.08863   0.00010   0.00037   0.00176   0.00211   2.09075
   A100       2.09813   0.00001  -0.00011  -0.00008  -0.00019   2.09794
   A101       2.09637  -0.00011  -0.00026  -0.00170  -0.00195   2.09442
   A102       2.09890  -0.00007  -0.00010  -0.00168  -0.00178   2.09713
   A103       2.09610   0.00002   0.00009   0.00082   0.00091   2.09701
   A104       2.08813   0.00004   0.00002   0.00088   0.00090   2.08903
   A105       2.09646   0.00075   0.00000   0.00410   0.00409   2.10055
   A106       2.08885   0.00094   0.00040   0.00938   0.00975   2.09860
   A107       2.09757  -0.00169  -0.00042  -0.01371  -0.01415   2.08343
   A108       2.09163   0.00081   0.00012   0.00450   0.00459   2.09622
   A109       2.08576  -0.00117  -0.00066  -0.01080  -0.01155   2.07421
   A110       2.10571   0.00036   0.00053   0.00606   0.00651   2.11222
   A111       1.38432   0.00232  -0.00072   0.01079   0.01004   1.39436
   A112       1.97472  -0.00226  -0.00434  -0.03681  -0.04167   1.93305
   A113       2.00104  -0.00252  -0.00084  -0.01783  -0.01897   1.98207
   A114       1.93355  -0.00333  -0.00360  -0.04113  -0.04515   1.88840
   A115       1.92326  -0.00289  -0.00611  -0.05171  -0.05813   1.86513
   A116       2.11213   0.00639   0.01038   0.09396   0.10417   2.21629
    D1       -3.14010   0.00000  -0.00018  -0.00052  -0.00070  -3.14080
    D2       -1.06606  -0.00003   0.00035   0.00150   0.00185  -1.06421
    D3        1.06901   0.00004  -0.00067  -0.00224  -0.00291   1.06610
    D4       -0.00453  -0.00011   0.00017  -0.00361  -0.00342  -0.00794
    D5        3.13142  -0.00001  -0.00028  -0.00177  -0.00208   3.12935
    D6        3.10788   0.00021  -0.00022   0.00996   0.00981   3.11769
    D7        0.00084  -0.00017   0.00055  -0.00275  -0.00217  -0.00134
    D8       -0.02792   0.00011   0.00025   0.00804   0.00841  -0.01951
    D9       -3.13497  -0.00027   0.00101  -0.00466  -0.00357  -3.13854
   D10        3.12249   0.00021  -0.00094   0.00700   0.00611   3.12859
   D11       -0.03289  -0.00011  -0.00232  -0.01265  -0.01494  -0.04783
   D12       -0.02445   0.00031  -0.00138   0.00873   0.00736  -0.01709
   D13        3.10336  -0.00001  -0.00275  -0.01093  -0.01369   3.08967
   D14       -3.08089  -0.00061   0.00281  -0.00892  -0.00619  -3.08708
   D15        0.03443  -0.00037   0.00164  -0.00805  -0.00646   0.02797
   D16        0.02740  -0.00025   0.00206   0.00309   0.00518   0.03258
   D17       -3.14047  -0.00000   0.00088   0.00395   0.00491  -3.13555
   D18        3.10194   0.00005  -0.00425  -0.01804  -0.02234   3.07960
   D19       -0.02957  -0.00041  -0.00584  -0.02960  -0.03539  -0.06496
   D20       -0.01612  -0.00016  -0.00319  -0.01872  -0.02199  -0.03810
   D21        3.13555  -0.00062  -0.00478  -0.03028  -0.03503   3.10052
   D22        0.01456   0.00017  -0.00233  -0.00953  -0.01211   0.00245
   D23       -2.97508  -0.00047   0.00266   0.00424   0.00670  -2.96838
   D24        3.13298   0.00035  -0.00337  -0.00895  -0.01254   3.12044
   D25        0.14334  -0.00029   0.00162   0.00483   0.00627   0.14961
   D26        3.13718  -0.00058  -0.00177  -0.01897  -0.02070   3.11648
   D27       -0.11888   0.00034   0.00311   0.02224   0.02514  -0.09374
   D28       -0.01414  -0.00015  -0.00023  -0.00782  -0.00811  -0.02225
   D29        3.01299   0.00077   0.00465   0.03339   0.03772   3.05071
   D30        3.02180   0.00036   0.00546   0.03430   0.03959   3.06139
   D31       -0.10990  -0.00010   0.00388   0.02285   0.02682  -0.08308
   D32       -2.06161   0.00193  -0.00377  -0.00183  -0.00566  -2.06727
   D33        0.12253   0.00030  -0.00315  -0.00936  -0.01259   0.10994
   D34        2.16414  -0.00000  -0.00326  -0.02019  -0.02332   2.14082
   D35        1.23761   0.00100  -0.01060  -0.05678  -0.06780   1.16981
   D36       -2.86144  -0.00063  -0.00998  -0.06431  -0.07473  -2.93617
   D37       -0.81982  -0.00093  -0.01009  -0.07514  -0.08546  -0.90528
   D38        0.14692  -0.00023  -0.00172  -0.01416  -0.01576   0.13117
   D39        2.03509  -0.00282  -0.00574  -0.05263  -0.05801   1.97708
   D40       -1.72851   0.00184   0.00529   0.03730   0.04267  -1.68583
   D41        3.12599   0.00092   0.00549   0.04416   0.04939  -3.10781
   D42       -1.26903  -0.00167   0.00147   0.00569   0.00713  -1.26190
   D43        1.25056   0.00299   0.01249   0.09561   0.10782   1.35837
   D44        1.01939  -0.00074   0.00947  -0.07968  -0.07027   0.94912
   D45       -1.07732  -0.00115   0.01087  -0.08778  -0.07705  -1.15437
   D46        3.13711  -0.00080   0.01021  -0.08724  -0.07713   3.05998
   D47       -1.00386  -0.00115   0.00922  -0.08871  -0.07941  -1.08326
   D48       -3.10057  -0.00155   0.01062  -0.09681  -0.08619   3.09643
   D49        1.11386  -0.00120   0.00996  -0.09627  -0.08627   1.02759
   D50        3.08295   0.00049   0.00619  -0.07309  -0.06680   3.01615
   D51        0.98624   0.00009   0.00759  -0.08119  -0.07359   0.91265
   D52       -1.08251   0.00044   0.00692  -0.08065  -0.07367  -1.15618
   D53       -0.17886  -0.00011   0.00548   0.02335   0.02865  -0.15022
   D54       -2.22944  -0.00053   0.00768   0.03364   0.04129  -2.18816
   D55        1.84189  -0.00056   0.00527   0.02525   0.03040   1.87229
   D56        1.92525   0.00200   0.00532   0.04696   0.05210   1.97736
   D57       -0.12533   0.00157   0.00752   0.05724   0.06475  -0.06058
   D58       -2.33718   0.00155   0.00511   0.04885   0.05386  -2.28332
   D59       -2.18849   0.00056   0.00865   0.03769   0.04623  -2.14226
   D60        2.04411   0.00013   0.01085   0.04797   0.05887   2.10298
   D61       -0.16774   0.00011   0.00843   0.03958   0.04798  -0.11976
   D62        3.12856  -0.00102  -0.00157  -0.01770  -0.01927   3.10929
   D63        1.04400  -0.00104  -0.00129  -0.01674  -0.01802   1.02598
   D64       -1.08151  -0.00100  -0.00091  -0.01388  -0.01477  -1.09628
   D65       -1.07309   0.00088  -0.00227   0.00742   0.00512  -1.06798
   D66        3.12554   0.00086  -0.00199   0.00838   0.00637   3.13191
   D67        1.00003   0.00090  -0.00160   0.01124   0.00962   1.00964
   D68        1.03263   0.00005  -0.00277  -0.00737  -0.01014   1.02250
   D69       -1.05192   0.00003  -0.00249  -0.00640  -0.00888  -1.06081
   D70        3.10575   0.00006  -0.00210  -0.00355  -0.00564   3.10011
   D71       -3.05286   0.00054  -0.00223   0.01089   0.00866  -3.04420
   D72        1.12562   0.00121   0.00132   0.04218   0.04347   1.16909
   D73       -0.98757   0.00040  -0.00146   0.01339   0.01194  -0.97562
   D74        1.12372  -0.00035  -0.00133  -0.00194  -0.00324   1.12048
   D75       -0.98099   0.00033   0.00223   0.02935   0.03157  -0.94942
   D76       -3.09417  -0.00048  -0.00056   0.00055   0.00004  -3.09413
   D77       -0.99438  -0.00019  -0.00095   0.01024   0.00927  -0.98511
   D78       -3.09908   0.00049   0.00260   0.04153   0.04408  -3.05500
   D79        1.07092  -0.00032  -0.00018   0.01274   0.01255   1.08346
   D80        3.07079   0.00055  -0.00020   0.01601   0.01582   3.08661
   D81        0.99257   0.00042  -0.00037   0.01297   0.01259   1.00516
   D82       -1.12780   0.00060  -0.00051   0.01526   0.01475  -1.11306
   D83       -1.09424   0.00027   0.00022   0.01181   0.01205  -1.08218
   D84        3.11073   0.00014   0.00005   0.00877   0.00883   3.11956
   D85        0.99035   0.00032  -0.00009   0.01107   0.01098   1.00134
   D86        1.01467  -0.00060  -0.00094  -0.00209  -0.00303   1.01164
   D87       -1.06355  -0.00073  -0.00111  -0.00513  -0.00626  -1.06981
   D88        3.09926  -0.00056  -0.00125  -0.00283  -0.00410   3.09516
   D89        0.17545   0.00008  -0.00553  -0.02698  -0.03254   0.14291
   D90        2.31490  -0.00026  -0.00599  -0.03285  -0.03889   2.27601
   D91       -1.91416   0.00004  -0.00596  -0.03249  -0.03847  -1.95263
   D92        3.09231  -0.00028   0.00162  -0.01074  -0.00941   3.08290
   D93       -0.06984   0.00039   0.00115   0.02777   0.02900  -0.04084
   D94       -0.21707  -0.00026  -0.00371  -0.02735  -0.03149  -0.24856
   D95        2.90397   0.00041  -0.00418   0.01116   0.00692   2.91088
   D96       -0.16139   0.00045  -0.00004   0.00464   0.00460  -0.15679
   D97       -2.09638   0.00190   0.00471   0.03812   0.04273  -2.05365
   D98        1.80228  -0.00135  -0.00093  -0.00824  -0.00897   1.79331
   D99        3.14075   0.00008   0.00490   0.01824   0.02293  -3.11950
   D100       1.20577   0.00153   0.00964   0.05172   0.06106   1.26683
   D101      -1.17876  -0.00172   0.00401   0.00536   0.00936  -1.16940
   D102      -1.86452   0.00273  -0.02010   0.17181   0.15178  -1.71274
   D103       2.11136   0.00091  -0.02154   0.14067   0.11931   2.23067
   D104       0.12378   0.00062  -0.02071   0.13735   0.11671   0.24049
   D105       1.29870   0.00200  -0.01960   0.13119   0.11145   1.41015
   D106      -1.00860   0.00018  -0.02105   0.10005   0.07897  -0.92962
   D107      -2.99618  -0.00011  -0.02021   0.09673   0.07638  -2.91981
   D108       0.07489  -0.00063   0.00061  -0.02772  -0.02694   0.04796
   D109      -3.05275  -0.00029   0.00201  -0.00770  -0.00528  -3.05803
   D110      -3.08954   0.00020   0.00013   0.01568   0.01519  -3.07436
   D111       0.06600   0.00054   0.00153   0.03570   0.03684   0.10284
   D112       2.14076  -0.00127  -0.03003  -0.13398  -0.16409   1.97667
   D113      -0.99788  -0.00076  -0.03103  -0.10936  -0.14044  -1.13831
   D114      -1.88316  -0.00114  -0.02972  -0.11678  -0.14634  -2.02949
   D115       1.26139  -0.00063  -0.03073  -0.09216  -0.12268   1.13871
   D116       0.16290  -0.00056  -0.02946  -0.11211  -0.14171   0.02118
   D117      -2.97574  -0.00005  -0.03046  -0.08749  -0.11806  -3.09380
   D118      -1.40901   0.00052   0.00538   0.06524   0.07066  -1.33835
   D119       1.69028   0.00061   0.00236   0.05993   0.06231   1.75260
   D120       2.60839  -0.00017   0.00432   0.04275   0.04712   2.65551
   D121      -0.57550  -0.00008   0.00129   0.03744   0.03877  -0.53673
   D122       0.56497   0.00063   0.00429   0.05823   0.06246   0.62743
   D123      -2.61892   0.00072   0.00127   0.05293   0.05411  -2.56481
   D124       3.11257   0.00027  -0.00145   0.00899   0.00746   3.12003
   D125      -0.09421   0.00026  -0.00574  -0.00841  -0.01422  -0.10842
   D126      -0.03184  -0.00021  -0.00050  -0.01447  -0.01493  -0.04677
   D127       3.04457  -0.00022  -0.00478  -0.03187  -0.03661   3.00796
   D128      -3.11069  -0.00034   0.00165  -0.01129  -0.00970  -3.12039
   D129       0.03307  -0.00019   0.00211  -0.00387  -0.00177   0.03129
   D130       0.03389   0.00018   0.00064   0.01361   0.01422   0.04811
   D131      -3.10554   0.00032   0.00109   0.02103   0.02215  -3.08339
   D132       0.00877   0.00006  -0.00038   0.00228   0.00191   0.01068
   D133       3.12883   0.00020  -0.00028   0.00808   0.00782   3.13664
   D134      -3.06675   0.00008   0.00396   0.01989   0.02382  -3.04292
   D135       0.05331   0.00022   0.00405   0.02569   0.02973   0.08303
   D136       0.01273   0.00015   0.00112   0.01105   0.01218   0.02491
   D137       3.13570   0.00012   0.00066   0.00724   0.00790  -3.13959
   D138      -3.10717   0.00000   0.00102   0.00520   0.00622  -3.10095
   D139       0.01579  -0.00003   0.00056   0.00139   0.00195   0.01774
   D140      -0.01072  -0.00018  -0.00098  -0.01192  -0.01291  -0.02363
   D141       3.12433  -0.00013  -0.00064  -0.00918  -0.00984   3.11449
   D142      -3.13372  -0.00015  -0.00052  -0.00812  -0.00865   3.14082
   D143       0.00134  -0.00011  -0.00019  -0.00539  -0.00558  -0.00424
   D144      -0.01281   0.00001   0.00010  -0.00054  -0.00048  -0.01329
   D145       3.12664  -0.00013  -0.00036  -0.00786  -0.00821   3.11843
   D146       3.13528  -0.00004  -0.00024  -0.00326  -0.00353   3.13175
   D147      -0.00846  -0.00018  -0.00069  -0.01058  -0.01126  -0.01972
   D148       3.09646   0.00003  -0.00302  -0.00995  -0.01296   3.08350
   D149      -0.05584   0.00020  -0.00389  -0.00564  -0.00950  -0.06533
   D150      -0.00455  -0.00009  -0.00012  -0.00495  -0.00505  -0.00960
   D151       3.12635   0.00008  -0.00099  -0.00064  -0.00159   3.12476
   D152      -3.09176  -0.00011   0.00307   0.00748   0.01053  -3.08123
   D153       0.07645   0.00008   0.00376   0.01774   0.02154   0.09799
   D154       0.00641   0.00005  -0.00003   0.00230   0.00227   0.00868
   D155      -3.10857   0.00024   0.00065   0.01256   0.01328  -3.09529
   D156      -0.00122   0.00005  -0.00018   0.00157   0.00139   0.00017
   D157       3.13162   0.00010  -0.00024   0.00345   0.00321   3.13483
   D158      -3.13192  -0.00015   0.00070  -0.00303  -0.00228  -3.13420
   D159       0.00093  -0.00009   0.00064  -0.00114  -0.00046   0.00047
   D160       0.00513   0.00005   0.00063   0.00451   0.00515   0.01028
   D161       3.13600   0.00004   0.00023   0.00259   0.00283   3.13883
   D162      -3.12767  -0.00001   0.00069   0.00261   0.00332  -3.12435
   D163       0.00321  -0.00001   0.00029   0.00069   0.00100   0.00420
   D164      -0.00326  -0.00009  -0.00078  -0.00718  -0.00795  -0.01121
   D165       3.12750  -0.00006  -0.00028  -0.00404  -0.00430   3.12320
   D166      -3.13415  -0.00009  -0.00038  -0.00527  -0.00565  -3.13979
   D167      -0.00338  -0.00006   0.00012  -0.00213  -0.00200  -0.00538
   D168      -0.00251   0.00004   0.00048   0.00377   0.00423   0.00172
   D169       3.11232  -0.00011  -0.00019  -0.00618  -0.00632   3.10601
   D170      -3.13333   0.00001  -0.00002   0.00065   0.00060  -3.13273
   D171      -0.01849  -0.00014  -0.00069  -0.00931  -0.00995  -0.02844
         Item               Value     Threshold  Converged?
 Maximum Force            0.008837     0.000450     NO 
 RMS     Force            0.001198     0.000300     NO 
 Maximum Displacement     0.823418     0.001800     NO 
 RMS     Displacement     0.181971     0.001200     NO 
 Predicted change in Energy=-4.489959D-03
 GradGradGradGradGradGradGradGradGradGradGradGradGradGradGradGradGradGrad

 Stoichiometry    C26H28F2N2NiO2(3)
 Framework group  C1[X(C26H28F2N2NiO2)]
 Deg. of freedom   177
 Full point group                 C1      NOp   1
 Largest Abelian subgroup         C1      NOp   1
 Largest concise Abelian subgroup C1      NOp   1
                         Standard orientation:                         
 ---------------------------------------------------------------------
 Center     Atomic      Atomic             Coordinates (Angstroms)
 Number     Number       Type             X           Y           Z
 ---------------------------------------------------------------------
      1          6           0        0.778503    5.084091    1.963388
      2          8           0        1.596765    3.972461    1.597036
      3          6           0        0.986147    2.885103    1.087422
      4          6           0       -0.404768    2.779861    0.905395
      5          6           0       -0.879036    1.604922    0.341134
      6          6           0       -2.286992    1.347471    0.018046
      7          7           0       -2.637500    0.268092   -0.561500
      8          6           0       -4.096067    0.259487   -0.730241
      9          6           0       -4.765766   -0.932055    0.033471
     10          6           0       -4.358653   -0.923940    1.517758
     11          6           0       -4.327995   -2.265277   -0.607089
     12          6           0       -6.292791   -0.788903   -0.104007
     13          6           0       -4.482394    1.680594   -0.249675
     14          8           0       -3.242500    2.229075    0.321865
     15          7           0       -0.091479    0.581230    0.000785
     16          6           0        1.240322    0.645955    0.199473
     17          6           0        2.041510   -0.608664   -0.150574
     18          6           0        2.341403   -1.465165    1.078643
     19          6           0        1.732923   -2.728255    1.152778
     20          6           0        1.983473   -3.571476    2.234215
     21          6           0        2.832802   -3.163346    3.262002
     22          6           0        3.408219   -1.894111    3.218463
     23          6           0        3.158241   -1.048335    2.139042
     24          6           0        3.206751   -0.264147   -1.088163
     25          6           0        2.896251   -0.032828   -2.441886
     26          6           0        3.899096    0.351711   -3.327847
     27          6           0        5.213154    0.509984   -2.883893
     28          6           0        5.525897    0.269857   -1.548272
     29          6           0        4.527309   -0.114767   -0.652682
     30          6           0        1.805239    1.811392    0.720065
     31          1           0        1.457035    5.844929    2.346005
     32          1           0        0.238961    5.475798    1.095003
     33          1           0        0.063755    4.803318    2.743610
     34          1           0       -1.092119    3.573601    1.165819
     35          1           0       -4.304335    0.144388   -1.798796
     36          1           0       -4.855879   -1.739512    2.052663
     37          1           0       -4.639733    0.009859    2.018331
     38          1           0       -3.280869   -1.067202    1.625530
     39          1           0       -4.868876   -3.096436   -0.142695
     40          1           0       -3.263061   -2.462647   -0.462933
     41          1           0       -4.560382   -2.285227   -1.678930
     42          1           0       -6.799768   -1.635365    0.370156
     43          1           0       -6.598221   -0.770419   -1.155813
     44          1           0       -6.670822    0.119826    0.374996
     45          1           0       -5.232096    1.709544    0.538925
     46          1           0       -4.774032    2.341772   -1.066177
     47          1           0        1.348883   -1.214511   -0.730875
     48          1           0        1.002346   -3.006059    0.398927
     49          1           0        1.501224   -4.542830    2.278250
     50          1           0        3.028968   -3.820721    4.102573
     51          1           0        4.050648   -1.557363    4.025897
     52          1           0        3.600695   -0.059751    2.141668
     53          1           0        1.875012   -0.160727   -2.797883
     54          1           0        3.653066    0.522053   -4.371233
     55          1           0        5.992067    0.807377   -3.578622
     56          1           0        6.549034    0.374577   -1.200444
     57          1           0        4.790309   -0.330499    0.375645
     58          1           0        2.877659    1.916139    0.816748
     59         28           0       -1.039526   -0.873299   -1.097598
     60          9           0       -1.003214   -2.419471   -0.143046
     61          9           0       -0.531304   -0.644313   -2.823798
 ---------------------------------------------------------------------
 Rotational constants (GHZ):           0.1615130           0.0866068           0.0783588
 Basis read from rwf:  (6D, 7F)
 Pseudo-potential data read from rwf file.
 There are   613 symmetry adapted cartesian basis functions of A   symmetry.
 There are   610 symmetry adapted basis functions of A   symmetry.
   610 basis functions,  1162 primitive gaussians,   613 cartesian basis functions
   126 alpha electrons      124 beta electrons
       nuclear repulsion energy      3821.6728805448 Hartrees.
 NAtoms=   61 NActive=   61 NUniq=   61 SFac= 1.00D+00 NAtFMM=   60 NAOKFM=T Big=T
 Integral buffers will be    131072 words long.
 Raffenetti 2 integral format.
 Two-electron integral symmetry is turned on.
 Nuclear repulsion after empirical dispersion term =     3821.5235825267 Hartrees.
 One-electron integrals computed using PRISM.
 PrsmSu:  requested number of processors reduced to:  12 ShMem   1 Linda.
   1 Symmetry operations used in ECPInt.
 ECPInt:  NShTT=   21115 NPrTT=  128985 LenC2=   17084 LenP2D=   55724.
 LDataN:  DoStor=T MaxTD1= 6 Len=  172
 Number of processors reduced to  12 by ecpmxn.
 NBasis=   610 RedAO= T EigKep=  6.98D-06  NBF=   610
 NBsUse=   609 1.00D-06 EigRej=  9.89D-07 NBFU=   609
 Initial guess from the checkpoint file:  "Lig2126_xyz_2.chk"
 B after Tr=     0.000000    0.000000    0.000000
         Rot=    0.996985   -0.073539    0.019193    0.015657 Ang=  -8.90 deg.
 Initial guess <Sx>= 0.0000 <Sy>= 0.0000 <Sz>= 1.0000 <S**2>= 2.0075 S= 1.0025
 ExpMin= 2.40D-02 ExpMax= 7.14D+04 ExpMxC= 1.07D+04 IAcc=3 IRadAn=         5 AccDes= 0.00D+00
 Harris functional with IExCor=  402 and IRadAn=       5 diagonalized for initial guess.
 HarFok:  IExCor=  402 AccDes= 0.00D+00 IRadAn=         5 IDoV= 1 UseB2=F ITyADJ=14
 ICtDFT=  3500011 ScaDFX=  1.000000  1.000000  1.000000  1.000000
 FoFCou: FMM=F IPFlag=           0 FMFlag=      100000 FMFlg1=        2001
         NFxFlg=           0 DoJE=T BraDBF=F KetDBF=T FulRan=T
         wScrn=  0.000000 ICntrl=       500 IOpCl=  0 I1Cent=   200000004 NGrid=           0
         NMat0=    1 NMatS0=      1 NMatT0=    0 NMatD0=    1 NMtDS0=    0 NMtDT0=    0
 Petite list used in FoFCou.
 Requested convergence on RMS density matrix=1.00D-08 within 128 cycles.
 Requested convergence on MAX density matrix=1.00D-06.
 Requested convergence on             energy=1.00D-06.
 No special actions if energy rises.
 Restarting incremental Fock formation.
 SCF Done:  E(UB3LYP) =  -1636.87557776     A.U. after   35 cycles
            NFock= 35  Conv=0.46D-08     -V/T= 2.0484
 <Sx>= 0.0000 <Sy>= 0.0000 <Sz>= 1.0000 <S**2>= 2.0072 S= 1.0024
 <L.S>=  0.00000000000    
 Annihilation of the first spin contaminant:
 S**2 before annihilation     2.0072,   after     2.0000
 PrsmSu:  requested number of processors reduced to:  12 ShMem   1 Linda.
   1 Symmetry operations used in ECPInt.
 ECPInt:  NShTT=   21115 NPrTT=  128985 LenC2=   17084 LenP2D=   55724.
 LDataN:  DoStor=T MaxTD1= 7 Len=  274
 Number of processors reduced to  13 by ecpmxn.
 Calling FoFJK, ICntrl=      2127 FMM=T ISym2X=0 I1Cent= 0 IOpClX= 1 NMat=1 NMatS=1 NMatT=0.
 ***** Axes restored to original set *****
 -------------------------------------------------------------------
 Center     Atomic                   Forces (Hartrees/Bohr)
 Number     Number              X              Y              Z
 -------------------------------------------------------------------
      1        6          -0.000712647    0.000864476   -0.000843002
      2        8           0.000477799   -0.000814259   -0.000012952
      3        6           0.001059632    0.000273394    0.003433342
      4        6           0.000038803   -0.000926245   -0.000437776
      5        6           0.003034716   -0.005932788    0.001214396
      6        6           0.000260902   -0.007207543   -0.001468249
      7        7          -0.003135147    0.014720208    0.000168362
      8        6          -0.005322893    0.002663266    0.001813278
      9        6           0.000906305    0.000437747   -0.000280019
     10        6           0.001680436    0.000426134   -0.000186738
     11        6           0.000254013   -0.001234360   -0.000478897
     12        6          -0.000212071   -0.000055019   -0.000623521
     13        6          -0.001285571   -0.004182164   -0.003087261
     14        8           0.004380175   -0.003928607    0.003898531
     15        7          -0.007530532    0.010851589   -0.008916679
     16        6          -0.000774741   -0.004598350    0.000300226
     17        6           0.003157469   -0.000823271    0.000261256
     18        6          -0.000243712   -0.001444072    0.000345152
     19        6           0.002143919   -0.001627122   -0.000174893
     20        6           0.000534422   -0.000832913   -0.000757058
     21        6          -0.000306974    0.000061296    0.000417654
     22        6           0.000081132    0.000321846    0.000093047
     23        6           0.000789925    0.001262962    0.000901550
     24        6           0.000707147   -0.002112373    0.003831341
     25        6          -0.002788032   -0.002313079    0.000038577
     26        6           0.000030210    0.000109035    0.000040047
     27        6           0.000281505    0.000392788   -0.000775361
     28        6           0.000567273    0.000300286    0.000078793
     29        6           0.000051078    0.001676681    0.001725368
     30        6          -0.000613876    0.002746274   -0.000264401
     31        1          -0.000364272   -0.000056534   -0.001003600
     32        1           0.000925166    0.000090832    0.000003018
     33        1          -0.000513765   -0.000602790    0.000610457
     34        1          -0.000182958    0.001053937    0.000151960
     35        1          -0.000107413    0.000337773    0.001481487
     36        1           0.000321148    0.000762695    0.000412031
     37        1           0.000489295   -0.000938746    0.000013291
     38        1          -0.000257248    0.000260660   -0.001396204
     39        1          -0.000034972   -0.000697801    0.001586320
     40        1           0.001009949   -0.000176432   -0.002666700
     41        1           0.000324514   -0.000162437   -0.001146156
     42        1          -0.000751517    0.000214083   -0.000613261
     43        1           0.000866169    0.000728327   -0.000201537
     44        1           0.000551958   -0.000962147    0.000623346
     45        1          -0.000264146   -0.000051794    0.000530971
     46        1           0.001145017   -0.000161976    0.000703295
     47        1           0.002472667    0.003448776   -0.000456325
     48        1          -0.000540435    0.000413334   -0.000761472
     49        1          -0.000194034    0.000515997    0.000401654
     50        1          -0.001177853   -0.000165626    0.000036275
     51        1          -0.000447698   -0.000674688   -0.000390056
     52        1           0.001999651   -0.001145085   -0.000579809
     53        1          -0.001400196   -0.001054378    0.001490019
     54        1           0.000662814    0.000473728   -0.000063719
     55        1           0.000622402    0.000302332   -0.000732291
     56        1          -0.000330508   -0.000289701   -0.000543341
     57        1          -0.000102024   -0.000102767    0.000302336
     58        1          -0.001720556    0.000338834   -0.000954866
     59       28           0.002138261   -0.002855313    0.000650629
     60        9          -0.009159374    0.000538665    0.006760554
     61        9           0.006509296    0.001542425   -0.004502417
 -------------------------------------------------------------------
 Cartesian Forces:  Max     0.014720208 RMS     0.002443270

 GradGradGradGradGradGradGradGradGradGradGradGradGradGradGradGradGradGrad
 Berny optimization.
 Using GEDIIS/GDIIS optimizer.
 FormGI is forming the generalized inverse of G from B-inverse, IUseBI=4.
 Internal  Forces:  Max     0.010277586 RMS     0.001878451
 Search for a local minimum.
 Step number   5 out of a maximum of  362
 All quantities printed in internal units (Hartrees-Bohrs-Radians)
 Mixed Optimization -- RFO/linear search
 Update second derivatives using D2CorX and points    4    5
 DE= -1.00D-03 DEPred=-4.49D-03 R= 2.23D-01
 Trust test= 2.23D-01 RLast= 6.33D-01 DXMaxT set to 1.43D+00
 ITU=  0  1  1  1  0
 Use linear search instead of GDIIS.
     Eigenvalues ---    0.00226   0.00230   0.00230   0.00240   0.00243
     Eigenvalues ---    0.00274   0.00640   0.00819   0.01307   0.01356
     Eigenvalues ---    0.01382   0.01467   0.01753   0.01973   0.02012
     Eigenvalues ---    0.02040   0.02068   0.02071   0.02078   0.02084
     Eigenvalues ---    0.02101   0.02117   0.02123   0.02133   0.02141
     Eigenvalues ---    0.02167   0.02168   0.02175   0.02188   0.02190
     Eigenvalues ---    0.02191   0.02191   0.02192   0.02192   0.02194
     Eigenvalues ---    0.02195   0.02324   0.02494   0.02893   0.03562
     Eigenvalues ---    0.03696   0.04018   0.04496   0.04707   0.04850
     Eigenvalues ---    0.04974   0.04989   0.05177   0.05254   0.05298
     Eigenvalues ---    0.05433   0.05478   0.05529   0.05576   0.06018
     Eigenvalues ---    0.06660   0.06910   0.07333   0.10132   0.10174
     Eigenvalues ---    0.10649   0.10657   0.11261   0.11467   0.13711
     Eigenvalues ---    0.13874   0.14212   0.14446   0.15066   0.15948
     Eigenvalues ---    0.15991   0.15994   0.15996   0.15997   0.15999
     Eigenvalues ---    0.15999   0.15999   0.16000   0.16000   0.16000
     Eigenvalues ---    0.16000   0.16000   0.16000   0.16000   0.16000
     Eigenvalues ---    0.16000   0.16000   0.16000   0.16000   0.16038
     Eigenvalues ---    0.16088   0.16477   0.17188   0.19220   0.19802
     Eigenvalues ---    0.20333   0.20408   0.21038   0.21823   0.21996
     Eigenvalues ---    0.22001   0.22028   0.22117   0.23463   0.23494
     Eigenvalues ---    0.23565   0.23580   0.23745   0.24549   0.24733
     Eigenvalues ---    0.24903   0.24963   0.24983   0.25152   0.26330
     Eigenvalues ---    0.26410   0.27055   0.27686   0.27859   0.27900
     Eigenvalues ---    0.27975   0.28282   0.29419   0.31366   0.34498
     Eigenvalues ---    0.34620   0.34658   0.34683   0.34688   0.34691
     Eigenvalues ---    0.34696   0.34705   0.34731   0.34757   0.34812
     Eigenvalues ---    0.34851   0.34884   0.34934   0.34976   0.35407
     Eigenvalues ---    0.35778   0.35841   0.35929   0.35948   0.35953
     Eigenvalues ---    0.35956   0.35958   0.35968   0.35993   0.36085
     Eigenvalues ---    0.36193   0.36261   0.37419   0.37848   0.40397
     Eigenvalues ---    0.41678   0.41926   0.42047   0.42122   0.42179
     Eigenvalues ---    0.42212   0.42982   0.45408   0.45669   0.45749
     Eigenvalues ---    0.46105   0.46267   0.46305   0.46904   0.46940
     Eigenvalues ---    0.46970   0.47123   0.48795   0.49796   0.50120
     Eigenvalues ---    0.53624   0.71514
 RFO step:  Lambda=-2.96980596D-03 EMin= 2.26453580D-03
 Quartic linear search produced a step of -0.41228.
 Iteration  1 RMS(Cart)=  0.17072701 RMS(Int)=  0.00269438
 Iteration  2 RMS(Cart)=  0.00741933 RMS(Int)=  0.00005702
 Iteration  3 RMS(Cart)=  0.00001058 RMS(Int)=  0.00005697
 Iteration  4 RMS(Cart)=  0.00000000 RMS(Int)=  0.00005697
 Variable       Old X    -DE/DX   Delta X   Delta X   Delta X     New X
                                 (Linear)    (Quad)   (Total)
    R1        2.69873  -0.00115  -0.00160   0.00116  -0.00045   2.69828
    R2        2.05770   0.00065   0.00087  -0.00006   0.00081   2.05851
    R3        2.06891   0.00087   0.00174  -0.00117   0.00057   2.06948
    R4        2.06875   0.00094   0.00184  -0.00125   0.00058   2.06933
    R5        2.54581   0.00101  -0.00387   0.00955   0.00568   2.55149
    R6        2.65831  -0.00068  -0.00056   0.00002  -0.00052   2.65779
    R7        2.64475   0.00077   0.00117  -0.00190  -0.00072   2.64403
    R8        2.62107   0.00026  -0.00202   0.00420   0.00218   2.62325
    R9        2.04431  -0.00071   0.00017  -0.00216  -0.00199   2.04232
   R10        2.77282   0.00066   0.00044   0.00064   0.00108   2.77389
   R11        2.52406   0.00807   0.01024  -0.00463   0.00562   2.52968
   R12        2.40804   0.00962   0.01426  -0.01391   0.00029   2.40832
   R13        2.52300   0.00493   0.00133   0.00577   0.00711   2.53011
   R14        2.77472  -0.00207   0.00511  -0.00787  -0.00280   2.77192
   R15        3.84674  -0.00204   0.00267  -0.00942  -0.00678   3.83996
   R16        2.95881  -0.00726  -0.01047  -0.00173  -0.01220   2.94661
   R17        2.92739   0.00470   0.00549  -0.00070   0.00481   2.93220
   R18        2.06874   0.00019   0.00008   0.00036   0.00044   2.06918
   R19        2.90853  -0.00188  -0.00307   0.00077  -0.00230   2.90623
   R20        2.91499  -0.00202  -0.00110  -0.00261  -0.00371   2.91127
   R21        2.90993  -0.00059  -0.00137  -0.00078  -0.00215   2.90778
   R22        2.06881   0.00019   0.00069  -0.00098  -0.00029   2.06852
   R23        2.07144   0.00103   0.00178  -0.00137   0.00041   2.07185
   R24        2.06470   0.00138   0.00188  -0.00008   0.00180   2.06650
   R25        2.06926   0.00092   0.00111   0.00004   0.00116   2.07042
   R26        2.06475   0.00191   0.00257  -0.00194   0.00063   2.06539
   R27        2.07289   0.00010   0.00155  -0.00238  -0.00083   2.07205
   R28        2.06867   0.00019   0.00063  -0.00069  -0.00007   2.06860
   R29        2.07003   0.00111   0.00179  -0.00099   0.00080   2.07083
   R30        2.06849   0.00124   0.00224  -0.00032   0.00192   2.07041
   R31        2.78042  -0.00105  -0.00291  -0.00041  -0.00328   2.77714
   R32        2.05692   0.00054   0.00080   0.00036   0.00115   2.05808
   R33        2.06048   0.00113   0.00239  -0.00170   0.00069   2.06117
   R34        2.54753  -0.00538  -0.00470   0.00239  -0.00233   2.54520
   R35        3.88241   0.00125   0.00313  -0.00219   0.00097   3.88338
   R36        2.88980  -0.00797  -0.01085  -0.00036  -0.01121   2.87859
   R37        2.63777  -0.00347  -0.00410   0.00145  -0.00265   2.63512
   R38        2.88733  -0.00204  -0.00409   0.00182  -0.00227   2.88506
   R39        2.90031  -0.00609  -0.01049   0.00830  -0.00220   2.89811
   R40        2.05584   0.00281   0.00329  -0.00019   0.00310   2.05894
   R41        2.65313  -0.00237  -0.00308   0.00107  -0.00200   2.65113
   R42        2.64927  -0.00105  -0.00219   0.00274   0.00056   2.64983
   R43        2.63432   0.00067  -0.00025   0.00191   0.00166   2.63598
   R44        2.05208  -0.00038  -0.00060   0.00176   0.00116   2.05324
   R45        2.63498   0.00065   0.00131  -0.00132  -0.00003   2.63496
   R46        2.05106   0.00066   0.00131  -0.00089   0.00042   2.05148
   R47        2.63477   0.00064   0.00066   0.00007   0.00073   2.63549
   R48        2.05032   0.00119   0.00175  -0.00065   0.00110   2.05142
   R49        2.63410   0.00089   0.00146  -0.00105   0.00041   2.63451
   R50        2.05109   0.00089   0.00170  -0.00116   0.00054   2.05162
   R51        2.04673   0.00212   0.00270  -0.00161   0.00108   2.04781
   R52        2.66075  -0.00453  -0.00422   0.00038  -0.00383   2.65691
   R53        2.64280  -0.00179  -0.00156   0.00084  -0.00072   2.64208
   R54        2.63106   0.00096   0.00120  -0.00035   0.00085   2.63191
   R55        2.05800   0.00039   0.00155  -0.00200  -0.00045   2.05755
   R56        2.63811   0.00058   0.00103  -0.00111  -0.00009   2.63802
   R57        2.05120   0.00082   0.00146  -0.00087   0.00059   2.05179
   R58        2.63164   0.00122   0.00224  -0.00215   0.00009   2.63173
   R59        2.05085   0.00098   0.00159  -0.00061   0.00097   2.05182
   R60        2.63696   0.00188   0.00079   0.00142   0.00220   2.63916
   R61        2.05169   0.00069   0.00147  -0.00108   0.00039   2.05208
   R62        2.04681   0.00014   0.00271  -0.00501  -0.00230   2.04451
   R63        2.04440   0.00127   0.00117  -0.00024   0.00093   2.04533
   R64        3.43449   0.01028   0.01752   0.01421   0.03173   3.46622
   R65        3.42791   0.00737   0.01593   0.00601   0.02193   3.44984
    A1        1.85145  -0.00160  -0.00561   0.00225  -0.00336   1.84809
    A2        1.93627   0.00045   0.00059   0.00182   0.00241   1.93868
    A3        1.93615   0.00051   0.00056   0.00214   0.00270   1.93885
    A4        1.91326   0.00016   0.00164  -0.00375  -0.00210   1.91116
    A5        1.91306   0.00014   0.00177  -0.00403  -0.00225   1.91081
    A6        1.91273   0.00029   0.00091   0.00138   0.00229   1.91501
    A7        2.05512   0.00472   0.00428   0.01040   0.01468   2.06979
    A8        2.16216   0.00368   0.00295   0.00786   0.01080   2.17296
    A9        2.04120  -0.00337  -0.00354  -0.00458  -0.00813   2.03307
   A10        2.07982  -0.00031   0.00059  -0.00328  -0.00267   2.07714
   A11        2.04217  -0.00091  -0.00038   0.00020  -0.00016   2.04201
   A12        2.14384   0.00126   0.00280  -0.00062   0.00219   2.14603
   A13        2.09695  -0.00036  -0.00255   0.00054  -0.00201   2.09494
   A14        2.17282  -0.00013   0.00277  -0.00907  -0.00627   2.16655
   A15        2.15470   0.00088   0.00077   0.00288   0.00367   2.15836
   A16        1.95541  -0.00074  -0.00354   0.00618   0.00260   1.95801
   A17        2.10912  -0.00215  -0.00535   0.00522  -0.00019   2.10894
   A18        2.11854   0.00125   0.00251  -0.00750  -0.00490   2.11363
   A19        2.05552   0.00090   0.00282   0.00228   0.00509   2.06061
   A20        1.90759  -0.00249  -0.00592   0.00150  -0.00437   1.90323
   A21        1.95930   0.00165   0.00576  -0.00546   0.00035   1.95965
   A22        2.41320   0.00085  -0.00210   0.00740   0.00552   2.41872
   A23        1.95335  -0.00350  -0.01069   0.01243   0.00169   1.95503
   A24        1.77900   0.00165  -0.00061   0.00481   0.00413   1.78313
   A25        1.87735   0.00084   0.00587   0.00407   0.01006   1.88741
   A26        2.02656   0.00145   0.00742  -0.01472  -0.00722   2.01934
   A27        1.89096  -0.00033  -0.00387  -0.00049  -0.00439   1.88656
   A28        1.93030  -0.00008   0.00211  -0.00450  -0.00249   1.92781
   A29        1.93182  -0.00028  -0.00080  -0.00169  -0.00248   1.92935
   A30        1.91113  -0.00194  -0.00920   0.00875  -0.00045   1.91068
   A31        1.88584   0.00109   0.00278  -0.00546  -0.00269   1.88315
   A32        1.90705   0.00052   0.00288  -0.00283   0.00008   1.90714
   A33        1.92614  -0.00020   0.00125   0.00197   0.00324   1.92938
   A34        1.90150   0.00080   0.00297  -0.00064   0.00233   1.90383
   A35        1.92530  -0.00119  -0.00414   0.00117  -0.00297   1.92233
   A36        1.95741   0.00021   0.00057   0.00207   0.00263   1.96005
   A37        1.93409  -0.00042  -0.00029  -0.00104  -0.00133   1.93276
   A38        1.87030   0.00058   0.00233  -0.00150   0.00084   1.87113
   A39        1.87775   0.00072   0.00077   0.00009   0.00087   1.87861
   A40        1.89611   0.00018   0.00089  -0.00089   0.00000   1.89611
   A41        1.91744  -0.00141  -0.00388   0.00058  -0.00326   1.91418
   A42        1.95837  -0.00082   0.00574  -0.00541   0.00035   1.95872
   A43        1.94052   0.00010  -0.00412   0.00383  -0.00028   1.94024
   A44        1.86332   0.00180   0.01053  -0.00734   0.00323   1.86655
   A45        1.87125   0.00091   0.00292  -0.00089   0.00205   1.87330
   A46        1.90935  -0.00044  -0.01086   0.00898  -0.00187   1.90747
   A47        1.92699  -0.00144  -0.00480   0.00181  -0.00298   1.92400
   A48        1.94313  -0.00025  -0.00107  -0.00004  -0.00111   1.94203
   A49        1.96123   0.00078   0.00117   0.00007   0.00124   1.96247
   A50        1.87530   0.00067   0.00198  -0.00095   0.00104   1.87634
   A51        1.86758   0.00040   0.00233  -0.00064   0.00169   1.86927
   A52        1.88586  -0.00010   0.00065  -0.00037   0.00028   1.88615
   A53        1.82588   0.00200   0.00350  -0.00265   0.00089   1.82677
   A54        2.00526  -0.00016  -0.00047  -0.00261  -0.00310   2.00216
   A55        1.97216  -0.00059  -0.00323   0.00529   0.00207   1.97424
   A56        1.86406  -0.00114   0.00259   0.00018   0.00283   1.86688
   A57        1.86527  -0.00003  -0.00100   0.00260   0.00150   1.86677
   A58        1.92003  -0.00001  -0.00083  -0.00264  -0.00346   1.91657
   A59        1.84269  -0.00185  -0.00232  -0.00029  -0.00261   1.84008
   A60        2.10383  -0.00393  -0.00570  -0.00241  -0.00809   2.09574
   A61        1.98969   0.00036   0.00653  -0.01270  -0.00617   1.98353
   A62        2.17568   0.00346   0.00037   0.01241   0.01279   2.18847
   A63        2.03137  -0.00154  -0.01372   0.01861   0.00500   2.03637
   A64        2.08849   0.00391   0.00596  -0.00048   0.00555   2.09404
   A65        2.16318  -0.00236   0.00773  -0.01837  -0.01053   2.15265
   A66        1.95906  -0.00511  -0.00231  -0.01510  -0.01727   1.94179
   A67        1.93205  -0.00011   0.00318  -0.01336  -0.01006   1.92199
   A68        1.81876   0.00205   0.00327   0.00570   0.00902   1.82779
   A69        2.05815   0.00379  -0.01009   0.02668   0.01646   2.07461
   A70        1.81514   0.00321   0.01172   0.00157   0.01331   1.82845
   A71        1.85722  -0.00364  -0.00366  -0.00591  -0.00972   1.84749
   A72        2.05075   0.00326   0.00151   0.00041   0.00180   2.05254
   A73        2.16061  -0.00427  -0.00294   0.00022  -0.00283   2.15778
   A74        2.07153   0.00100   0.00155  -0.00153  -0.00003   2.07150
   A75        2.10279  -0.00056  -0.00019  -0.00088  -0.00104   2.10175
   A76        2.07725   0.00062   0.00013   0.00091   0.00103   2.07827
   A77        2.09985  -0.00003   0.00065   0.00024   0.00088   2.10073
   A78        2.09930   0.00066   0.00068   0.00076   0.00145   2.10075
   A79        2.08628  -0.00053  -0.00057  -0.00058  -0.00115   2.08513
   A80        2.09750  -0.00013  -0.00015  -0.00010  -0.00025   2.09725
   A81        2.08842  -0.00082  -0.00143   0.00033  -0.00111   2.08731
   A82        2.09883   0.00045   0.00059   0.00024   0.00083   2.09966
   A83        2.09570   0.00037   0.00088  -0.00059   0.00029   2.09599
   A84        2.09732  -0.00045  -0.00002  -0.00054  -0.00055   2.09676
   A85        2.09842   0.00016  -0.00002  -0.00016  -0.00018   2.09824
   A86        2.08745   0.00029   0.00003   0.00070   0.00073   2.08817
   A87        2.10577   0.00017  -0.00030   0.00106   0.00079   2.10656
   A88        2.10742  -0.00109  -0.00389   0.00343  -0.00048   2.10694
   A89        2.06996   0.00092   0.00420  -0.00460  -0.00043   2.06953
   A90        2.04518  -0.00619  -0.00250  -0.00789  -0.01044   2.03474
   A91        2.15395   0.00553   0.00050   0.01318   0.01363   2.16758
   A92        2.08296   0.00068   0.00214  -0.00468  -0.00256   2.08040
   A93        2.09247   0.00153   0.00101   0.00192   0.00294   2.09541
   A94        2.09646  -0.00309  -0.00754   0.00469  -0.00286   2.09360
   A95        2.09423   0.00156   0.00652  -0.00656  -0.00005   2.09418
   A96        2.10243  -0.00069  -0.00130   0.00164   0.00035   2.10278
   A97        2.08490   0.00041   0.00076  -0.00100  -0.00024   2.08466
   A98        2.09584   0.00028   0.00053  -0.00063  -0.00010   2.09574
   A99        2.09075  -0.00123  -0.00087  -0.00190  -0.00277   2.08798
   A100       2.09794   0.00038   0.00008   0.00077   0.00085   2.09879
   A101       2.09442   0.00085   0.00080   0.00112   0.00193   2.09635
   A102       2.09713   0.00021   0.00073   0.00027   0.00100   2.09813
   A103       2.09701  -0.00001  -0.00037   0.00023  -0.00015   2.09686
   A104       2.08903  -0.00021  -0.00037  -0.00049  -0.00086   2.08817
   A105       2.10055  -0.00051  -0.00169   0.00266   0.00099   2.10154
   A106       2.09860  -0.00005  -0.00402   0.00762   0.00360   2.10220
   A107       2.08343   0.00056   0.00583  -0.01055  -0.00472   2.07871
   A108       2.09622   0.00034  -0.00189   0.00379   0.00190   2.09813
   A109       2.07421   0.00094   0.00476  -0.00493  -0.00015   2.07406
   A110       2.11222  -0.00126  -0.00268   0.00113  -0.00153   2.11068
   A111       1.39436   0.00095  -0.00414   0.00871   0.00458   1.39894
   A112       1.93305  -0.00378   0.01718  -0.04189  -0.02451   1.90854
   A113       1.98207  -0.00124   0.00782  -0.01893  -0.01104   1.97103
   A114       1.88840   0.00123   0.01862  -0.02449  -0.00574   1.88266
   A115       1.86513  -0.00273   0.02397  -0.04577  -0.02169   1.84344
   A116       2.21629   0.00442  -0.04295   0.08455   0.04176   2.25806
    D1       -3.14080   0.00002   0.00029   0.00060   0.00089  -3.13991
    D2       -1.06421  -0.00050  -0.00076  -0.00157  -0.00234  -1.06655
    D3        1.06610   0.00053   0.00120   0.00293   0.00414   1.07023
    D4       -0.00794   0.00007   0.00141  -0.00124   0.00016  -0.00778
    D5        3.12935   0.00006   0.00086  -0.00096  -0.00010   3.12925
    D6        3.11769  -0.00004  -0.00404   0.00679   0.00273   3.12042
    D7       -0.00134   0.00016   0.00090   0.00076   0.00163   0.00029
    D8       -0.01951  -0.00002  -0.00347   0.00651   0.00300  -0.01651
    D9       -3.13854   0.00018   0.00147   0.00048   0.00190  -3.13664
   D10        3.12859  -0.00024  -0.00252   0.00211  -0.00042   3.12817
   D11       -0.04783   0.00037   0.00616   0.00162   0.00775  -0.04008
   D12       -0.01709  -0.00024  -0.00303   0.00241  -0.00063  -0.01772
   D13        3.08967   0.00037   0.00564   0.00191   0.00755   3.09722
   D14       -3.08708   0.00019   0.00255  -0.00344  -0.00088  -3.08797
   D15        0.02797   0.00020   0.00266  -0.00364  -0.00098   0.02699
   D16        0.03258   0.00001  -0.00214   0.00241   0.00024   0.03282
   D17       -3.13555   0.00002  -0.00203   0.00221   0.00014  -3.13541
   D18        3.07960  -0.00078   0.00921  -0.02492  -0.01565   3.06395
   D19       -0.06496  -0.00002   0.01459  -0.02627  -0.01166  -0.07662
   D20       -0.03810  -0.00082   0.00906  -0.02474  -0.01560  -0.05370
   D21        3.10052  -0.00006   0.01444  -0.02608  -0.01161   3.08891
   D22        0.00245  -0.00011   0.00499  -0.00873  -0.00359  -0.00115
   D23       -2.96838   0.00017  -0.00276   0.00635   0.00364  -2.96474
   D24        3.12044  -0.00009   0.00517  -0.00911  -0.00380   3.11664
   D25        0.14961   0.00019  -0.00259   0.00597   0.00343   0.15304
   D26        3.11648   0.00080   0.00853  -0.00972  -0.00114   3.11534
   D27       -0.09374   0.00094  -0.01036   0.02882   0.01850  -0.07524
   D28       -0.02225   0.00007   0.00334  -0.00840  -0.00500  -0.02725
   D29        3.05071   0.00021  -0.01555   0.03014   0.01465   3.06536
   D30        3.06139  -0.00002  -0.01632   0.02892   0.01264   3.07403
   D31       -0.08308   0.00071  -0.01106   0.02762   0.01651  -0.06656
   D32       -2.06727  -0.00181   0.00233  -0.00550  -0.00314  -2.07041
   D33        0.10994  -0.00089   0.00519  -0.01349  -0.00829   0.10164
   D34        2.14082   0.00010   0.00961  -0.01473  -0.00516   2.13567
   D35        1.16981  -0.00198   0.02795  -0.05819  -0.03008   1.13973
   D36       -2.93617  -0.00106   0.03081  -0.06618  -0.03524  -2.97141
   D37       -0.90528  -0.00006   0.03523  -0.06742  -0.03210  -0.93738
   D38        0.13117  -0.00043   0.00650  -0.01810  -0.01165   0.11951
   D39        1.97708   0.00151   0.02392  -0.03809  -0.01430   1.96278
   D40       -1.68583   0.00208  -0.01759   0.02702   0.00933  -1.67650
   D41       -3.10781  -0.00041  -0.02036   0.03592   0.01571  -3.09210
   D42       -1.26190   0.00153  -0.00294   0.01592   0.01306  -1.24884
   D43        1.35837   0.00210  -0.04445   0.08104   0.03670   1.39507
   D44        0.94912   0.00083   0.02897  -0.01999   0.00899   0.95812
   D45       -1.15437   0.00161   0.03177  -0.02107   0.01075  -1.14362
   D46        3.05998   0.00111   0.03180  -0.02207   0.00977   3.06975
   D47       -1.08326   0.00027   0.03274  -0.02539   0.00733  -1.07593
   D48        3.09643   0.00106   0.03553  -0.02647   0.00909   3.10551
   D49        1.02759   0.00056   0.03557  -0.02747   0.00811   1.03570
   D50        3.01615  -0.00043   0.02754  -0.00790   0.01958   3.03573
   D51        0.91265   0.00035   0.03034  -0.00898   0.02134   0.93399
   D52       -1.15618  -0.00015   0.03037  -0.00998   0.02036  -1.13582
   D53       -0.15022   0.00071  -0.01181   0.02806   0.01637  -0.13385
   D54       -2.18816   0.00089  -0.01702   0.03094   0.01397  -2.17419
   D55        1.87229   0.00158  -0.01253   0.03220   0.01973   1.89202
   D56        1.97736  -0.00167  -0.02148   0.03878   0.01737   1.99473
   D57       -0.06058  -0.00149  -0.02669   0.04166   0.01497  -0.04561
   D58       -2.28332  -0.00080  -0.02220   0.04292   0.02074  -2.26258
   D59       -2.14226  -0.00104  -0.01906   0.02278   0.00379  -2.13848
   D60        2.10298  -0.00086  -0.02427   0.02566   0.00139   2.10437
   D61       -0.11976  -0.00017  -0.01978   0.02692   0.00715  -0.11260
   D62        3.10929   0.00113   0.00794  -0.01120  -0.00326   3.10602
   D63        1.02598   0.00106   0.00743  -0.01145  -0.00403   1.02195
   D64       -1.09628   0.00099   0.00609  -0.01100  -0.00492  -1.10120
   D65       -1.06798  -0.00112  -0.00211  -0.00323  -0.00533  -1.07331
   D66        3.13191  -0.00118  -0.00263  -0.00348  -0.00610   3.12581
   D67        1.00964  -0.00126  -0.00396  -0.00303  -0.00699   1.00265
   D68        1.02250   0.00007   0.00418  -0.00458  -0.00040   1.02209
   D69       -1.06081   0.00001   0.00366  -0.00483  -0.00117  -1.06198
   D70        3.10011  -0.00006   0.00232  -0.00438  -0.00206   3.09805
   D71       -3.04420  -0.00052  -0.00357   0.01374   0.01017  -3.03403
   D72        1.16909  -0.00132  -0.01792   0.02598   0.00807   1.17716
   D73       -0.97562  -0.00022  -0.00492   0.01539   0.01046  -0.96516
   D74        1.12048   0.00071   0.00133   0.01213   0.01345   1.13393
   D75       -0.94942  -0.00009  -0.01302   0.02437   0.01135  -0.93806
   D76       -3.09413   0.00101  -0.00002   0.01378   0.01374  -3.08039
   D77       -0.98511   0.00015  -0.00382   0.01183   0.00801  -0.97709
   D78       -3.05500  -0.00065  -0.01817   0.02407   0.00592  -3.04909
   D79        1.08346   0.00045  -0.00517   0.01348   0.00831   1.09177
   D80        3.08661  -0.00064  -0.00652   0.00484  -0.00169   3.08492
   D81        1.00516  -0.00037  -0.00519   0.00486  -0.00033   1.00484
   D82       -1.11306  -0.00061  -0.00608   0.00531  -0.00077  -1.11382
   D83       -1.08218  -0.00041  -0.00497   0.00051  -0.00447  -1.08665
   D84        3.11956  -0.00014  -0.00364   0.00054  -0.00311   3.11645
   D85        1.00134  -0.00038  -0.00453   0.00099  -0.00355   0.99779
   D86        1.01164   0.00061   0.00125  -0.00216  -0.00091   1.01073
   D87       -1.06981   0.00088   0.00258  -0.00214   0.00045  -1.06935
   D88        3.09516   0.00064   0.00169  -0.00169   0.00001   3.09517
   D89        0.14291  -0.00118   0.01341  -0.03353  -0.02005   0.12287
   D90        2.27601  -0.00089   0.01603  -0.03785  -0.02176   2.25425
   D91       -1.95263  -0.00149   0.01586  -0.03951  -0.02360  -1.97623
   D92        3.08290   0.00056   0.00388   0.00350   0.00751   3.09041
   D93       -0.04084  -0.00028  -0.01196   0.01790   0.00589  -0.03495
   D94       -0.24856  -0.00018   0.01298  -0.01605  -0.00292  -0.25148
   D95        2.91088  -0.00103  -0.00285  -0.00165  -0.00453   2.90635
   D96       -0.15679   0.00008  -0.00190   0.00612   0.00423  -0.15257
   D97       -2.05365   0.00389  -0.01762   0.04595   0.02831  -2.02533
   D98        1.79331  -0.00079   0.00370  -0.00823  -0.00457   1.78875
   D99       -3.11950   0.00123  -0.00945   0.02374   0.01442  -3.10508
   D100       1.26683   0.00504  -0.02517   0.06358   0.03850   1.30533
   D101      -1.16940   0.00036  -0.00386   0.00940   0.00562  -1.16377
   D102      -1.71274  -0.00326  -0.06257  -0.06100  -0.12352  -1.83626
   D103       2.23067  -0.00383  -0.04919  -0.07248  -0.12185   2.10882
   D104       0.24049  -0.00064  -0.04812  -0.06269  -0.11082   0.12967
   D105       1.41015  -0.00230  -0.04595  -0.07586  -0.12165   1.28850
   D106      -0.92962  -0.00287  -0.03256  -0.08734  -0.11999  -1.04961
   D107      -2.91981   0.00032  -0.03149  -0.07754  -0.10895  -3.02876
   D108       0.04796   0.00054   0.01111  -0.01467  -0.00365   0.04430
   D109      -3.05803  -0.00013   0.00218  -0.01404  -0.01203  -3.07006
   D110      -3.07436  -0.00039  -0.00626   0.00046  -0.00556  -3.07992
   D111       0.10284  -0.00107  -0.01519   0.00110  -0.01394   0.08890
   D112       1.97667   0.00158   0.06765  -0.02431   0.04338   2.02005
   D113      -1.13831   0.00191   0.05790   0.01582   0.07373  -1.06458
   D114      -2.02949  -0.00017   0.06033  -0.03378   0.02638  -2.00311
   D115       1.13871   0.00015   0.05058   0.00635   0.05674   1.19545
   D116       0.02118  -0.00032   0.05843  -0.02523   0.03336   0.05454
   D117      -3.09380   0.00001   0.04867   0.01490   0.06371  -3.03009
   D118      -1.33835  -0.00117  -0.02913   0.08319   0.05396  -1.28439
   D119       1.75260  -0.00084  -0.02569   0.09709   0.07134   1.82394
   D120       2.65551   0.00289  -0.01943   0.09371   0.07426   2.72977
   D121      -0.53673   0.00322  -0.01598   0.10762   0.09165  -0.44508
   D122       0.62743  -0.00076  -0.02575   0.08034   0.05466   0.68209
   D123      -2.56481  -0.00043  -0.02231   0.09425   0.07205  -2.49277
   D124       3.12003   0.00033  -0.00308   0.02127   0.01826   3.13829
   D125      -0.10842   0.00070   0.00586   0.02467   0.03060  -0.07783
   D126      -0.04677  -0.00007   0.00615  -0.01673  -0.01059  -0.05736
   D127       3.00796   0.00030   0.01509  -0.01332   0.00174   3.00970
   D128      -3.12039  -0.00027   0.00400  -0.02608  -0.02202   3.14078
   D129       0.03129   0.00000   0.00073  -0.01320  -0.01243   0.01886
   D130       0.04811   0.00002  -0.00586   0.01447   0.00862   0.05673
   D131      -3.08339   0.00030  -0.00913   0.02735   0.01821  -3.06519
   D132       0.01068   0.00010  -0.00079   0.00646   0.00568   0.01636
   D133       3.13664   0.00013  -0.00322   0.01265   0.00943  -3.13712
   D134      -3.04292  -0.00031  -0.00982   0.00298  -0.00682  -3.04974
   D135       0.08303  -0.00027  -0.01226   0.00917  -0.00307   0.07996
   D136       0.02491  -0.00011  -0.00502   0.00648   0.00145   0.02636
   D137      -3.13959  -0.00002  -0.00326   0.00498   0.00172  -3.13787
   D138      -3.10095  -0.00014  -0.00257   0.00025  -0.00231  -3.10326
   D139       0.01774  -0.00005  -0.00080  -0.00125  -0.00205   0.01569
   D140      -0.02363   0.00006   0.00532  -0.00878  -0.00346  -0.02709
   D141       3.11449  -0.00001   0.00406  -0.00911  -0.00505   3.10945
   D142       3.14082  -0.00003   0.00356  -0.00729  -0.00373   3.13709
   D143      -0.00424  -0.00010   0.00230  -0.00762  -0.00531  -0.00955
   D144      -0.01329   0.00002   0.00020  -0.00183  -0.00161  -0.01490
   D145       3.11843  -0.00026   0.00339  -0.01439  -0.01099   3.10744
   D146       3.13175   0.00009   0.00145  -0.00150  -0.00004   3.13172
   D147      -0.01972  -0.00019   0.00464  -0.01407  -0.00942  -0.02913
   D148       3.08350   0.00043   0.00534   0.00686   0.01208   3.09557
   D149      -0.06533   0.00043   0.00391   0.01447   0.01826  -0.04707
   D150      -0.00960  -0.00004   0.00208  -0.00701  -0.00491  -0.01451
   D151       3.12476  -0.00004   0.00065   0.00061   0.00128   3.12604
   D152      -3.08123  -0.00011  -0.00434  -0.00846  -0.01290  -3.09413
   D153       0.09799  -0.00014  -0.00888   0.00011  -0.00886   0.08913
   D154       0.00868   0.00005  -0.00094   0.00566   0.00471   0.01339
   D155      -3.09529   0.00002  -0.00547   0.01423   0.00875  -3.08654
   D156       0.00017   0.00002  -0.00057   0.00283   0.00224   0.00240
   D157       3.13483   0.00000  -0.00132   0.00472   0.00340   3.13824
   D158      -3.13420   0.00004   0.00094  -0.00482  -0.00394  -3.13814
   D159       0.00047   0.00002   0.00019  -0.00293  -0.00278  -0.00231
   D160       0.01028  -0.00003  -0.00212   0.00279   0.00068   0.01095
   D161       3.13883   0.00002  -0.00117   0.00259   0.00144   3.14026
   D162      -3.12435  -0.00001  -0.00137   0.00089  -0.00049  -3.12484
   D163       0.00420   0.00004  -0.00041   0.00069   0.00027   0.00447
   D164      -0.01121   0.00005   0.00328  -0.00417  -0.00088  -0.01209
   D165       3.12320   0.00003   0.00177  -0.00376  -0.00199   3.12121
   D166      -3.13979  -0.00001   0.00233  -0.00397  -0.00163  -3.14142
   D167      -0.00538  -0.00003   0.00082  -0.00355  -0.00274  -0.00812
   D168       0.00172  -0.00005  -0.00174  -0.00009  -0.00184  -0.00012
   D169       3.10601  -0.00003   0.00260  -0.00820  -0.00565   3.10036
   D170      -3.13273  -0.00003  -0.00025  -0.00050  -0.00074  -3.13347
   D171      -0.02844  -0.00001   0.00410  -0.00861  -0.00455  -0.03299
         Item               Value     Threshold  Converged?
 Maximum Force            0.010278     0.000450     NO 
 RMS     Force            0.001878     0.000300     NO 
 Maximum Displacement     0.717556     0.001800     NO 
 RMS     Displacement     0.172784     0.001200     NO 
 Predicted change in Energy=-2.603149D-03
 GradGradGradGradGradGradGradGradGradGradGradGradGradGradGradGradGradGrad

 Stoichiometry    C26H28F2N2NiO2(3)
 Framework group  C1[X(C26H28F2N2NiO2)]
 Deg. of freedom   177
 Full point group                 C1      NOp   1
 Largest Abelian subgroup         C1      NOp   1
 Largest concise Abelian subgroup C1      NOp   1
                         Standard orientation:                         
 ---------------------------------------------------------------------
 Center     Atomic      Atomic             Coordinates (Angstroms)
 Number     Number       Type             X           Y           Z
 ---------------------------------------------------------------------
      1          6           0        0.821101    5.181141    1.648582
      2          8           0        1.609904    4.030560    1.344007
      3          6           0        0.984620    2.914002    0.913503
      4          6           0       -0.406875    2.793654    0.748177
      5          6           0       -0.882136    1.579871    0.270827
      6          6           0       -2.294326    1.305577   -0.020995
      7          7           0       -2.651219    0.196172   -0.536767
      8          6           0       -4.110670    0.183896   -0.683289
      9          6           0       -4.771682   -0.959775    0.145221
     10          6           0       -4.352383   -0.868072    1.622026
     11          6           0       -4.335931   -2.323705   -0.423287
     12          6           0       -6.298039   -0.821913    0.007674
     13          6           0       -4.493703    1.627474   -0.262567
     14          8           0       -3.244020    2.211150    0.244720
     15          7           0       -0.096260    0.531698   -0.004341
     16          6           0        1.235315    0.620223    0.177629
     17          6           0        2.047863   -0.639328   -0.093843
     18          6           0        2.502422   -1.295923    1.207345
     19          6           0        2.003536   -2.574236    1.499245
     20          6           0        2.383211   -3.230175    2.670287
     21          6           0        3.248163   -2.614579    3.574243
     22          6           0        3.708522   -1.323500    3.316919
     23          6           0        3.331306   -0.666146    2.146803
     24          6           0        3.086355   -0.371184   -1.190023
     25          6           0        2.599503   -0.260368   -2.504355
     26          6           0        3.471735    0.037157   -3.548596
     27          6           0        4.832991    0.224772   -3.302534
     28          6           0        5.321667    0.100074   -2.004409
     29          6           0        4.452966   -0.196685   -0.951917
     30          6           0        1.800935    1.818017    0.613331
     31          1           0        1.524544    5.948607    1.969174
     32          1           0        0.276545    5.530471    0.764999
     33          1           0        0.114993    4.971509    2.458881
     34          1           0       -1.095635    3.600048    0.956393
     35          1           0       -4.345851    0.018085   -1.739763
     36          1           0       -4.848218   -1.651443    2.203968
     37          1           0       -4.625480    0.093142    2.073163
     38          1           0       -3.273206   -1.009695    1.727680
     39          1           0       -4.882441   -3.126407    0.084036
     40          1           0       -3.271239   -2.515414   -0.267622
     41          1           0       -4.564770   -2.398146   -1.493039
     42          1           0       -6.800878   -1.642556    0.529187
     43          1           0       -6.607574   -0.860134   -1.042843
     44          1           0       -6.674145    0.112381    0.438962
     45          1           0       -5.223173    1.688345    0.543831
     46          1           0       -4.816641    2.246313   -1.100677
     47          1           0        1.334759   -1.341403   -0.524746
     48          1           0        1.264428   -3.016516    0.836938
     49          1           0        1.991033   -4.220761    2.878733
     50          1           0        3.545711   -3.127372    4.483616
     51          1           0        4.358382   -0.823162    4.028276
     52          1           0        3.677539    0.348282    1.987522
     53          1           0        1.539774   -0.408292   -2.705842
     54          1           0        3.085522    0.117281   -4.560178
     55          1           0        5.509872    0.455371   -4.119586
     56          1           0        6.381999    0.225588   -1.806532
     57          1           0        4.857219   -0.327559    0.043060
     58          1           0        2.874169    1.926788    0.701686
     59         28           0       -1.063563   -0.985766   -0.996626
     60          9           0       -1.066770   -2.459754    0.095070
     61          9           0       -0.548896   -0.838277   -2.741934
 ---------------------------------------------------------------------
 Rotational constants (GHZ):           0.1600896           0.0853848           0.0796392
 Basis read from rwf:  (6D, 7F)
 Pseudo-potential data read from rwf file.
 There are   613 symmetry adapted cartesian basis functions of A   symmetry.
 There are   610 symmetry adapted basis functions of A   symmetry.
   610 basis functions,  1162 primitive gaussians,   613 cartesian basis functions
   126 alpha electrons      124 beta electrons
       nuclear repulsion energy      3820.3139260221 Hartrees.
 NAtoms=   61 NActive=   61 NUniq=   61 SFac= 1.00D+00 NAtFMM=   60 NAOKFM=T Big=T
 Integral buffers will be    131072 words long.
 Raffenetti 2 integral format.
 Two-electron integral symmetry is turned on.
 Nuclear repulsion after empirical dispersion term =     3820.1645342536 Hartrees.
 One-electron integrals computed using PRISM.
 PrsmSu:  requested number of processors reduced to:  12 ShMem   1 Linda.
   1 Symmetry operations used in ECPInt.
 ECPInt:  NShTT=   21115 NPrTT=  128985 LenC2=   17058 LenP2D=   55701.
 LDataN:  DoStor=T MaxTD1= 6 Len=  172
 Number of processors reduced to  12 by ecpmxn.
 NBasis=   610 RedAO= T EigKep=  6.98D-06  NBF=   610
 NBsUse=   609 1.00D-06 EigRej=  9.85D-07 NBFU=   609
 Initial guess from the checkpoint file:  "Lig2126_xyz_2.chk"
 B after Tr=    -0.000000   -0.000000   -0.000000
         Rot=    0.998749    0.045471   -0.019356   -0.007661 Ang=   5.73 deg.
 Initial guess <Sx>= 0.0000 <Sy>= 0.0000 <Sz>= 1.0000 <S**2>= 2.0072 S= 1.0024
 ExpMin= 2.40D-02 ExpMax= 7.14D+04 ExpMxC= 1.07D+04 IAcc=3 IRadAn=         5 AccDes= 0.00D+00
 Harris functional with IExCor=  402 and IRadAn=       5 diagonalized for initial guess.
 HarFok:  IExCor=  402 AccDes= 0.00D+00 IRadAn=         5 IDoV= 1 UseB2=F ITyADJ=14
 ICtDFT=  3500011 ScaDFX=  1.000000  1.000000  1.000000  1.000000
 FoFCou: FMM=F IPFlag=           0 FMFlag=      100000 FMFlg1=        2001
         NFxFlg=           0 DoJE=T BraDBF=F KetDBF=T FulRan=T
         wScrn=  0.000000 ICntrl=       500 IOpCl=  0 I1Cent=   200000004 NGrid=           0
         NMat0=    1 NMatS0=      1 NMatT0=    0 NMatD0=    1 NMtDS0=    0 NMtDT0=    0
 Petite list used in FoFCou.
 Requested convergence on RMS density matrix=1.00D-08 within 128 cycles.
 Requested convergence on MAX density matrix=1.00D-06.
 Requested convergence on             energy=1.00D-06.
 No special actions if energy rises.
 Restarting incremental Fock formation.
 SCF Done:  E(UB3LYP) =  -1636.87753992     A.U. after   32 cycles
            NFock= 32  Conv=0.61D-08     -V/T= 2.0485
 <Sx>= 0.0000 <Sy>= 0.0000 <Sz>= 1.0000 <S**2>= 2.0068 S= 1.0023
 <L.S>=  0.00000000000    
 Annihilation of the first spin contaminant:
 S**2 before annihilation     2.0068,   after     2.0000
 PrsmSu:  requested number of processors reduced to:  12 ShMem   1 Linda.
   1 Symmetry operations used in ECPInt.
 ECPInt:  NShTT=   21115 NPrTT=  128985 LenC2=   17058 LenP2D=   55701.
 LDataN:  DoStor=T MaxTD1= 7 Len=  274
 Number of processors reduced to  13 by ecpmxn.
 Calling FoFJK, ICntrl=      2127 FMM=T ISym2X=0 I1Cent= 0 IOpClX= 1 NMat=1 NMatS=1 NMatT=0.
 ***** Axes restored to original set *****
 -------------------------------------------------------------------
 Center     Atomic                   Forces (Hartrees/Bohr)
 Number     Number              X              Y              Z
 -------------------------------------------------------------------
      1        6          -0.000637287    0.001524740   -0.000062812
      2        8          -0.000028771    0.001130581    0.000884092
      3        6           0.001078550   -0.001452061    0.001062048
      4        6          -0.000526190   -0.000147187   -0.000801161
      5        6           0.002779696   -0.005859657    0.001148115
      6        6           0.001015850   -0.009028258   -0.002247505
      7        7          -0.000918175    0.012344505    0.000800470
      8        6          -0.002654185    0.002067945    0.003193779
      9        6           0.000285102   -0.000088822   -0.000213952
     10        6           0.000520131    0.000273514   -0.000408472
     11        6          -0.000420445   -0.000430644   -0.000046781
     12        6          -0.000284921   -0.000164018    0.000117119
     13        6          -0.000690397   -0.003370590   -0.002719057
     14        8           0.001881047   -0.000980102    0.001952996
     15        7          -0.004917418    0.007371794   -0.007479049
     16        6           0.000060295   -0.003557019    0.001106429
     17        6           0.002317490   -0.000526597    0.000698846
     18        6           0.001102008   -0.000994405    0.000804796
     19        6           0.001212460   -0.001740048   -0.000215083
     20        6           0.000565880    0.000446480   -0.000068997
     21        6          -0.000180175   -0.000010271    0.000112948
     22        6           0.000131962    0.000695744    0.000161560
     23        6           0.000059505    0.001662852   -0.000368599
     24        6          -0.000306911   -0.001135147    0.000390632
     25        6          -0.000551942   -0.001943544   -0.000424384
     26        6          -0.000128857   -0.000198982    0.000102305
     27        6           0.000138806    0.000234713   -0.000556792
     28        6           0.000211039    0.000125484    0.000437199
     29        6          -0.000343000    0.001294143    0.001808783
     30        6           0.000692939    0.001125817   -0.000366008
     31        1          -0.000331933    0.000062151   -0.000758219
     32        1           0.000650985    0.000336607    0.000211202
     33        1          -0.000419805   -0.000055361    0.000731738
     34        1           0.000309526   -0.000071268    0.000416781
     35        1          -0.000098214    0.000335857    0.000189863
     36        1           0.000062156    0.000527827    0.000342645
     37        1           0.000375889   -0.000660689    0.000156000
     38        1          -0.000181940    0.000384483   -0.000749744
     39        1           0.000111956   -0.000331546    0.001042507
     40        1           0.000417441   -0.000454431   -0.002112570
     41        1           0.000515240    0.000144972   -0.000785503
     42        1          -0.000553808    0.000115652   -0.000295740
     43        1           0.000647706    0.000537379   -0.000126363
     44        1           0.000270740   -0.000334861    0.000517399
     45        1          -0.000294892    0.000002326   -0.000003256
     46        1           0.000886885   -0.000038103    0.000445592
     47        1           0.000691459    0.001894820    0.000707326
     48        1           0.000123131    0.000571880   -0.000494264
     49        1          -0.000267759    0.000188401    0.000464571
     50        1          -0.000653961   -0.000086317    0.000131149
     51        1          -0.000243333   -0.000517709   -0.000296383
     52        1           0.000972775    0.000561692   -0.001417001
     53        1          -0.000593977    0.000403077    0.000969179
     54        1           0.000466283    0.000391848    0.000189480
     55        1           0.000371010    0.000233998   -0.000509564
     56        1          -0.000354542   -0.000255221   -0.000431656
     57        1          -0.001815279   -0.001999255    0.001071131
     58        1          -0.000251338    0.000381941   -0.000210703
     59       28          -0.003483097    0.000186057    0.000705985
     60        9          -0.002785342   -0.000986696    0.002557918
     61        9           0.003991957   -0.000140474   -0.001462965
 -------------------------------------------------------------------
 Cartesian Forces:  Max     0.012344505 RMS     0.001818710

 GradGradGradGradGradGradGradGradGradGradGradGradGradGradGradGradGradGrad
 Berny optimization.
 Using GEDIIS/GDIIS optimizer.
 FormGI is forming the generalized inverse of G from B-inverse, IUseBI=4.
 Internal  Forces:  Max     0.009339575 RMS     0.001318111
 Search for a local minimum.
 Step number   6 out of a maximum of  362
 All quantities printed in internal units (Hartrees-Bohrs-Radians)
 Mixed Optimization -- RFO/linear search
 Update second derivatives using D2CorX and points    5    6
 DE= -1.96D-03 DEPred=-2.60D-03 R= 7.54D-01
 TightC=F SS=  1.41D+00  RLast= 3.98D-01 DXNew= 2.4000D+00 1.1942D+00
 Trust test= 7.54D-01 RLast= 3.98D-01 DXMaxT set to 1.43D+00
 ITU=  1  0  1  1  1  0
 Use linear search instead of GDIIS.
     Eigenvalues ---    0.00224   0.00230   0.00230   0.00233   0.00251
     Eigenvalues ---    0.00352   0.00632   0.01059   0.01329   0.01366
     Eigenvalues ---    0.01382   0.01526   0.01783   0.01973   0.02014
     Eigenvalues ---    0.02036   0.02048   0.02070   0.02079   0.02084
     Eigenvalues ---    0.02101   0.02121   0.02125   0.02139   0.02161
     Eigenvalues ---    0.02168   0.02171   0.02175   0.02189   0.02190
     Eigenvalues ---    0.02191   0.02192   0.02192   0.02194   0.02195
     Eigenvalues ---    0.02200   0.02320   0.02477   0.03104   0.03567
     Eigenvalues ---    0.03819   0.04061   0.04500   0.04669   0.04780
     Eigenvalues ---    0.04873   0.04986   0.05129   0.05248   0.05288
     Eigenvalues ---    0.05412   0.05495   0.05549   0.05587   0.05948
     Eigenvalues ---    0.06565   0.06927   0.07588   0.09923   0.10105
     Eigenvalues ---    0.10596   0.10664   0.11280   0.11467   0.12940
     Eigenvalues ---    0.13880   0.14173   0.14463   0.14692   0.15677
     Eigenvalues ---    0.15963   0.15995   0.15996   0.15996   0.15997
     Eigenvalues ---    0.15999   0.15999   0.15999   0.16000   0.16000
     Eigenvalues ---    0.16000   0.16000   0.16000   0.16000   0.16000
     Eigenvalues ---    0.16000   0.16000   0.16000   0.16000   0.16037
     Eigenvalues ---    0.16064   0.16145   0.16513   0.18922   0.19790
     Eigenvalues ---    0.20271   0.20387   0.20500   0.21037   0.21996
     Eigenvalues ---    0.21999   0.22031   0.22055   0.23446   0.23479
     Eigenvalues ---    0.23554   0.23584   0.23686   0.24369   0.24751
     Eigenvalues ---    0.24805   0.24926   0.24977   0.25167   0.26191
     Eigenvalues ---    0.26501   0.26985   0.27721   0.27884   0.27905
     Eigenvalues ---    0.28165   0.28723   0.29629   0.32475   0.34499
     Eigenvalues ---    0.34613   0.34658   0.34683   0.34689   0.34695
     Eigenvalues ---    0.34698   0.34706   0.34724   0.34743   0.34803
     Eigenvalues ---    0.34852   0.34860   0.34887   0.34948   0.35193
     Eigenvalues ---    0.35765   0.35832   0.35940   0.35947   0.35953
     Eigenvalues ---    0.35957   0.35962   0.35970   0.36024   0.36085
     Eigenvalues ---    0.36168   0.36509   0.37402   0.37606   0.40220
     Eigenvalues ---    0.41331   0.41844   0.41945   0.42095   0.42162
     Eigenvalues ---    0.42217   0.42313   0.45233   0.45672   0.45755
     Eigenvalues ---    0.46121   0.46249   0.46278   0.46903   0.46939
     Eigenvalues ---    0.46952   0.47040   0.48563   0.49423   0.50007
     Eigenvalues ---    0.52346   0.68425
 RFO step:  Lambda=-5.49680262D-03 EMin= 2.23970601D-03
 Quartic linear search produced a step of -0.16227.
 Iteration  1 RMS(Cart)=  0.12895318 RMS(Int)=  0.00397013
 Iteration  2 RMS(Cart)=  0.00745228 RMS(Int)=  0.00007477
 Iteration  3 RMS(Cart)=  0.00003236 RMS(Int)=  0.00007344
 Iteration  4 RMS(Cart)=  0.00000000 RMS(Int)=  0.00007344
 Variable       Old X    -DE/DX   Delta X   Delta X   Delta X     New X
                                 (Linear)    (Quad)   (Total)
    R1        2.69828  -0.00167   0.00007  -0.00394  -0.00387   2.69441
    R2        2.05851   0.00043  -0.00013   0.00264   0.00251   2.06102
    R3        2.06948   0.00075  -0.00009   0.00389   0.00379   2.07327
    R4        2.06933   0.00082  -0.00009   0.00418   0.00409   2.07342
    R5        2.55149  -0.00319  -0.00092  -0.00367  -0.00459   2.54690
    R6        2.65779  -0.00088   0.00008  -0.00143  -0.00137   2.65642
    R7        2.64403   0.00073   0.00012   0.00243   0.00255   2.64659
    R8        2.62325  -0.00118  -0.00035  -0.00125  -0.00163   2.62162
    R9        2.04232   0.00043   0.00032  -0.00120  -0.00088   2.04144
   R10        2.77389   0.00039  -0.00017   0.00375   0.00358   2.77747
   R11        2.52968   0.00578  -0.00091   0.02338   0.02247   2.55215
   R12        2.40832   0.00934  -0.00005   0.02464   0.02466   2.43298
   R13        2.53011   0.00146  -0.00115   0.01033   0.00924   2.53935
   R14        2.77192  -0.00100   0.00045   0.00016   0.00059   2.77251
   R15        3.83996  -0.00135   0.00110   0.00338   0.00447   3.84442
   R16        2.94661  -0.00302   0.00198  -0.03101  -0.02903   2.91758
   R17        2.93220   0.00358  -0.00078   0.01869   0.01784   2.95005
   R18        2.06918   0.00018  -0.00007   0.00097   0.00090   2.07008
   R19        2.90623  -0.00090   0.00037  -0.00781  -0.00744   2.89879
   R20        2.91127  -0.00074   0.00060  -0.00767  -0.00706   2.90421
   R21        2.90778   0.00023   0.00035  -0.00216  -0.00181   2.90597
   R22        2.06852   0.00031   0.00005   0.00134   0.00139   2.06991
   R23        2.07185   0.00076  -0.00007   0.00406   0.00400   2.07584
   R24        2.06650   0.00075  -0.00029   0.00512   0.00483   2.07133
   R25        2.07042   0.00056  -0.00019   0.00369   0.00350   2.07392
   R26        2.06539   0.00164  -0.00010   0.00788   0.00778   2.07316
   R27        2.07205   0.00050   0.00014   0.00193   0.00207   2.07412
   R28        2.06860   0.00022   0.00001   0.00121   0.00122   2.06983
   R29        2.07083   0.00083  -0.00013   0.00467   0.00454   2.07538
   R30        2.07041   0.00055  -0.00031   0.00477   0.00446   2.07487
   R31        2.77714  -0.00038   0.00053  -0.00452  -0.00401   2.77313
   R32        2.05808   0.00009  -0.00019   0.00180   0.00162   2.05969
   R33        2.06117   0.00088  -0.00011   0.00472   0.00461   2.06578
   R34        2.54520  -0.00559   0.00038  -0.01604  -0.01564   2.52957
   R35        3.88338   0.00031  -0.00016   0.01791   0.01776   3.90114
   R36        2.87859  -0.00352   0.00182  -0.03118  -0.02936   2.84923
   R37        2.63512  -0.00169   0.00043  -0.01024  -0.00978   2.62534
   R38        2.88506  -0.00293   0.00037  -0.01477  -0.01440   2.87066
   R39        2.89811  -0.00467   0.00036  -0.02910  -0.02874   2.86937
   R40        2.05894   0.00197  -0.00050   0.01084   0.01034   2.06928
   R41        2.65113  -0.00166   0.00032  -0.00759  -0.00727   2.64386
   R42        2.64983  -0.00148  -0.00009  -0.00468  -0.00477   2.64506
   R43        2.63598  -0.00020  -0.00027   0.00063   0.00036   2.63634
   R44        2.05324   0.00019  -0.00019   0.00014  -0.00005   2.05319
   R45        2.63496   0.00037   0.00000   0.00206   0.00207   2.63703
   R46        2.05148   0.00052  -0.00007   0.00298   0.00291   2.05439
   R47        2.63549   0.00075  -0.00012   0.00298   0.00286   2.63836
   R48        2.05142   0.00066  -0.00018   0.00430   0.00412   2.05554
   R49        2.63451   0.00071  -0.00007   0.00292   0.00286   2.63737
   R50        2.05162   0.00065  -0.00009   0.00377   0.00369   2.05531
   R51        2.04781   0.00090  -0.00018   0.00648   0.00631   2.05412
   R52        2.65691  -0.00190   0.00062  -0.01181  -0.01118   2.64573
   R53        2.64208  -0.00216   0.00012  -0.00739  -0.00727   2.63481
   R54        2.63191   0.00060  -0.00014   0.00259   0.00246   2.63437
   R55        2.05755   0.00079   0.00007   0.00303   0.00310   2.06065
   R56        2.63802   0.00117   0.00001   0.00354   0.00355   2.64157
   R57        2.05179   0.00062  -0.00010   0.00358   0.00348   2.05527
   R58        2.63173   0.00116  -0.00001   0.00478   0.00476   2.63649
   R59        2.05182   0.00067  -0.00016   0.00392   0.00377   2.05559
   R60        2.63916   0.00054  -0.00036   0.00417   0.00381   2.64297
   R61        2.05208   0.00058  -0.00006   0.00319   0.00313   2.05521
   R62        2.04451   0.00246   0.00037   0.00602   0.00639   2.05090
   R63        2.04533   0.00020  -0.00015   0.00297   0.00282   2.04815
   R64        3.46622   0.00306  -0.00515   0.06420   0.05905   3.52527
   R65        3.44984   0.00334  -0.00356   0.05244   0.04888   3.49872
    A1        1.84809  -0.00102   0.00055  -0.01287  -0.01233   1.83576
    A2        1.93868   0.00005  -0.00039   0.00251   0.00211   1.94078
    A3        1.93885  -0.00002  -0.00044   0.00250   0.00205   1.94090
    A4        1.91116   0.00041   0.00034   0.00174   0.00207   1.91323
    A5        1.91081   0.00047   0.00037   0.00199   0.00235   1.91316
    A6        1.91501   0.00010  -0.00037   0.00365   0.00327   1.91829
    A7        2.06979  -0.00194  -0.00238   0.01646   0.01408   2.08388
    A8        2.17296  -0.00062  -0.00175   0.01290   0.01116   2.18412
    A9        2.03307  -0.00032   0.00132  -0.01331  -0.01199   2.02108
   A10        2.07714   0.00094   0.00043   0.00042   0.00084   2.07798
   A11        2.04201  -0.00091   0.00003  -0.00275  -0.00277   2.03925
   A12        2.14603   0.00075  -0.00036   0.00811   0.00777   2.15380
   A13        2.09494   0.00016   0.00033  -0.00541  -0.00507   2.08987
   A14        2.16655   0.00133   0.00102  -0.00114  -0.00011   2.16644
   A15        2.15836  -0.00015  -0.00059   0.00492   0.00430   2.16267
   A16        1.95801  -0.00117  -0.00042  -0.00366  -0.00408   1.95393
   A17        2.10894  -0.00151   0.00003  -0.00898  -0.00895   2.09998
   A18        2.11363   0.00188   0.00080  -0.00025   0.00057   2.11420
   A19        2.06061  -0.00037  -0.00083   0.00923   0.00839   2.06900
   A20        1.90323  -0.00113   0.00071  -0.01135  -0.01082   1.89241
   A21        1.95965   0.00074  -0.00006   0.01368   0.01356   1.97321
   A22        2.41872   0.00041  -0.00090  -0.00075  -0.00166   2.41706
   A23        1.95503  -0.00257  -0.00027  -0.03532  -0.03566   1.91937
   A24        1.78313   0.00024  -0.00067   0.00573   0.00515   1.78827
   A25        1.88741   0.00059  -0.00163   0.01002   0.00817   1.89557
   A26        2.01934   0.00219   0.00117   0.01980   0.02111   2.04045
   A27        1.88656  -0.00048   0.00071  -0.00874  -0.00832   1.87824
   A28        1.92781  -0.00001   0.00040   0.00906   0.00935   1.93716
   A29        1.92935   0.00014   0.00040  -0.00421  -0.00415   1.92519
   A30        1.91068  -0.00161   0.00007  -0.02942  -0.02944   1.88124
   A31        1.88315   0.00102   0.00044   0.01589   0.01641   1.89957
   A32        1.90714   0.00018  -0.00001  -0.00389  -0.00420   1.90294
   A33        1.92938  -0.00029  -0.00053   0.01045   0.00990   1.93928
   A34        1.90383   0.00057  -0.00038   0.01113   0.01090   1.91472
   A35        1.92233  -0.00071   0.00048  -0.01009  -0.00963   1.91271
   A36        1.96005   0.00008  -0.00043   0.00307   0.00265   1.96270
   A37        1.93276  -0.00042   0.00022  -0.00454  -0.00434   1.92842
   A38        1.87113   0.00037  -0.00014   0.00485   0.00472   1.87585
   A39        1.87861   0.00044  -0.00014   0.00344   0.00326   1.88187
   A40        1.89611   0.00031  -0.00000   0.00375   0.00375   1.89986
   A41        1.91418  -0.00074   0.00053  -0.00742  -0.00689   1.90729
   A42        1.95872  -0.00094  -0.00006  -0.00472  -0.00483   1.95389
   A43        1.94024   0.00008   0.00005  -0.00453  -0.00454   1.93570
   A44        1.86655   0.00130  -0.00052   0.02235   0.02184   1.88839
   A45        1.87330   0.00053  -0.00033   0.00973   0.00940   1.88270
   A46        1.90747  -0.00012   0.00030  -0.01375  -0.01354   1.89393
   A47        1.92400  -0.00097   0.00048  -0.01304  -0.01256   1.91144
   A48        1.94203  -0.00017   0.00018  -0.00272  -0.00257   1.93946
   A49        1.96247   0.00078  -0.00020   0.00755   0.00736   1.96983
   A50        1.87634   0.00042  -0.00017   0.00354   0.00332   1.87967
   A51        1.86927   0.00011  -0.00027   0.00361   0.00336   1.87264
   A52        1.88615  -0.00016  -0.00005   0.00140   0.00135   1.88750
   A53        1.82677   0.00183  -0.00014   0.00574   0.00537   1.83214
   A54        2.00216  -0.00033   0.00050  -0.00311  -0.00261   1.99954
   A55        1.97424  -0.00043  -0.00034  -0.00053  -0.00079   1.97345
   A56        1.86688  -0.00110  -0.00046   0.00204   0.00175   1.86864
   A57        1.86677  -0.00007  -0.00024   0.00086   0.00060   1.86737
   A58        1.91657   0.00015   0.00056  -0.00396  -0.00343   1.91314
   A59        1.84008  -0.00050   0.00042  -0.00423  -0.00396   1.83612
   A60        2.09574  -0.00122   0.00131  -0.01681  -0.01547   2.08027
   A61        1.98353   0.00131   0.00100   0.00613   0.00711   1.99064
   A62        2.18847   0.00004  -0.00208   0.01165   0.00955   2.19802
   A63        2.03637  -0.00746  -0.00081  -0.02993  -0.03081   2.00556
   A64        2.09404   0.00237  -0.00090   0.01802   0.01714   2.11118
   A65        2.15265   0.00509   0.00171   0.01216   0.01380   2.16645
   A66        1.94179   0.00140   0.00280  -0.01910  -0.01646   1.92533
   A67        1.92199   0.00190   0.00163  -0.00191  -0.00057   1.92142
   A68        1.82779  -0.00133  -0.00146   0.01069   0.00931   1.83710
   A69        2.07461  -0.00387  -0.00267  -0.00838  -0.01120   2.06340
   A70        1.82845   0.00044  -0.00216   0.03121   0.02915   1.85760
   A71        1.84749   0.00160   0.00158  -0.00676  -0.00511   1.84238
   A72        2.05254  -0.00149  -0.00029   0.00209   0.00181   2.05436
   A73        2.15778   0.00067   0.00046  -0.00609  -0.00562   2.15216
   A74        2.07150   0.00085   0.00001   0.00442   0.00439   2.07589
   A75        2.10175   0.00041   0.00017  -0.00063  -0.00051   2.10124
   A76        2.07827  -0.00034  -0.00017   0.00046   0.00029   2.07857
   A77        2.10073  -0.00006  -0.00014   0.00107   0.00093   2.10166
   A78        2.10075  -0.00034  -0.00023   0.00149   0.00123   2.10198
   A79        2.08513   0.00015   0.00019  -0.00179  -0.00159   2.08354
   A80        2.09725   0.00019   0.00004   0.00031   0.00036   2.09761
   A81        2.08731  -0.00042   0.00018  -0.00318  -0.00303   2.08428
   A82        2.09966   0.00012  -0.00013   0.00139   0.00125   2.10091
   A83        2.09599   0.00031  -0.00005   0.00198   0.00193   2.09792
   A84        2.09676   0.00003   0.00009   0.00014   0.00021   2.09698
   A85        2.09824  -0.00002   0.00003  -0.00027  -0.00023   2.09801
   A86        2.08817  -0.00001  -0.00012   0.00012   0.00002   2.08819
   A87        2.10656  -0.00048  -0.00013  -0.00117  -0.00134   2.10521
   A88        2.10694  -0.00051   0.00008  -0.00765  -0.00757   2.09936
   A89        2.06953   0.00100   0.00007   0.00899   0.00905   2.07858
   A90        2.03474   0.00251   0.00169  -0.00962  -0.00796   2.02678
   A91        2.16758  -0.00454  -0.00221   0.00379   0.00155   2.16912
   A92        2.08040   0.00203   0.00042   0.00631   0.00673   2.08713
   A93        2.09541  -0.00059  -0.00048   0.00165   0.00117   2.09658
   A94        2.09360  -0.00039   0.00046  -0.01506  -0.01463   2.07897
   A95        2.09418   0.00099   0.00001   0.01340   0.01338   2.10756
   A96        2.10278  -0.00025  -0.00006  -0.00188  -0.00194   2.10084
   A97        2.08466  -0.00002   0.00004   0.00029   0.00032   2.08498
   A98        2.09574   0.00026   0.00002   0.00158   0.00159   2.09733
   A99        2.08798  -0.00042   0.00045  -0.00390  -0.00346   2.08452
   A100       2.09879   0.00014  -0.00014   0.00054   0.00041   2.09920
   A101       2.09635   0.00028  -0.00031   0.00338   0.00307   2.09942
   A102       2.09813  -0.00018  -0.00016   0.00196   0.00180   2.09992
   A103       2.09686   0.00031   0.00002   0.00076   0.00078   2.09764
   A104       2.08817  -0.00012   0.00014  -0.00272  -0.00258   2.08558
   A105       2.10154  -0.00058  -0.00016  -0.00412  -0.00429   2.09725
   A106       2.10220  -0.00104  -0.00058  -0.00576  -0.00637   2.09583
   A107       2.07871   0.00163   0.00077   0.01029   0.01103   2.08974
   A108       2.09813  -0.00103  -0.00031  -0.00403  -0.00431   2.09381
   A109       2.07406   0.00099   0.00002   0.00934   0.00932   2.08338
   A110       2.11068   0.00004   0.00025  -0.00499  -0.00478   2.10590
   A111       1.39894   0.00067  -0.00074  -0.00516  -0.00596   1.39298
   A112       1.90854  -0.00198   0.00398  -0.02964  -0.02560   1.88294
   A113       1.97103  -0.00148   0.00179  -0.01191  -0.01022   1.96081
   A114       1.88266  -0.00047   0.00093   0.01034   0.01113   1.89378
   A115       1.84344  -0.00118   0.00352  -0.01452  -0.01110   1.83233
   A116       2.25806   0.00339  -0.00678   0.03679   0.02984   2.28789
    D1       -3.13991  -0.00000  -0.00014   0.00020   0.00006  -3.13985
    D2       -1.06655  -0.00009   0.00038  -0.00404  -0.00366  -1.07021
    D3        1.07023   0.00005  -0.00067   0.00415   0.00348   1.07371
    D4       -0.00778  -0.00005  -0.00003   0.00142   0.00140  -0.00638
    D5        3.12925   0.00007   0.00002   0.00220   0.00221   3.13146
    D6        3.12042   0.00011  -0.00044  -0.00047  -0.00089   3.11953
    D7        0.00029  -0.00007  -0.00026   0.00257   0.00231   0.00260
    D8       -0.01651  -0.00002  -0.00049  -0.00124  -0.00169  -0.01820
    D9       -3.13664  -0.00020  -0.00031   0.00180   0.00151  -3.13513
   D10        3.12817   0.00014   0.00007  -0.00293  -0.00284   3.12533
   D11       -0.04008   0.00002  -0.00126   0.01037   0.00912  -0.03095
   D12       -0.01772   0.00026   0.00010  -0.00216  -0.00206  -0.01978
   D13        3.09722   0.00013  -0.00123   0.01114   0.00991   3.10713
   D14       -3.08797  -0.00052   0.00014  -0.00469  -0.00461  -3.09257
   D15        0.02699  -0.00028   0.00016   0.00172   0.00187   0.02886
   D16        0.03282  -0.00034  -0.00004  -0.00747  -0.00751   0.02531
   D17       -3.13541  -0.00010  -0.00002  -0.00105  -0.00104  -3.13645
   D18        3.06395   0.00025   0.00254  -0.00971  -0.00709   3.05686
   D19       -0.07662   0.00026   0.00189  -0.00843  -0.00650  -0.08312
   D20       -0.05370   0.00002   0.00253  -0.01558  -0.01299  -0.06669
   D21        3.08891   0.00004   0.00188  -0.01431  -0.01240   3.07651
   D22       -0.00115   0.00033   0.00058   0.00145   0.00198   0.00083
   D23       -2.96474  -0.00038  -0.00059  -0.00550  -0.00607  -2.97081
   D24        3.11664   0.00058   0.00062   0.00720   0.00779   3.12442
   D25        0.15304  -0.00014  -0.00056   0.00025  -0.00026   0.15279
   D26        3.11534  -0.00014   0.00019  -0.00187  -0.00170   3.11363
   D27       -0.07524   0.00024  -0.00300   0.02236   0.01946  -0.05578
   D28       -0.02725  -0.00015   0.00081  -0.00311  -0.00227  -0.02953
   D29        3.06536   0.00022  -0.00238   0.02112   0.01889   3.08424
   D30        3.07403   0.00044  -0.00205   0.02273   0.02070   3.09473
   D31       -0.06656   0.00046  -0.00268   0.02398   0.02128  -0.04529
   D32       -2.07041  -0.00175   0.00051  -0.02693  -0.02648  -2.09688
   D33        0.10164  -0.00033   0.00135  -0.01843  -0.01700   0.08464
   D34        2.13567   0.00001   0.00084  -0.00145  -0.00054   2.13513
   D35        1.13973  -0.00226   0.00488  -0.06130  -0.05639   1.08334
   D36       -2.97141  -0.00084   0.00572  -0.05280  -0.04691  -3.01832
   D37       -0.93738  -0.00050   0.00521  -0.03582  -0.03045  -0.96783
   D38        0.11951  -0.00016   0.00189  -0.01601  -0.01421   0.10530
   D39        1.96278  -0.00028   0.00232  -0.00423  -0.00198   1.96079
   D40       -1.67650   0.00074  -0.00151   0.00087  -0.00073  -1.67723
   D41       -3.09210   0.00031  -0.00255   0.01843   0.01597  -3.07613
   D42       -1.24884   0.00019  -0.00212   0.03022   0.02820  -1.22063
   D43        1.39507   0.00122  -0.00595   0.03532   0.02945   1.42452
   D44        0.95812   0.00038  -0.00146   0.07819   0.07655   1.03467
   D45       -1.14362   0.00111  -0.00174   0.10457   0.10246  -1.04116
   D46        3.06975   0.00075  -0.00158   0.09851   0.09672  -3.11672
   D47       -1.07593   0.00045  -0.00119   0.08313   0.08209  -0.99384
   D48        3.10551   0.00118  -0.00147   0.10950   0.10800  -3.06967
   D49        1.03570   0.00082  -0.00132   0.10344   0.10226   1.13796
   D50        3.03573  -0.00074  -0.00318   0.06380   0.06085   3.09658
   D51        0.93399  -0.00001  -0.00346   0.09018   0.08676   1.02075
   D52       -1.13582  -0.00038  -0.00330   0.08411   0.08102  -1.05481
   D53       -0.13385   0.00026  -0.00266   0.02926   0.02673  -0.10712
   D54       -2.17419   0.00059  -0.00227   0.02468   0.02249  -2.15170
   D55        1.89202   0.00106  -0.00320   0.03348   0.03030   1.92232
   D56        1.99473  -0.00154  -0.00282   0.00043  -0.00234   1.99239
   D57       -0.04561  -0.00121  -0.00243  -0.00414  -0.00658  -0.05219
   D58       -2.26258  -0.00074  -0.00337   0.00466   0.00123  -2.26135
   D59       -2.13848  -0.00053  -0.00061   0.01115   0.01073  -2.12774
   D60        2.10437  -0.00020  -0.00023   0.00658   0.00649   2.11086
   D61       -0.11260   0.00027  -0.00116   0.01538   0.01430  -0.09830
   D62        3.10602   0.00103   0.00053   0.01670   0.01725   3.12327
   D63        1.02195   0.00099   0.00065   0.01542   0.01610   1.03805
   D64       -1.10120   0.00085   0.00080   0.01170   0.01254  -1.08866
   D65       -1.07331  -0.00077   0.00087  -0.02487  -0.02405  -1.09736
   D66        3.12581  -0.00081   0.00099  -0.02615  -0.02520   3.10061
   D67        1.00265  -0.00095   0.00113  -0.02987  -0.02876   0.97390
   D68        1.02209  -0.00014   0.00007  -0.00710  -0.00703   1.01506
   D69       -1.06198  -0.00018   0.00019  -0.00838  -0.00818  -1.07016
   D70        3.09805  -0.00032   0.00033  -0.01210  -0.01174   3.08631
   D71       -3.03403  -0.00035  -0.00165  -0.00143  -0.00300  -3.03703
   D72        1.17716  -0.00088  -0.00131  -0.02151  -0.02270   1.15446
   D73       -0.96516  -0.00011  -0.00170   0.00311   0.00147  -0.96370
   D74        1.13393   0.00038  -0.00218   0.02450   0.02225   1.15618
   D75       -0.93806  -0.00016  -0.00184   0.00442   0.00254  -0.93552
   D76       -3.08039   0.00062  -0.00223   0.02904   0.02671  -3.05367
   D77       -0.97709   0.00028  -0.00130   0.00725   0.00592  -0.97117
   D78       -3.04909  -0.00026  -0.00096  -0.01283  -0.01378  -3.06287
   D79        1.09177   0.00052  -0.00135   0.01178   0.01039   1.10216
   D80        3.08492  -0.00065   0.00027  -0.01941  -0.01911   3.06581
   D81        1.00484  -0.00044   0.00005  -0.01359  -0.01354   0.99130
   D82       -1.11382  -0.00065   0.00012  -0.01878  -0.01865  -1.13248
   D83       -1.08665  -0.00001   0.00073  -0.00824  -0.00748  -1.09413
   D84        3.11645   0.00020   0.00050  -0.00242  -0.00191   3.11454
   D85        0.99779  -0.00002   0.00058  -0.00761  -0.00702   0.99076
   D86        1.01073   0.00039   0.00015   0.00048   0.00061   1.01134
   D87       -1.06935   0.00060  -0.00007   0.00630   0.00618  -1.06317
   D88        3.09517   0.00038  -0.00000   0.00111   0.00107   3.09624
   D89        0.12287  -0.00051   0.00325  -0.03272  -0.02937   0.09349
   D90        2.25425  -0.00048   0.00353  -0.03229  -0.02869   2.22556
   D91       -1.97623  -0.00090   0.00383  -0.03542  -0.03148  -2.00771
   D92        3.09041  -0.00020  -0.00122   0.01117   0.00984   3.10025
   D93       -0.03495  -0.00016  -0.00096  -0.00552  -0.00648  -0.04143
   D94       -0.25148   0.00072   0.00047   0.01787   0.01820  -0.23328
   D95        2.90635   0.00076   0.00074   0.00118   0.00188   2.90823
   D96       -0.15257   0.00004  -0.00069   0.00834   0.00767  -0.14490
   D97       -2.02533   0.00191  -0.00459   0.04188   0.03741  -1.98792
   D98        1.78875  -0.00125   0.00074  -0.00413  -0.00337   1.78538
   D99       -3.10508  -0.00058  -0.00234   0.00439   0.00199  -3.10309
   D100       1.30533   0.00129  -0.00625   0.03793   0.03174   1.33707
   D101      -1.16377  -0.00187  -0.00091  -0.00808  -0.00904  -1.17282
   D102      -1.83626   0.00051   0.02004   0.01581   0.03593  -1.80033
   D103       2.10882   0.00295   0.01977   0.04605   0.06588   2.17470
   D104       0.12967   0.00094   0.01798   0.04923   0.06725   0.19692
   D105       1.28850   0.00043   0.01974   0.03316   0.05286   1.34135
   D106      -1.04961   0.00287   0.01947   0.06340   0.08281  -0.96681
   D107      -3.02876   0.00086   0.01768   0.06657   0.08418  -2.94458
   D108       0.04430  -0.00012   0.00059   0.00608   0.00674   0.05104
   D109      -3.07006  -0.00001   0.00195  -0.00772  -0.00560  -3.07567
   D110      -3.07992   0.00005   0.00090  -0.01138  -0.01072  -3.09064
   D111       0.08890   0.00016   0.00226  -0.02517  -0.02307   0.06583
   D112       2.02005  -0.00156  -0.00704  -0.12468  -0.13185   1.88819
   D113      -1.06458  -0.00212  -0.01196  -0.13370  -0.14577  -1.21035
   D114      -2.00311  -0.00098  -0.00428  -0.15532  -0.15950  -2.16260
   D115       1.19545  -0.00153  -0.00921  -0.16434  -0.17342   1.02203
   D116       0.05454  -0.00088  -0.00541  -0.14514  -0.15056  -0.09602
   D117      -3.03009  -0.00143  -0.01034  -0.15416  -0.16448   3.08861
   D118      -1.28439   0.00006  -0.00876  -0.00161  -0.01032  -1.29472
   D119       1.82394   0.00016  -0.01158   0.01598   0.00439   1.82833
   D120       2.72977  -0.00033  -0.01205   0.03650   0.02447   2.75424
   D121      -0.44508  -0.00023  -0.01487   0.05409   0.03918  -0.40590
   D122       0.68209   0.00022  -0.00887   0.00643  -0.00242   0.67967
   D123      -2.49277   0.00032  -0.01169   0.02402   0.01229  -2.48047
   D124       3.13829   0.00000  -0.00296   0.00910   0.00610  -3.13879
   D125      -0.07783   0.00008  -0.00496   0.02294   0.01794  -0.05988
   D126      -0.05736   0.00053   0.00172   0.01731   0.01906  -0.03830
   D127       3.00970   0.00060  -0.00028   0.03115   0.03090   3.04060
   D128       3.14078   0.00005   0.00357  -0.00625  -0.00271   3.13806
   D129       0.01886  -0.00047   0.00202  -0.01614  -0.01411   0.00475
   D130       0.05673  -0.00044  -0.00140  -0.01529  -0.01671   0.04002
   D131      -3.06519  -0.00096  -0.00295  -0.02518  -0.02811  -3.09330
   D132       0.01636  -0.00025  -0.00092  -0.00535  -0.00626   0.01010
   D133      -3.13712  -0.00026  -0.00153  -0.00418  -0.00570   3.14036
   D134      -3.04974  -0.00032   0.00111  -0.01934  -0.01823  -3.06797
   D135       0.07996  -0.00032   0.00050  -0.01817  -0.01767   0.06229
   D136       0.02636  -0.00020  -0.00024  -0.00920  -0.00943   0.01694
   D137      -3.13787   0.00003  -0.00028   0.00063   0.00035  -3.13752
   D138      -3.10326  -0.00020   0.00037  -0.01036  -0.00997  -3.11323
   D139       0.01569   0.00004   0.00033  -0.00053  -0.00020   0.01550
   D140      -0.02709   0.00032   0.00056   0.01127   0.01183  -0.01527
   D141       3.10945   0.00035   0.00082   0.01096   0.01176   3.12121
   D142       3.13709   0.00009   0.00061   0.00147   0.00207   3.13916
   D143      -0.00955   0.00012   0.00086   0.00115   0.00201  -0.00754
   D144      -0.01490   0.00003   0.00026   0.00124   0.00147  -0.01343
   D145       3.10744   0.00052   0.00178   0.01074   0.01255   3.11998
   D146       3.13172  -0.00001   0.00001   0.00156   0.00153   3.13325
   D147      -0.02913   0.00049   0.00153   0.01106   0.01261  -0.01653
   D148       3.09557   0.00009  -0.00196   0.01711   0.01515   3.11072
   D149      -0.04707  -0.00031  -0.00296   0.00565   0.00278  -0.04428
   D150      -0.01451   0.00013   0.00080   0.00047   0.00125  -0.01325
   D151       3.12604  -0.00027  -0.00021  -0.01098  -0.01111   3.11493
   D152      -3.09413  -0.00017   0.00209  -0.01531  -0.01324  -3.10737
   D153       0.08913  -0.00053   0.00144  -0.02735  -0.02588   0.06325
   D154       0.01339  -0.00006  -0.00076   0.00242   0.00169   0.01508
   D155      -3.08654  -0.00043  -0.00142  -0.00961  -0.01096  -3.09749
   D156       0.00240  -0.00009  -0.00036  -0.00105  -0.00142   0.00098
   D157       3.13824  -0.00018  -0.00055  -0.00429  -0.00486   3.13337
   D158      -3.13814   0.00030   0.00064   0.01043   0.01116  -3.12698
   D159      -0.00231   0.00022   0.00045   0.00719   0.00772   0.00541
   D160       0.01095  -0.00004  -0.00011  -0.00141  -0.00150   0.00945
   D161       3.14026   0.00001  -0.00023   0.00082   0.00059   3.14085
   D162      -3.12484   0.00005   0.00008   0.00185   0.00197  -3.12287
   D163       0.00447   0.00010  -0.00004   0.00408   0.00406   0.00853
   D164      -0.01209   0.00011   0.00014   0.00433   0.00447  -0.00762
   D165       3.12121   0.00012   0.00032   0.00349   0.00382   3.12502
   D166      -3.14142   0.00006   0.00026   0.00212   0.00240  -3.13902
   D167      -0.00812   0.00007   0.00044   0.00128   0.00174  -0.00638
   D168      -0.00012  -0.00004   0.00030  -0.00481  -0.00454  -0.00466
   D169       3.10036   0.00025   0.00092   0.00668   0.00765   3.10801
   D170      -3.13347  -0.00006   0.00012  -0.00399  -0.00390  -3.13737
   D171      -0.03299   0.00024   0.00074   0.00750   0.00829  -0.02470
         Item               Value     Threshold  Converged?
 Maximum Force            0.009340     0.000450     NO 
 RMS     Force            0.001318     0.000300     NO 
 Maximum Displacement     0.757741     0.001800     NO 
 RMS     Displacement     0.130841     0.001200     NO 
 Predicted change in Energy=-3.621307D-03
 GradGradGradGradGradGradGradGradGradGradGradGradGradGradGradGradGradGrad

 Stoichiometry    C26H28F2N2NiO2(3)
 Framework group  C1[X(C26H28F2N2NiO2)]
 Deg. of freedom   177
 Full point group                 C1      NOp   1
 Largest Abelian subgroup         C1      NOp   1
 Largest concise Abelian subgroup C1      NOp   1
                         Standard orientation:                         
 ---------------------------------------------------------------------
 Center     Atomic      Atomic             Coordinates (Angstroms)
 Number     Number       Type             X           Y           Z
 ---------------------------------------------------------------------
      1          6           0        0.963863    5.136096    1.793621
      2          8           0        1.697701    3.964666    1.444052
      3          6           0        1.037850    2.883544    0.983366
      4          6           0       -0.355121    2.796484    0.815762
      5          6           0       -0.851080    1.607033    0.302107
      6          6           0       -2.270320    1.364567    0.006799
      7          7           0       -2.638814    0.266644   -0.555674
      8          6           0       -4.099561    0.282746   -0.691651
      9          6           0       -4.713589   -0.909327    0.073600
     10          6           0       -4.340036   -0.837218    1.559647
     11          6           0       -4.135111   -2.200529   -0.526436
     12          6           0       -6.239524   -0.887869   -0.115631
     13          6           0       -4.469168    1.712722   -0.186100
     14          8           0       -3.209184    2.276040    0.312505
     15          7           0       -0.081768    0.540954   -0.007080
     16          6           0        1.240913    0.612425    0.185862
     17          6           0        1.999120   -0.649811   -0.138458
     18          6           0        2.374744   -1.382162    1.138332
     19          6           0        1.694424   -2.568976    1.431651
     20          6           0        1.992273   -3.285150    2.591245
     21          6           0        2.963655   -2.820771    3.478975
     22          6           0        3.622838   -1.620281    3.207752
     23          6           0        3.323656   -0.902672    2.048732
     24          6           0        3.095815   -0.355052   -1.146392
     25          6           0        2.678738   -0.135417   -2.464717
     26          6           0        3.612659    0.178587   -3.450904
     27          6           0        4.970479    0.275510   -3.133185
     28          6           0        5.385933    0.044036   -1.821577
     29          6           0        4.451403   -0.273302   -0.830603
     30          6           0        1.833296    1.779785    0.651070
     31          1           0        1.713763    5.853274    2.129498
     32          1           0        0.428134    5.542118    0.926538
     33          1           0        0.257183    4.933406    2.608104
     34          1           0       -1.033334    3.605787    1.043938
     35          1           0       -4.353396    0.163097   -1.750534
     36          1           0       -4.796653   -1.677127    2.094288
     37          1           0       -4.691942    0.087783    2.036316
     38          1           0       -3.253677   -0.909758    1.686148
     39          1           0       -4.634956   -3.066244   -0.073523
     40          1           0       -3.057560   -2.291719   -0.341682
     41          1           0       -4.307617   -2.240635   -1.609630
     42          1           0       -6.679460   -1.772116    0.357928
     43          1           0       -6.506633   -0.911803   -1.180625
     44          1           0       -6.713025   -0.006148    0.335930
     45          1           0       -5.177748    1.731527    0.641871
     46          1           0       -4.820049    2.371917   -0.984442
     47          1           0        1.282169   -1.289867   -0.663211
     48          1           0        0.891567   -2.893680    0.775551
     49          1           0        1.452664   -4.204724    2.803535
     50          1           0        3.197769   -3.381924    4.380911
     51          1           0        4.368542   -1.236841    3.900446
     52          1           0        3.832497    0.040062    1.864632
     53          1           0        1.619691   -0.225963   -2.708242
     54          1           0        3.277666    0.339481   -4.473046
     55          1           0        5.697984    0.519942   -3.904053
     56          1           0        6.441037    0.101018   -1.564047
     57          1           0        4.788165   -0.482250    0.179737
     58          1           0        2.910361    1.852425    0.747778
     59         28           0       -1.077018   -0.943659   -1.040099
     60          9           0       -1.169171   -2.459289    0.043615
     61          9           0       -0.547449   -0.738202   -2.802253
 ---------------------------------------------------------------------
 Rotational constants (GHZ):           0.1617383           0.0871093           0.0803596
 Basis read from rwf:  (6D, 7F)
 Pseudo-potential data read from rwf file.
 There are   613 symmetry adapted cartesian basis functions of A   symmetry.
 There are   610 symmetry adapted basis functions of A   symmetry.
   610 basis functions,  1162 primitive gaussians,   613 cartesian basis functions
   126 alpha electrons      124 beta electrons
       nuclear repulsion energy      3837.1621746586 Hartrees.
 NAtoms=   61 NActive=   61 NUniq=   61 SFac= 1.00D+00 NAtFMM=   60 NAOKFM=T Big=T
 Integral buffers will be    131072 words long.
 Raffenetti 2 integral format.
 Two-electron integral symmetry is turned on.
 Nuclear repulsion after empirical dispersion term =     3837.0111212181 Hartrees.
 One-electron integrals computed using PRISM.
 PrsmSu:  requested number of processors reduced to:  12 ShMem   1 Linda.
   1 Symmetry operations used in ECPInt.
 ECPInt:  NShTT=   21115 NPrTT=  128985 LenC2=   17146 LenP2D=   56039.
 LDataN:  DoStor=T MaxTD1= 6 Len=  172
 Number of processors reduced to  12 by ecpmxn.
 NBasis=   610 RedAO= T EigKep=  6.98D-06  NBF=   610
 NBsUse=   609 1.00D-06 EigRej=  9.86D-07 NBFU=   609
 Initial guess from the checkpoint file:  "Lig2126_xyz_2.chk"
 B after Tr=     0.000000   -0.000000   -0.000000
         Rot=    0.999752   -0.018083    0.008258    0.009996 Ang=  -2.55 deg.
 Initial guess <Sx>= 0.0000 <Sy>= 0.0000 <Sz>= 1.0000 <S**2>= 2.0069 S= 1.0023
 ExpMin= 2.40D-02 ExpMax= 7.14D+04 ExpMxC= 1.07D+04 IAcc=3 IRadAn=         5 AccDes= 0.00D+00
 Harris functional with IExCor=  402 and IRadAn=       5 diagonalized for initial guess.
 HarFok:  IExCor=  402 AccDes= 0.00D+00 IRadAn=         5 IDoV= 1 UseB2=F ITyADJ=14
 ICtDFT=  3500011 ScaDFX=  1.000000  1.000000  1.000000  1.000000
 FoFCou: FMM=F IPFlag=           0 FMFlag=      100000 FMFlg1=        2001
         NFxFlg=           0 DoJE=T BraDBF=F KetDBF=T FulRan=T
         wScrn=  0.000000 ICntrl=       500 IOpCl=  0 I1Cent=   200000004 NGrid=           0
         NMat0=    1 NMatS0=      1 NMatT0=    0 NMatD0=    1 NMtDS0=    0 NMtDT0=    0
 Petite list used in FoFCou.
 Requested convergence on RMS density matrix=1.00D-08 within 128 cycles.
 Requested convergence on MAX density matrix=1.00D-06.
 Requested convergence on             energy=1.00D-06.
 No special actions if energy rises.
 Restarting incremental Fock formation.
 SCF Done:  E(UB3LYP) =  -1636.87629842     A.U. after   26 cycles
            NFock= 26  Conv=0.89D-08     -V/T= 2.0484
 <Sx>= 0.0000 <Sy>= 0.0000 <Sz>= 1.0000 <S**2>= 2.0063 S= 1.0021
 <L.S>=  0.00000000000    
 Annihilation of the first spin contaminant:
 S**2 before annihilation     2.0063,   after     2.0000
 PrsmSu:  requested number of processors reduced to:  12 ShMem   1 Linda.
   1 Symmetry operations used in ECPInt.
 ECPInt:  NShTT=   21115 NPrTT=  128985 LenC2=   17146 LenP2D=   56039.
 LDataN:  DoStor=T MaxTD1= 7 Len=  274
 Number of processors reduced to  13 by ecpmxn.
 Calling FoFJK, ICntrl=      2127 FMM=T ISym2X=0 I1Cent= 0 IOpClX= 1 NMat=1 NMatS=1 NMatT=0.
 ***** Axes restored to original set *****
 -------------------------------------------------------------------
 Center     Atomic                   Forces (Hartrees/Bohr)
 Number     Number              X              Y              Z
 -------------------------------------------------------------------
      1        6          -0.000080408    0.000677856    0.000562153
      2        8          -0.000041767    0.000852505    0.000591899
      3        6          -0.001223549   -0.000392330   -0.002865355
      4        6          -0.000541014    0.001517259   -0.000279611
      5        6          -0.000878142    0.001527549    0.001549762
      6        6          -0.000875329    0.002688160   -0.001181658
      7        7           0.007278232   -0.007764408   -0.003653999
      8        6           0.000255206   -0.001089151    0.000434174
      9        6           0.000149733   -0.000125340    0.001671189
     10        6          -0.001535967   -0.000704306    0.000675029
     11        6           0.000062291    0.001657679    0.001541466
     12        6          -0.000364495   -0.000352800   -0.000006656
     13        6           0.001091707    0.001495490   -0.000544804
     14        8          -0.002565385    0.005271748   -0.001431475
     15        7           0.004456129   -0.003529174    0.004949901
     16        6           0.001707798    0.000997088    0.002042879
     17        6          -0.002485600    0.002072598   -0.002636036
     18        6          -0.001436095    0.000883976    0.000750618
     19        6          -0.000859155    0.000200779    0.001087523
     20        6          -0.000776502   -0.000092633    0.000376190
     21        6           0.000259950    0.000227992   -0.000191281
     22        6           0.000182464   -0.000419889   -0.000075866
     23        6          -0.001016496   -0.002587027   -0.000399569
     24        6          -0.000656563    0.000895828   -0.002317846
     25        6           0.003534525    0.000980859   -0.000946777
     26        6           0.000497024    0.000274228    0.000426382
     27        6          -0.000615421   -0.000506019    0.000441133
     28        6           0.000107427    0.000101707   -0.000011224
     29        6          -0.000283530    0.000270152   -0.003233574
     30        6           0.000248077   -0.002590827   -0.000507029
     31        1           0.000371294   -0.000103648    0.000771325
     32        1          -0.000603228    0.000008673    0.000146384
     33        1           0.000385054    0.000462442   -0.000280573
     34        1           0.000519468   -0.001112966    0.000099878
     35        1           0.001135406   -0.000950543   -0.000996053
     36        1          -0.000305621   -0.000647540   -0.000413277
     37        1          -0.000716252    0.000707107   -0.000009781
     38        1          -0.000173407    0.000105913    0.001425038
     39        1           0.000341937    0.000611662   -0.001275456
     40        1          -0.002057276    0.001982726    0.005856673
     41        1           0.000285063    0.000680817    0.001024993
     42        1           0.000480675   -0.000125633    0.000432260
     43        1          -0.000672131   -0.000603885    0.000070625
     44        1           0.000137689    0.000011873   -0.000685306
     45        1          -0.000461611    0.000669033    0.000319734
     46        1          -0.000812035    0.000168376    0.000142169
     47        1          -0.001828265   -0.001432023   -0.001020278
     48        1          -0.000253396    0.000435889    0.000357604
     49        1           0.000265948   -0.000282475   -0.000299072
     50        1           0.000874674    0.000083222   -0.000028745
     51        1           0.000287910    0.000509146    0.000333180
     52        1          -0.001668670   -0.000303870    0.001743442
     53        1           0.000397408    0.001110111   -0.000768111
     54        1          -0.000554148   -0.000350503   -0.000119893
     55        1          -0.000506033   -0.000239551    0.000673267
     56        1           0.000240151    0.000218407    0.000431968
     57        1           0.002157791    0.002154341   -0.001593559
     58        1           0.000278703   -0.000111915    0.000820578
     59       28          -0.001347724    0.003568665   -0.003113559
     60        9           0.004133559   -0.003778765   -0.003960988
     61        9          -0.003928076   -0.005884635    0.003097996
 -------------------------------------------------------------------
 Cartesian Forces:  Max     0.007764408 RMS     0.001759190

 GradGradGradGradGradGradGradGradGradGradGradGradGradGradGradGradGradGrad
 Berny optimization.
 Using GEDIIS/GDIIS optimizer.
 FormGI is forming the generalized inverse of G from B-inverse, IUseBI=4.
 Internal  Forces:  Max     0.013119667 RMS     0.002491005
 Search for a local minimum.
 Step number   7 out of a maximum of  362
 All quantities printed in internal units (Hartrees-Bohrs-Radians)
 Mixed Optimization -- RFO/linear search
 Update second derivatives using D2CorX and points    5    7    6
 DE=  1.24D-03 DEPred=-3.62D-03 R=-3.43D-01
 Trust test=-3.43D-01 RLast= 5.50D-01 DXMaxT set to 7.14D-01
 ITU= -1  1  0  1  1  1  0
 Use linear search instead of GDIIS.
     Eigenvalues ---    0.00224   0.00230   0.00230   0.00241   0.00253
     Eigenvalues ---    0.00557   0.00615   0.01092   0.01344   0.01382
     Eigenvalues ---    0.01391   0.01519   0.01790   0.01973   0.02009
     Eigenvalues ---    0.02037   0.02053   0.02070   0.02080   0.02088
     Eigenvalues ---    0.02101   0.02118   0.02125   0.02136   0.02160
     Eigenvalues ---    0.02168   0.02169   0.02185   0.02189   0.02190
     Eigenvalues ---    0.02191   0.02192   0.02192   0.02194   0.02194
     Eigenvalues ---    0.02201   0.02324   0.02470   0.03217   0.03659
     Eigenvalues ---    0.03953   0.04067   0.04530   0.04545   0.04817
     Eigenvalues ---    0.04947   0.05180   0.05219   0.05290   0.05324
     Eigenvalues ---    0.05572   0.05618   0.05621   0.05787   0.05966
     Eigenvalues ---    0.06721   0.07142   0.07558   0.09965   0.10078
     Eigenvalues ---    0.10706   0.10729   0.11307   0.11476   0.13966
     Eigenvalues ---    0.14205   0.14359   0.14394   0.15345   0.15812
     Eigenvalues ---    0.15979   0.15997   0.15998   0.15999   0.15999
     Eigenvalues ---    0.15999   0.15999   0.15999   0.16000   0.16000
     Eigenvalues ---    0.16000   0.16000   0.16000   0.16000   0.16000
     Eigenvalues ---    0.16000   0.16000   0.16000   0.16016   0.16039
     Eigenvalues ---    0.16111   0.16386   0.17158   0.18675   0.19771
     Eigenvalues ---    0.20107   0.20268   0.20990   0.21524   0.21996
     Eigenvalues ---    0.22000   0.22030   0.22065   0.23464   0.23507
     Eigenvalues ---    0.23578   0.23584   0.24279   0.24405   0.24733
     Eigenvalues ---    0.24814   0.24944   0.25041   0.26183   0.26413
     Eigenvalues ---    0.26952   0.27696   0.27832   0.27898   0.28015
     Eigenvalues ---    0.28271   0.29575   0.30199   0.31742   0.34498
     Eigenvalues ---    0.34552   0.34637   0.34666   0.34683   0.34691
     Eigenvalues ---    0.34696   0.34700   0.34714   0.34742   0.34804
     Eigenvalues ---    0.34846   0.34869   0.34889   0.35000   0.35136
     Eigenvalues ---    0.35732   0.35832   0.35892   0.35947   0.35953
     Eigenvalues ---    0.35956   0.35957   0.35968   0.36002   0.36078
     Eigenvalues ---    0.36215   0.36277   0.37549   0.40015   0.40297
     Eigenvalues ---    0.41552   0.41927   0.42041   0.42124   0.42162
     Eigenvalues ---    0.42261   0.44450   0.45415   0.45706   0.45758
     Eigenvalues ---    0.46169   0.46273   0.46409   0.46905   0.46940
     Eigenvalues ---    0.46978   0.47068   0.48244   0.49823   0.50034
     Eigenvalues ---    0.52765   0.67093
 RFO step:  Lambda=-2.43259637D-03 EMin= 2.23600798D-03
 Quartic linear search produced a step of -0.56483.
 Iteration  1 RMS(Cart)=  0.09498855 RMS(Int)=  0.00225053
 Iteration  2 RMS(Cart)=  0.00403439 RMS(Int)=  0.00004781
 Iteration  3 RMS(Cart)=  0.00001015 RMS(Int)=  0.00004748
 Iteration  4 RMS(Cart)=  0.00000000 RMS(Int)=  0.00004748
 Variable       Old X    -DE/DX   Delta X   Delta X   Delta X     New X
                                 (Linear)    (Quad)   (Total)
    R1        2.69441  -0.00021   0.00219  -0.00241  -0.00022   2.69419
    R2        2.06102  -0.00044  -0.00142   0.00048  -0.00094   2.06008
    R3        2.07327  -0.00053  -0.00214   0.00096  -0.00118   2.07209
    R4        2.07342  -0.00056  -0.00231   0.00111  -0.00120   2.07222
    R5        2.54690  -0.00251   0.00259  -0.00580  -0.00321   2.54369
    R6        2.65642  -0.00038   0.00077  -0.00141  -0.00063   2.65579
    R7        2.64659  -0.00145  -0.00144   0.00009  -0.00135   2.64524
    R8        2.62162  -0.00142   0.00092  -0.00183  -0.00090   2.62072
    R9        2.04144   0.00106   0.00050   0.00139   0.00189   2.04333
   R10        2.77747  -0.00096  -0.00202   0.00113  -0.00088   2.77659
   R11        2.55215  -0.00466  -0.01269   0.00259  -0.01010   2.54205
   R12        2.43298  -0.00276  -0.01393   0.00628  -0.00766   2.42532
   R13        2.53935  -0.00605  -0.00522  -0.00110  -0.00633   2.53302
   R14        2.77251   0.01132  -0.00033   0.00731   0.00697   2.77948
   R15        3.84442   0.00337  -0.00252   0.01060   0.00808   3.85251
   R16        2.91758   0.01036   0.01640   0.00429   0.02069   2.93826
   R17        2.95005  -0.00314  -0.01008   0.00422  -0.00585   2.94420
   R18        2.07008   0.00005  -0.00051   0.00061   0.00010   2.07018
   R19        2.89879   0.00231   0.00420   0.00008   0.00428   2.90307
   R20        2.90421   0.00236   0.00399  -0.00065   0.00334   2.90756
   R21        2.90597  -0.00046   0.00102   0.00019   0.00121   2.90718
   R22        2.06991  -0.00020  -0.00078   0.00053  -0.00026   2.06965
   R23        2.07584  -0.00088  -0.00226   0.00097  -0.00129   2.07456
   R24        2.07133  -0.00125  -0.00273   0.00030  -0.00242   2.06891
   R25        2.07392  -0.00085  -0.00198   0.00063  -0.00135   2.07257
   R26        2.07316  -0.00456  -0.00439  -0.00074  -0.00514   2.06803
   R27        2.07412   0.00060  -0.00117   0.00141   0.00025   2.07436
   R28        2.06983  -0.00013  -0.00069   0.00037  -0.00032   2.06950
   R29        2.07538  -0.00090  -0.00257   0.00108  -0.00149   2.07389
   R30        2.07487  -0.00024  -0.00252   0.00064  -0.00188   2.07299
   R31        2.77313  -0.00370   0.00227  -0.00195   0.00034   2.77347
   R32        2.05969   0.00010  -0.00091   0.00014  -0.00078   2.05892
   R33        2.06578  -0.00079  -0.00260   0.00061  -0.00200   2.06378
   R34        2.52957   0.00594   0.00883  -0.00472   0.00411   2.53367
   R35        3.90114  -0.00373  -0.01003   0.00466  -0.00538   3.89576
   R36        2.84923   0.00822   0.01659  -0.00087   0.01571   2.86494
   R37        2.62534   0.00235   0.00552  -0.00178   0.00373   2.62907
   R38        2.87066   0.00440   0.00813  -0.00179   0.00634   2.87700
   R39        2.86937   0.00919   0.01624  -0.00300   0.01324   2.88261
   R40        2.06928  -0.00198  -0.00584   0.00267  -0.00317   2.06610
   R41        2.64386   0.00211   0.00411  -0.00062   0.00349   2.64735
   R42        2.64506   0.00225   0.00269  -0.00041   0.00229   2.64735
   R43        2.63634  -0.00010  -0.00020  -0.00014  -0.00035   2.63599
   R44        2.05319   0.00040   0.00003   0.00021   0.00024   2.05342
   R45        2.63703  -0.00076  -0.00117  -0.00005  -0.00122   2.63580
   R46        2.05439  -0.00049  -0.00164   0.00065  -0.00099   2.05339
   R47        2.63836  -0.00071  -0.00162   0.00085  -0.00078   2.63758
   R48        2.05554  -0.00088  -0.00233   0.00068  -0.00164   2.05390
   R49        2.63737  -0.00098  -0.00161   0.00018  -0.00143   2.63594
   R50        2.05531  -0.00067  -0.00208   0.00075  -0.00134   2.05398
   R51        2.05412  -0.00184  -0.00356   0.00097  -0.00259   2.05153
   R52        2.64573   0.00469   0.00632  -0.00005   0.00626   2.65199
   R53        2.63481   0.00324   0.00411  -0.00185   0.00225   2.63706
   R54        2.63437  -0.00112  -0.00139  -0.00028  -0.00167   2.63270
   R55        2.06065  -0.00025  -0.00175   0.00128  -0.00048   2.06018
   R56        2.64157  -0.00122  -0.00201   0.00111  -0.00089   2.64068
   R57        2.05527  -0.00066  -0.00197   0.00076  -0.00120   2.05407
   R58        2.63649  -0.00169  -0.00269   0.00049  -0.00220   2.63429
   R59        2.05559  -0.00087  -0.00213   0.00054  -0.00159   2.05400
   R60        2.64297  -0.00095  -0.00215   0.00111  -0.00105   2.64192
   R61        2.05521  -0.00053  -0.00177   0.00066  -0.00111   2.05411
   R62        2.05090  -0.00285  -0.00361   0.00080  -0.00281   2.04809
   R63        2.04815  -0.00084  -0.00159   0.00039  -0.00120   2.04695
   R64        3.52527  -0.00584  -0.03335   0.00619  -0.02716   3.49811
   R65        3.49872  -0.00738  -0.02761  -0.00049  -0.02810   3.47063
    A1        1.83576   0.00141   0.00696  -0.00188   0.00509   1.84085
    A2        1.94078  -0.00036  -0.00119  -0.00071  -0.00190   1.93888
    A3        1.94090  -0.00040  -0.00116  -0.00095  -0.00210   1.93880
    A4        1.91323  -0.00013  -0.00117   0.00182   0.00065   1.91388
    A5        1.91316  -0.00011  -0.00133   0.00202   0.00069   1.91385
    A6        1.91829  -0.00034  -0.00185  -0.00024  -0.00209   1.91620
    A7        2.08388  -0.00636  -0.00795  -0.01104  -0.01900   2.06488
    A8        2.18412  -0.00452  -0.00630  -0.00560  -0.01190   2.17222
    A9        2.02108   0.00367   0.00677   0.00273   0.00951   2.03059
   A10        2.07798   0.00085  -0.00047   0.00285   0.00238   2.08036
   A11        2.03925   0.00125   0.00156  -0.00131   0.00027   2.03952
   A12        2.15380  -0.00128  -0.00439   0.00104  -0.00336   2.15045
   A13        2.08987   0.00003   0.00286   0.00019   0.00304   2.09292
   A14        2.16644  -0.00106   0.00006  -0.00110  -0.00105   2.16538
   A15        2.16267  -0.00084  -0.00243  -0.00028  -0.00270   2.15997
   A16        1.95393   0.00189   0.00231   0.00134   0.00365   1.95758
   A17        2.09998   0.00506   0.00506   0.00527   0.01034   2.11032
   A18        2.11420  -0.00487  -0.00032  -0.00722  -0.00754   2.10666
   A19        2.06900  -0.00019  -0.00474   0.00195  -0.00279   2.06621
   A20        1.89241  -0.00008   0.00611  -0.00122   0.00493   1.89733
   A21        1.97321  -0.00763  -0.00766  -0.00639  -0.01404   1.95917
   A22        2.41706   0.00772   0.00094   0.00851   0.00947   2.42653
   A23        1.91937   0.01312   0.02014   0.02220   0.04249   1.96186
   A24        1.78827  -0.00479  -0.00291  -0.00209  -0.00501   1.78327
   A25        1.89557  -0.00138  -0.00461  -0.00185  -0.00656   1.88901
   A26        2.04045  -0.00665  -0.01192  -0.00260  -0.01483   2.02563
   A27        1.87824  -0.00074   0.00470  -0.00735  -0.00279   1.87545
   A28        1.93716   0.00094  -0.00528  -0.00717  -0.01250   1.92466
   A29        1.92519   0.00052   0.00235   0.00518   0.00756   1.93275
   A30        1.88124   0.00555   0.01663   0.00553   0.02212   1.90336
   A31        1.89957  -0.00369  -0.00927  -0.00244  -0.01164   1.88792
   A32        1.90294  -0.00064   0.00237  -0.00086   0.00143   1.90437
   A33        1.93928   0.00114  -0.00559   0.00014  -0.00544   1.93384
   A34        1.91472  -0.00277  -0.00616  -0.00746  -0.01363   1.90110
   A35        1.91271   0.00085   0.00544  -0.00217   0.00328   1.91599
   A36        1.96270   0.00033  -0.00150   0.00148  -0.00002   1.96267
   A37        1.92842   0.00048   0.00245  -0.00200   0.00046   1.92888
   A38        1.87585  -0.00067  -0.00267   0.00021  -0.00246   1.87339
   A39        1.88187  -0.00084  -0.00184  -0.00048  -0.00230   1.87958
   A40        1.89986  -0.00024  -0.00212   0.00297   0.00085   1.90070
   A41        1.90729   0.00046   0.00389  -0.00242   0.00146   1.90875
   A42        1.95389   0.00349   0.00273  -0.00233   0.00040   1.95430
   A43        1.93570  -0.00051   0.00257   0.00053   0.00311   1.93881
   A44        1.88839  -0.00298  -0.01234  -0.00127  -0.01362   1.87477
   A45        1.88270  -0.00079  -0.00531   0.00052  -0.00478   1.87792
   A46        1.89393   0.00011   0.00765   0.00504   0.01271   1.90664
   A47        1.91144   0.00113   0.00709  -0.00266   0.00443   1.91588
   A48        1.93946   0.00008   0.00145  -0.00066   0.00080   1.94026
   A49        1.96983  -0.00100  -0.00416   0.00284  -0.00133   1.96850
   A50        1.87967  -0.00038  -0.00188   0.00026  -0.00160   1.87806
   A51        1.87264   0.00000  -0.00190   0.00025  -0.00167   1.87097
   A52        1.88750   0.00018  -0.00076  -0.00006  -0.00082   1.88668
   A53        1.83214   0.00236  -0.00303   0.00471   0.00174   1.83387
   A54        1.99954  -0.00230   0.00148  -0.00422  -0.00271   1.99683
   A55        1.97345   0.00052   0.00045   0.00118   0.00157   1.97502
   A56        1.86864   0.00162  -0.00099  -0.00069  -0.00180   1.86683
   A57        1.86737  -0.00266  -0.00034   0.00035   0.00009   1.86746
   A58        1.91314   0.00053   0.00194  -0.00086   0.00109   1.91423
   A59        1.83612   0.00247   0.00224   0.00054   0.00286   1.83897
   A60        2.08027   0.00215   0.00874  -0.00108   0.00764   2.08791
   A61        1.99064  -0.00293  -0.00402  -0.00122  -0.00526   1.98538
   A62        2.19802   0.00079  -0.00539   0.00163  -0.00373   2.19428
   A63        2.00556   0.00579   0.01740  -0.00702   0.01043   2.01599
   A64        2.11118  -0.00290  -0.00968   0.00369  -0.00600   2.10518
   A65        2.16645  -0.00289  -0.00779   0.00333  -0.00443   2.16202
   A66        1.92533  -0.00411   0.00930  -0.01193  -0.00269   1.92263
   A67        1.92142   0.00008   0.00032   0.00280   0.00319   1.92461
   A68        1.83710   0.00125  -0.00526   0.00037  -0.00498   1.83212
   A69        2.06340   0.00658   0.00633   0.01201   0.01842   2.08182
   A70        1.85760  -0.00185  -0.01646   0.00528  -0.01123   1.84637
   A71        1.84238  -0.00244   0.00289  -0.00939  -0.00647   1.83591
   A72        2.05436  -0.00150  -0.00102  -0.00124  -0.00228   2.05208
   A73        2.15216   0.00283   0.00317   0.00054   0.00369   2.15585
   A74        2.07589  -0.00137  -0.00248   0.00048  -0.00199   2.07390
   A75        2.10124   0.00022   0.00029   0.00044   0.00076   2.10200
   A76        2.07857   0.00036  -0.00017   0.00138   0.00121   2.07978
   A77        2.10166  -0.00058  -0.00052  -0.00163  -0.00215   2.09951
   A78        2.10198  -0.00002  -0.00070  -0.00010  -0.00079   2.10119
   A79        2.08354   0.00002   0.00090  -0.00051   0.00038   2.08392
   A80        2.09761  -0.00001  -0.00020   0.00061   0.00040   2.09801
   A81        2.08428   0.00059   0.00171  -0.00052   0.00121   2.08549
   A82        2.10091  -0.00026  -0.00071   0.00016  -0.00054   2.10037
   A83        2.09792  -0.00034  -0.00109   0.00039  -0.00070   2.09722
   A84        2.09698   0.00033  -0.00012   0.00057   0.00046   2.09744
   A85        2.09801  -0.00013   0.00013  -0.00010   0.00003   2.09804
   A86        2.08819  -0.00019  -0.00001  -0.00048  -0.00050   2.08769
   A87        2.10521   0.00022   0.00076  -0.00065   0.00014   2.10535
   A88        2.09936   0.00094   0.00428  -0.00116   0.00312   2.10248
   A89        2.07858  -0.00116  -0.00511   0.00182  -0.00329   2.07529
   A90        2.02678  -0.00276   0.00449  -0.00725  -0.00273   2.02405
   A91        2.16912   0.00623  -0.00087   0.00712   0.00627   2.17539
   A92        2.08713  -0.00347  -0.00380   0.00031  -0.00349   2.08365
   A93        2.09658   0.00109  -0.00066   0.00137   0.00070   2.09727
   A94        2.07897   0.00065   0.00826  -0.00436   0.00391   2.08287
   A95        2.10756  -0.00174  -0.00756   0.00278  -0.00477   2.10279
   A96        2.10084   0.00013   0.00109  -0.00113  -0.00003   2.10081
   A97        2.08498   0.00002  -0.00018   0.00023   0.00005   2.08503
   A98        2.09733  -0.00015  -0.00090   0.00086  -0.00004   2.09729
   A99        2.08452   0.00066   0.00195  -0.00081   0.00115   2.08567
   A100       2.09920  -0.00023  -0.00023  -0.00005  -0.00028   2.09892
   A101       2.09942  -0.00043  -0.00174   0.00083  -0.00091   2.09851
   A102       2.09992   0.00068  -0.00101   0.00134   0.00032   2.10024
   A103       2.09764  -0.00043  -0.00044   0.00044   0.00000   2.09764
   A104       2.08558  -0.00025   0.00146  -0.00178  -0.00032   2.08526
   A105       2.09725   0.00091   0.00242  -0.00117   0.00125   2.09850
   A106       2.09583   0.00133   0.00360  -0.00007   0.00355   2.09938
   A107       2.08974  -0.00224  -0.00623   0.00138  -0.00483   2.08490
   A108       2.09381  -0.00049   0.00244  -0.00391  -0.00148   2.09233
   A109       2.08338  -0.00001  -0.00526   0.00441  -0.00083   2.08255
   A110       2.10590   0.00050   0.00270  -0.00042   0.00230   2.10821
   A111       1.39298   0.00383   0.00337   0.00364   0.00700   1.39997
   A112       1.88294   0.00143   0.01446  -0.02519  -0.01082   1.87212
   A113       1.96081  -0.00190   0.00577  -0.01524  -0.00945   1.95136
   A114       1.89378  -0.00320  -0.00628  -0.01362  -0.01990   1.87388
   A115       1.83233  -0.00330   0.00627  -0.03603  -0.02973   1.80260
   A116       2.28789   0.00278  -0.01685   0.05890   0.04191   2.32980
    D1       -3.13985  -0.00001  -0.00003  -0.00061  -0.00065  -3.14050
    D2       -1.07021   0.00048   0.00207   0.00007   0.00214  -1.06807
    D3        1.07371  -0.00050  -0.00197  -0.00141  -0.00338   1.07034
    D4       -0.00638   0.00014  -0.00079   0.00290   0.00210  -0.00428
    D5        3.13146  -0.00011  -0.00125   0.00071  -0.00052   3.13093
    D6        3.11953  -0.00005   0.00050  -0.00001   0.00049   3.12002
    D7        0.00260   0.00013  -0.00130   0.00372   0.00242   0.00502
    D8       -0.01820   0.00019   0.00095   0.00224   0.00318  -0.01502
    D9       -3.13513   0.00038  -0.00085   0.00597   0.00511  -3.13002
   D10        3.12533   0.00005   0.00161  -0.00241  -0.00080   3.12453
   D11       -0.03095   0.00007  -0.00515   0.00356  -0.00158  -0.03253
   D12       -0.01978  -0.00019   0.00116  -0.00448  -0.00331  -0.02309
   D13        3.10713  -0.00017  -0.00560   0.00150  -0.00409   3.10303
   D14       -3.09257   0.00082   0.00260   0.00568   0.00832  -3.08425
   D15        0.02886   0.00011  -0.00105   0.00329   0.00225   0.03111
   D16        0.02531   0.00062   0.00424   0.00211   0.00637   0.03167
   D17       -3.13645  -0.00009   0.00059  -0.00028   0.00029  -3.13616
   D18        3.05686  -0.00048   0.00400  -0.01654  -0.01264   3.04422
   D19       -0.08312  -0.00041   0.00367  -0.01747  -0.01381  -0.09694
   D20       -0.06669   0.00018   0.00733  -0.01439  -0.00713  -0.07382
   D21        3.07651   0.00025   0.00701  -0.01532  -0.00830   3.06821
   D22        0.00083  -0.00045  -0.00112  -0.00652  -0.00764  -0.00682
   D23       -2.97081  -0.00055   0.00343  -0.00273   0.00067  -2.97013
   D24        3.12442  -0.00111  -0.00440  -0.00868  -0.01312   3.11131
   D25        0.15279  -0.00121   0.00014  -0.00488  -0.00480   0.14799
   D26        3.11363   0.00036   0.00096   0.00123   0.00227   3.11590
   D27       -0.05578   0.00090  -0.01099   0.02612   0.01499  -0.04080
   D28       -0.02953   0.00029   0.00128   0.00213   0.00341  -0.02611
   D29        3.08424   0.00083  -0.01067   0.02702   0.01613   3.10037
   D30        3.09473  -0.00156  -0.01169   0.01960   0.00781   3.10254
   D31       -0.04529  -0.00149  -0.01202   0.01868   0.00665  -0.03863
   D32       -2.09688   0.00474   0.01496  -0.02794  -0.01304  -2.10992
   D33        0.08464   0.00086   0.00960  -0.02064  -0.01109   0.07355
   D34        2.13513  -0.00103   0.00030  -0.03062  -0.03039   2.10474
   D35        1.08334   0.00445   0.03185  -0.06203  -0.03034   1.05300
   D36       -3.01832   0.00057   0.02650  -0.05473  -0.02839  -3.04671
   D37       -0.96783  -0.00131   0.01720  -0.06471  -0.04769  -1.01552
   D38        0.10530  -0.00124   0.00803  -0.02130  -0.01312   0.09218
   D39        1.96079  -0.00366   0.00112  -0.03229  -0.03112   1.92968
   D40       -1.67723   0.00070   0.00041   0.01496   0.01552  -1.66171
   D41       -3.07613  -0.00082  -0.00902   0.01394   0.00489  -3.07124
   D42       -1.22063  -0.00324  -0.01593   0.00295  -0.01311  -1.23374
   D43        1.42452   0.00112  -0.01664   0.05020   0.03353   1.45805
   D44        1.03467  -0.00311  -0.04324  -0.02197  -0.06513   0.96953
   D45       -1.04116  -0.00596  -0.05787  -0.02721  -0.08506  -1.12622
   D46       -3.11672  -0.00376  -0.05463  -0.02009  -0.07469   3.09178
   D47       -0.99384  -0.00230  -0.04637  -0.03408  -0.08039  -1.07423
   D48       -3.06967  -0.00515  -0.06100  -0.03932  -0.10032   3.11319
   D49        1.13796  -0.00295  -0.05776  -0.03220  -0.08995   1.04801
   D50        3.09658   0.00208  -0.03437  -0.01617  -0.05057   3.04601
   D51        1.02075  -0.00077  -0.04901  -0.02141  -0.07050   0.95026
   D52       -1.05481   0.00143  -0.04576  -0.01428  -0.06012  -1.11493
   D53       -0.10712  -0.00161  -0.01510   0.02994   0.01472  -0.09240
   D54       -2.15170  -0.00390  -0.01270   0.02998   0.01724  -2.13446
   D55        1.92232  -0.00310  -0.01711   0.03382   0.01668   1.93900
   D56        1.99239   0.00768   0.00132   0.05476   0.05592   2.04832
   D57       -0.05219   0.00539   0.00372   0.05480   0.05845   0.00626
   D58       -2.26135   0.00619  -0.00069   0.05863   0.05789  -2.20346
   D59       -2.12774   0.00213  -0.00606   0.03629   0.03010  -2.09764
   D60        2.11086  -0.00016  -0.00366   0.03633   0.03263   2.14349
   D61       -0.09830   0.00064  -0.00808   0.04016   0.03207  -0.06624
   D62        3.12327  -0.00337  -0.00974  -0.01438  -0.02411   3.09916
   D63        1.03805  -0.00332  -0.00909  -0.01412  -0.02321   1.01484
   D64       -1.08866  -0.00358  -0.00708  -0.01753  -0.02462  -1.11328
   D65       -1.09736   0.00331   0.01359  -0.00510   0.00849  -1.08887
   D66        3.10061   0.00336   0.01423  -0.00485   0.00939   3.10999
   D67        0.97390   0.00310   0.01624  -0.00826   0.00798   0.98188
   D68        1.01506   0.00017   0.00397  -0.01488  -0.01090   1.00416
   D69       -1.07016   0.00022   0.00462  -0.01462  -0.01000  -1.08016
   D70        3.08631  -0.00003   0.00663  -0.01803  -0.01141   3.07491
   D71       -3.03703   0.00260   0.00169   0.05540   0.05711  -2.97991
   D72        1.15446   0.00381   0.01282   0.06008   0.07290   1.22736
   D73       -0.96370   0.00161  -0.00083   0.05485   0.05404  -0.90966
   D74        1.15618  -0.00088  -0.01257   0.04646   0.03392   1.19010
   D75       -0.93552   0.00033  -0.00144   0.05114   0.04971  -0.88581
   D76       -3.05367  -0.00187  -0.01509   0.04591   0.03085  -3.02283
   D77       -0.97117  -0.00015  -0.00335   0.05153   0.04816  -0.92301
   D78       -3.06287   0.00106   0.00778   0.05620   0.06395  -2.99892
   D79        1.10216  -0.00114  -0.00587   0.05098   0.04508   1.14724
   D80        3.06581   0.00151   0.01079  -0.00552   0.00529   3.07110
   D81        0.99130   0.00121   0.00765  -0.00374   0.00394   0.99524
   D82       -1.13248   0.00163   0.01054  -0.00521   0.00536  -1.12712
   D83       -1.09413   0.00044   0.00422  -0.00059   0.00362  -1.09051
   D84        3.11454   0.00014   0.00108   0.00120   0.00227   3.11681
   D85        0.99076   0.00056   0.00397  -0.00027   0.00369   0.99446
   D86        1.01134  -0.00145  -0.00035  -0.00650  -0.00687   1.00447
   D87       -1.06317  -0.00175  -0.00349  -0.00472  -0.00822  -1.07139
   D88        3.09624  -0.00132  -0.00060  -0.00618  -0.00680   3.08944
   D89        0.09349   0.00228   0.01659  -0.02910  -0.01260   0.08089
   D90        2.22556   0.00168   0.01621  -0.03187  -0.01575   2.20981
   D91       -2.00771   0.00177   0.01778  -0.03304  -0.01535  -2.02306
   D92        3.10025   0.00017  -0.00556   0.01183   0.00635   3.10660
   D93       -0.04143   0.00056   0.00366   0.00384   0.00752  -0.03391
   D94       -0.23328  -0.00008  -0.01028   0.00720  -0.00299  -0.23627
   D95        2.90823   0.00031  -0.00106  -0.00079  -0.00182   2.90640
   D96       -0.14490   0.00120  -0.00433   0.01371   0.00937  -0.13553
   D97       -1.98792  -0.00175  -0.02113   0.03803   0.01691  -1.97101
   D98        1.78538   0.00036   0.00190   0.00196   0.00380   1.78918
   D99       -3.10309   0.00098  -0.00113   0.01814   0.01700  -3.08609
   D100       1.33707  -0.00197  -0.01793   0.04246   0.02455   1.36162
   D101      -1.17282   0.00014   0.00511   0.00639   0.01143  -1.16138
   D102      -1.80033   0.00306  -0.02030   0.01441  -0.00597  -1.80630
   D103       2.17470  -0.00249  -0.03721   0.00575  -0.03145   2.14324
   D104       0.19692  -0.00036  -0.03799   0.01517  -0.02284   0.17408
   D105       1.34135   0.00265  -0.02986   0.02269  -0.00718   1.33417
   D106      -0.96681  -0.00290  -0.04677   0.01404  -0.03267  -0.99947
   D107      -2.94458  -0.00076  -0.04755   0.02345  -0.02405  -2.96864
   D108       0.05104  -0.00031  -0.00381   0.00150  -0.00232   0.04872
   D109      -3.07567  -0.00032   0.00317  -0.00460  -0.00150  -3.07717
   D110      -3.09064   0.00011   0.00606  -0.00726  -0.00105  -3.09170
   D111       0.06583   0.00011   0.01303  -0.01336  -0.00023   0.06560
   D112       1.88819  -0.00051   0.07447  -0.12912  -0.05457   1.83362
   D113      -1.21035   0.00043   0.08234  -0.12327  -0.04086  -1.25122
   D114      -2.16260   0.00147   0.09009  -0.12598  -0.03591  -2.19852
   D115       1.02203   0.00240   0.09795  -0.12013  -0.02220   0.99983
   D116      -0.09602   0.00101   0.08504  -0.12658  -0.04159  -0.13761
   D117       3.08861   0.00194   0.09291  -0.12073  -0.02787   3.06074
   D118      -1.29472   0.00048   0.00583   0.07170   0.07756  -1.21715
   D119       1.82833   0.00056  -0.00248   0.08321   0.08080   1.90912
   D120       2.75424   0.00050  -0.01382   0.07554   0.06164   2.81588
   D121      -0.40590   0.00058  -0.02213   0.08705   0.06488  -0.34102
   D122       0.67967   0.00071   0.00137   0.06856   0.06991   0.74958
   D123      -2.48047   0.00079  -0.00694   0.08007   0.07314  -2.40733
   D124      -3.13879   0.00033  -0.00345   0.01217   0.00871  -3.13008
   D125      -0.05988   0.00048  -0.01013   0.01563   0.00549  -0.05440
   D126      -0.03830  -0.00045  -0.01077   0.00659  -0.00419  -0.04249
   D127       3.04060  -0.00031  -0.01745   0.01005  -0.00741   3.03319
   D128       3.13806  -0.00052   0.00153  -0.01038  -0.00885   3.12921
   D129       0.00475   0.00003   0.00797  -0.01226  -0.00431   0.00044
   D130       0.04002   0.00043   0.00944  -0.00442   0.00503   0.04504
   D131      -3.09330   0.00098   0.01588  -0.00630   0.00957  -3.08373
   D132       0.01010   0.00017   0.00354  -0.00327   0.00026   0.01036
   D133       3.14036   0.00015   0.00322  -0.00316   0.00006   3.14042
   D134      -3.06797  -0.00001   0.01030  -0.00689   0.00339  -3.06458
   D135       0.06229  -0.00003   0.00998  -0.00678   0.00320   0.06549
   D136       0.01694   0.00020   0.00532  -0.00235   0.00297   0.01990
   D137      -3.13752  -0.00008  -0.00020   0.00056   0.00037  -3.13715
   D138      -3.11323   0.00022   0.00563  -0.00246   0.00317  -3.11007
   D139       0.01550  -0.00006   0.00011   0.00046   0.00056   0.01606
   D140      -0.01527  -0.00023  -0.00668   0.00454  -0.00214  -0.01740
   D141       3.12121  -0.00035  -0.00664   0.00320  -0.00344   3.11777
   D142       3.13916   0.00005  -0.00117   0.00163   0.00046   3.13962
   D143      -0.00754  -0.00008  -0.00114   0.00029  -0.00084  -0.00839
   D144      -0.01343  -0.00012  -0.00083  -0.00113  -0.00194  -0.01538
   D145       3.11998  -0.00065  -0.00709   0.00072  -0.00638   3.11360
   D146       3.13325   0.00001  -0.00086   0.00020  -0.00065   3.13260
   D147      -0.01653  -0.00053  -0.00712   0.00204  -0.00509  -0.02162
   D148       3.11072  -0.00009  -0.00856   0.00611  -0.00244   3.10828
   D149      -0.04428  -0.00031  -0.00157  -0.01134  -0.01298  -0.05726
   D150      -0.01325  -0.00027  -0.00071  -0.00491  -0.00560  -0.01885
   D151       3.11493  -0.00049   0.00627  -0.02235  -0.01614   3.09879
   D152      -3.10737   0.00013   0.00748  -0.00524   0.00224  -3.10512
   D153       0.06325   0.00044   0.01462  -0.01088   0.00372   0.06697
   D154       0.01508   0.00022  -0.00095   0.00657   0.00559   0.02067
   D155      -3.09749   0.00053   0.00619   0.00093   0.00707  -3.09042
   D156       0.00098   0.00012   0.00080   0.00035   0.00116   0.00214
   D157       3.13337   0.00002   0.00275  -0.00473  -0.00196   3.13142
   D158      -3.12698   0.00032  -0.00630   0.01814   0.01176  -3.11522
   D159       0.00541   0.00022  -0.00436   0.01306   0.00864   0.01405
   D160       0.00945   0.00012   0.00085   0.00252   0.00335   0.01280
   D161       3.14085  -0.00008  -0.00033  -0.00026  -0.00060   3.14025
   D162      -3.12287   0.00022  -0.00111   0.00763   0.00649  -3.11638
   D163       0.00853   0.00002  -0.00229   0.00485   0.00254   0.01107
   D164      -0.00762  -0.00017  -0.00253  -0.00084  -0.00337  -0.01099
   D165       3.12502  -0.00023  -0.00215  -0.00139  -0.00355   3.12148
   D166      -3.13902   0.00004  -0.00135   0.00194   0.00058  -3.13844
   D167      -0.00638  -0.00003  -0.00098   0.00140   0.00040  -0.00598
   D168      -0.00466  -0.00003   0.00256  -0.00373  -0.00115  -0.00582
   D169       3.10801  -0.00028  -0.00432   0.00187  -0.00248   3.10553
   D170      -3.13737   0.00004   0.00220  -0.00319  -0.00098  -3.13835
   D171      -0.02470  -0.00021  -0.00468   0.00241  -0.00230  -0.02700
         Item               Value     Threshold  Converged?
 Maximum Force            0.013120     0.000450     NO 
 RMS     Force            0.002491     0.000300     NO 
 Maximum Displacement     0.438494     0.001800     NO 
 RMS     Displacement     0.095784     0.001200     NO 
 Predicted change in Energy=-2.717351D-03
 GradGradGradGradGradGradGradGradGradGradGradGradGradGradGradGradGradGrad

 Stoichiometry    C26H28F2N2NiO2(3)
 Framework group  C1[X(C26H28F2N2NiO2)]
 Deg. of freedom   177
 Full point group                 C1      NOp   1
 Largest Abelian subgroup         C1      NOp   1
 Largest concise Abelian subgroup C1      NOp   1
                         Standard orientation:                         
 ---------------------------------------------------------------------
 Center     Atomic      Atomic             Coordinates (Angstroms)
 Number     Number       Type             X           Y           Z
 ---------------------------------------------------------------------
      1          6           0        0.900475    5.098388    1.845387
      2          8           0        1.678932    3.956977    1.493513
      3          6           0        1.040423    2.868786    1.024431
      4          6           0       -0.351956    2.773344    0.859274
      5          6           0       -0.840982    1.585014    0.337725
      6          6           0       -2.257806    1.340383    0.035022
      7          7           0       -2.630761    0.257871   -0.544850
      8          6           0       -4.094896    0.277355   -0.683758
      9          6           0       -4.774033   -0.925308    0.030365
     10          6           0       -4.368733   -0.978158    1.511233
     11          6           0       -4.337514   -2.230122   -0.658285
     12          6           0       -6.297848   -0.770652   -0.113809
     13          6           0       -4.457866    1.690973   -0.138500
     14          8           0       -3.192786    2.244808    0.358350
     15          7           0       -0.065689    0.531678    0.023155
     16          6           0        1.260451    0.606723    0.205817
     17          6           0        2.038473   -0.649150   -0.134641
     18          6           0        2.437103   -1.380971    1.139474
     19          6           0        1.728815   -2.544182    1.467852
     20          6           0        2.035235   -3.254018    2.628889
     21          6           0        3.042741   -2.807335    3.483810
     22          6           0        3.728043   -1.629517    3.181782
     23          6           0        3.420691   -0.917091    2.022616
     24          6           0        3.103021   -0.343330   -1.183493
     25          6           0        2.629996   -0.049402   -2.471636
     26          6           0        3.524373    0.281795   -3.487170
     27          6           0        4.897972    0.321753   -3.233546
     28          6           0        5.369936    0.012443   -1.958857
     29          6           0        4.476420   -0.322580   -0.937133
     30          6           0        1.845405    1.776848    0.679306
     31          1           0        1.616855    5.843294    2.192287
     32          1           0        0.355404    5.487173    0.977016
     33          1           0        0.195146    4.861745    2.650977
     34          1           0       -1.032941    3.579535    1.094830
     35          1           0       -4.339046    0.207308   -1.749397
     36          1           0       -4.888841   -1.803771    2.008567
     37          1           0       -4.627060   -0.057052    2.049764
     38          1           0       -3.292840   -1.155994    1.608488
     39          1           0       -4.935967   -3.063583   -0.270898
     40          1           0       -3.286170   -2.463733   -0.464090
     41          1           0       -4.502449   -2.178851   -1.742318
     42          1           0       -6.801163   -1.642098    0.318135
     43          1           0       -6.591633   -0.707003   -1.169291
     44          1           0       -6.685539    0.116515    0.401932
     45          1           0       -5.153428    1.685172    0.700095
     46          1           0       -4.821255    2.369805   -0.912990
     47          1           0        1.318452   -1.299623   -0.638463
     48          1           0        0.897170   -2.852684    0.840201
     49          1           0        1.474374   -4.153489    2.867859
     50          1           0        3.283657   -3.363264    4.386141
     51          1           0        4.499989   -1.258927    3.851223
     52          1           0        3.948150    0.010161    1.821198
     53          1           0        1.560082   -0.105088   -2.673426
     54          1           0        3.146297    0.498089   -4.483049
     55          1           0        5.594281    0.579150   -4.027472
     56          1           0        6.437429    0.021779   -1.754132
     57          1           0        4.860697   -0.593300    0.039428
     58          1           0        2.921379    1.860849    0.771724
     59         28           0       -1.055395   -0.945858   -1.019602
     60          9           0       -1.147919   -2.431431    0.080920
     61          9           0       -0.496708   -0.687584   -2.749970
 ---------------------------------------------------------------------
 Rotational constants (GHZ):           0.1615393           0.0860007           0.0799465
 Basis read from rwf:  (6D, 7F)
 Pseudo-potential data read from rwf file.
 There are   613 symmetry adapted cartesian basis functions of A   symmetry.
 There are   610 symmetry adapted basis functions of A   symmetry.
   610 basis functions,  1162 primitive gaussians,   613 cartesian basis functions
   126 alpha electrons      124 beta electrons
       nuclear repulsion energy      3828.6676463942 Hartrees.
 NAtoms=   61 NActive=   61 NUniq=   61 SFac= 1.00D+00 NAtFMM=   60 NAOKFM=T Big=T
 Integral buffers will be    131072 words long.
 Raffenetti 2 integral format.
 Two-electron integral symmetry is turned on.
 Nuclear repulsion after empirical dispersion term =     3828.5174468437 Hartrees.
 One-electron integrals computed using PRISM.
 PrsmSu:  requested number of processors reduced to:  12 ShMem   1 Linda.
   1 Symmetry operations used in ECPInt.
 ECPInt:  NShTT=   21115 NPrTT=  128985 LenC2=   17088 LenP2D=   55841.
 LDataN:  DoStor=T MaxTD1= 6 Len=  172
 Number of processors reduced to  12 by ecpmxn.
 NBasis=   610 RedAO= T EigKep=  6.98D-06  NBF=   610
 NBsUse=   609 1.00D-06 EigRej=  9.82D-07 NBFU=   609
 Lowest energy guess from the checkpoint file:  "Lig2126_xyz_2.chk"
 B after Tr=     0.000000   -0.000000   -0.000000
         Rot=    0.999678   -0.023206    0.005091    0.008860 Ang=  -2.91 deg.
 B after Tr=    -0.000000   -0.000000   -0.000000
         Rot=    0.999980   -0.005233   -0.003188   -0.001220 Ang=  -0.72 deg.
 Initial guess <Sx>= 0.0000 <Sy>= 0.0000 <Sz>= 1.0000 <S**2>= 2.0066 S= 1.0022
 Requested convergence on RMS density matrix=1.00D-08 within 128 cycles.
 Requested convergence on MAX density matrix=1.00D-06.
 Requested convergence on             energy=1.00D-06.
 No special actions if energy rises.
 Restarting incremental Fock formation.
 SCF Done:  E(UB3LYP) =  -1636.87987975     A.U. after   30 cycles
            NFock= 30  Conv=0.56D-08     -V/T= 2.0485
 <Sx>= 0.0000 <Sy>= 0.0000 <Sz>= 1.0000 <S**2>= 2.0063 S= 1.0021
 <L.S>=  0.00000000000    
 Annihilation of the first spin contaminant:
 S**2 before annihilation     2.0063,   after     2.0000
 PrsmSu:  requested number of processors reduced to:  12 ShMem   1 Linda.
   1 Symmetry operations used in ECPInt.
 ECPInt:  NShTT=   21115 NPrTT=  128985 LenC2=   17088 LenP2D=   55841.
 LDataN:  DoStor=T MaxTD1= 7 Len=  274
 Number of processors reduced to  13 by ecpmxn.
 Calling FoFJK, ICntrl=      2127 FMM=T ISym2X=0 I1Cent= 0 IOpClX= 1 NMat=1 NMatS=1 NMatT=0.
 ***** Axes restored to original set *****
 -------------------------------------------------------------------
 Center     Atomic                   Forces (Hartrees/Bohr)
 Number     Number              X              Y              Z
 -------------------------------------------------------------------
      1        6          -0.000066292   -0.000361159   -0.000439998
      2        8           0.000341036   -0.000471665    0.000136045
      3        6          -0.000832632    0.000616961   -0.001135508
      4        6          -0.000112554    0.001118362    0.000443780
      5        6           0.000344137   -0.000478848    0.001603023
      6        6          -0.000822480   -0.000725272   -0.000879128
      7        7           0.001358763    0.000413070    0.000483149
      8        6          -0.000386549   -0.000244194    0.001155150
      9        6           0.000315166   -0.000930781   -0.000770402
     10        6          -0.000217344   -0.000216227   -0.000441784
     11        6          -0.000773772    0.000939274   -0.000157893
     12        6           0.000448293   -0.000233554    0.000218317
     13        6           0.000218821   -0.000932879   -0.001010567
     14        8          -0.000226740    0.002640598    0.000816399
     15        7           0.001290853    0.001177544    0.000812323
     16        6           0.001014550    0.000497839    0.000488729
     17        6          -0.000732482    0.001361590   -0.001291422
     18        6          -0.000491867    0.000144979    0.000124608
     19        6           0.000093324   -0.000291777    0.000497591
     20        6          -0.000202463   -0.000147115    0.000111548
     21        6           0.000016723    0.000014887   -0.000230636
     22        6          -0.000044602   -0.000198676    0.000147251
     23        6          -0.000068729   -0.001097630    0.000002438
     24        6          -0.000310528   -0.000673585   -0.000927153
     25        6           0.001703465   -0.000103547   -0.000566837
     26        6          -0.000141970    0.000078355    0.000305905
     27        6          -0.000315789   -0.000212326    0.000078433
     28        6           0.000093674    0.000310575   -0.000046956
     29        6          -0.000177983    0.000303848   -0.000951801
     30        6          -0.000176134   -0.000968976    0.000006300
     31        1           0.000197680   -0.000119777    0.000336633
     32        1          -0.000133714   -0.000158579   -0.000011263
     33        1           0.000174792    0.000043092   -0.000126705
     34        1          -0.000043365    0.000058777   -0.000050736
     35        1           0.000287729   -0.000110122   -0.000762100
     36        1          -0.000073097   -0.000147010    0.000014554
     37        1          -0.000080020    0.000128545   -0.000029465
     38        1           0.000119555    0.000165260    0.000008345
     39        1           0.000252299    0.000149106   -0.000335206
     40        1           0.000404376   -0.000290777   -0.000598917
     41        1          -0.000339527    0.000079738   -0.000183742
     42        1           0.000141067   -0.000105248   -0.000010705
     43        1          -0.000125469   -0.000153270    0.000111440
     44        1           0.000030334    0.000042162   -0.000276072
     45        1          -0.000419340    0.000162495    0.000251943
     46        1          -0.000248837    0.000080856    0.000337296
     47        1          -0.001055341   -0.000494638   -0.000201440
     48        1           0.000077217    0.000782087    0.000159194
     49        1           0.000080750   -0.000063931   -0.000076576
     50        1           0.000229926   -0.000017232   -0.000020086
     51        1           0.000044007    0.000161394    0.000073887
     52        1          -0.000210738    0.000028399    0.000354073
     53        1          -0.000002318    0.000765493   -0.000498948
     54        1          -0.000144171   -0.000152895   -0.000052619
     55        1          -0.000148964   -0.000118910    0.000119400
     56        1           0.000058463    0.000094816    0.000097494
     57        1           0.000650078    0.000576027   -0.000427497
     58        1          -0.000247041   -0.000021188    0.000294982
     59       28          -0.003252649    0.000946461   -0.000129798
     60        9           0.002424022   -0.001359022    0.001827271
     61        9           0.000214402   -0.002281780    0.001224456
 -------------------------------------------------------------------
 Cartesian Forces:  Max     0.003252649 RMS     0.000665628

 GradGradGradGradGradGradGradGradGradGradGradGradGradGradGradGradGradGrad
 Berny optimization.
 Using GEDIIS/GDIIS optimizer.
 FormGI is forming the generalized inverse of G from B-inverse, IUseBI=4.
 Internal  Forces:  Max     0.004475956 RMS     0.000768744
 Search for a local minimum.
 Step number   8 out of a maximum of  362
 All quantities printed in internal units (Hartrees-Bohrs-Radians)
 Mixed Optimization -- En-DIIS/RFO-DIIS
 Update second derivatives using D2CorX and points    7    6    8
 DE= -2.34D-03 DEPred=-2.72D-03 R= 8.61D-01
 TightC=F SS=  1.41D+00  RLast= 6.29D-01 DXNew= 1.2000D+00 1.8880D+00
 Trust test= 8.61D-01 RLast= 6.29D-01 DXMaxT set to 1.20D+00
 ITU=  1 -1  1  0  1  1  1  0
 Use linear search instead of GDIIS.
     Eigenvalues ---    0.00184   0.00230   0.00230   0.00238   0.00335
     Eigenvalues ---    0.00475   0.00565   0.00969   0.01334   0.01382
     Eigenvalues ---    0.01413   0.01462   0.01760   0.01956   0.01973
     Eigenvalues ---    0.02032   0.02047   0.02069   0.02078   0.02089
     Eigenvalues ---    0.02102   0.02109   0.02128   0.02130   0.02166
     Eigenvalues ---    0.02168   0.02174   0.02177   0.02189   0.02190
     Eigenvalues ---    0.02191   0.02192   0.02192   0.02194   0.02194
     Eigenvalues ---    0.02205   0.02340   0.02448   0.03129   0.03654
     Eigenvalues ---    0.03835   0.04096   0.04476   0.04615   0.04878
     Eigenvalues ---    0.05012   0.05145   0.05221   0.05280   0.05303
     Eigenvalues ---    0.05547   0.05600   0.05616   0.05847   0.06018
     Eigenvalues ---    0.06522   0.06793   0.07688   0.10060   0.10125
     Eigenvalues ---    0.10693   0.10704   0.11338   0.11463   0.13932
     Eigenvalues ---    0.14142   0.14424   0.14579   0.15779   0.15831
     Eigenvalues ---    0.15977   0.15996   0.15998   0.15998   0.15998
     Eigenvalues ---    0.15999   0.15999   0.15999   0.16000   0.16000
     Eigenvalues ---    0.16000   0.16000   0.16000   0.16000   0.16000
     Eigenvalues ---    0.16000   0.16000   0.16011   0.16034   0.16066
     Eigenvalues ---    0.16132   0.16350   0.17366   0.19384   0.19790
     Eigenvalues ---    0.20308   0.20806   0.21542   0.21744   0.21998
     Eigenvalues ---    0.22002   0.22037   0.22104   0.23441   0.23526
     Eigenvalues ---    0.23577   0.23600   0.24277   0.24548   0.24775
     Eigenvalues ---    0.24924   0.25014   0.25411   0.26169   0.26699
     Eigenvalues ---    0.26989   0.27733   0.27866   0.27894   0.28092
     Eigenvalues ---    0.28864   0.29717   0.30254   0.33816   0.34497
     Eigenvalues ---    0.34618   0.34662   0.34683   0.34685   0.34691
     Eigenvalues ---    0.34700   0.34712   0.34740   0.34780   0.34811
     Eigenvalues ---    0.34853   0.34874   0.34924   0.35004   0.35318
     Eigenvalues ---    0.35809   0.35844   0.35943   0.35950   0.35953
     Eigenvalues ---    0.35957   0.35967   0.35990   0.36026   0.36120
     Eigenvalues ---    0.36215   0.36955   0.37741   0.40040   0.41337
     Eigenvalues ---    0.41808   0.41997   0.42055   0.42156   0.42231
     Eigenvalues ---    0.42671   0.44347   0.45386   0.45696   0.45754
     Eigenvalues ---    0.46072   0.46272   0.46305   0.46906   0.46951
     Eigenvalues ---    0.46972   0.47061   0.48040   0.49941   0.50159
     Eigenvalues ---    0.54401   0.67791
 RFO step:  Lambda=-2.37974704D-03 EMin= 1.83571142D-03
 Quartic linear search produced a step of  0.00674.
 Iteration  1 RMS(Cart)=  0.14369476 RMS(Int)=  0.00260080
 Iteration  2 RMS(Cart)=  0.00579175 RMS(Int)=  0.00008566
 Iteration  3 RMS(Cart)=  0.00000795 RMS(Int)=  0.00008559
 Iteration  4 RMS(Cart)=  0.00000000 RMS(Int)=  0.00008559
 Variable       Old X    -DE/DX   Delta X   Delta X   Delta X     New X
                                 (Linear)    (Quad)   (Total)
    R1        2.69419   0.00040  -0.00003  -0.00083  -0.00086   2.69333
    R2        2.06008  -0.00012   0.00001  -0.00001  -0.00000   2.06008
    R3        2.07209  -0.00018   0.00002  -0.00016  -0.00014   2.07195
    R4        2.07222  -0.00020   0.00002  -0.00010  -0.00008   2.07214
    R5        2.54369   0.00105  -0.00005  -0.00146  -0.00151   2.54219
    R6        2.65579   0.00043  -0.00001  -0.00044  -0.00046   2.65533
    R7        2.64524  -0.00064   0.00001  -0.00146  -0.00145   2.64379
    R8        2.62072  -0.00065  -0.00002  -0.00181  -0.00184   2.61888
    R9        2.04333  -0.00009   0.00001   0.00079   0.00080   2.04412
   R10        2.77659  -0.00040   0.00002  -0.00012  -0.00016   2.77643
   R11        2.54205   0.00136   0.00008   0.00195   0.00195   2.54400
   R12        2.42532  -0.00155   0.00011  -0.00226  -0.00196   2.42336
   R13        2.53302  -0.00038   0.00002  -0.00140  -0.00134   2.53167
   R14        2.77948  -0.00242   0.00005  -0.00277  -0.00262   2.77686
   R15        3.85251  -0.00238   0.00008  -0.00135  -0.00119   3.85132
   R16        2.93826  -0.00178  -0.00006   0.00015   0.00009   2.93836
   R17        2.94420  -0.00093   0.00008   0.00139   0.00135   2.94555
   R18        2.07018   0.00012   0.00001   0.00094   0.00095   2.07113
   R19        2.90307   0.00025  -0.00002   0.00183   0.00181   2.90489
   R20        2.90756   0.00128  -0.00003   0.00292   0.00290   2.91045
   R21        2.90718   0.00021  -0.00000   0.00195   0.00195   2.90913
   R22        2.06965   0.00002   0.00001   0.00033   0.00034   2.06999
   R23        2.07456  -0.00015   0.00002  -0.00004  -0.00002   2.07453
   R24        2.06891  -0.00006   0.00002  -0.00043  -0.00041   2.06849
   R25        2.07257  -0.00034   0.00001  -0.00049  -0.00048   2.07209
   R26        2.06803   0.00030   0.00002   0.00006   0.00008   2.06811
   R27        2.07436  -0.00019   0.00002   0.00006   0.00007   2.07444
   R28        2.06950  -0.00014   0.00001  -0.00024  -0.00024   2.06927
   R29        2.07389  -0.00019   0.00002   0.00005   0.00007   2.07395
   R30        2.07299  -0.00012   0.00002  -0.00081  -0.00079   2.07220
   R31        2.77347  -0.00081  -0.00002  -0.00217  -0.00234   2.77113
   R32        2.05892   0.00028   0.00001   0.00043   0.00043   2.05935
   R33        2.06378  -0.00022   0.00002  -0.00088  -0.00086   2.06292
   R34        2.53367   0.00318  -0.00008   0.00185   0.00178   2.53545
   R35        3.89576  -0.00047   0.00008   0.00428   0.00436   3.90012
   R36        2.86494   0.00269  -0.00009   0.01020   0.01011   2.87505
   R37        2.62907   0.00092  -0.00004   0.00155   0.00153   2.63060
   R38        2.87700   0.00062  -0.00005   0.00046   0.00040   2.87740
   R39        2.88261   0.00326  -0.00010   0.00812   0.00801   2.89062
   R40        2.06610  -0.00062   0.00005   0.00044   0.00048   2.06659
   R41        2.64735   0.00047  -0.00003   0.00135   0.00134   2.64869
   R42        2.64735   0.00055  -0.00002   0.00125   0.00125   2.64860
   R43        2.63599   0.00014   0.00000   0.00015   0.00016   2.63615
   R44        2.05342   0.00064   0.00000   0.00185   0.00185   2.05527
   R45        2.63580   0.00006   0.00001  -0.00054  -0.00055   2.63525
   R46        2.05339  -0.00013   0.00001  -0.00017  -0.00015   2.05324
   R47        2.63758  -0.00022   0.00001   0.00032   0.00032   2.63790
   R48        2.05390  -0.00022   0.00002  -0.00050  -0.00048   2.05342
   R49        2.63594  -0.00022   0.00001  -0.00082  -0.00081   2.63512
   R50        2.05398  -0.00018   0.00002  -0.00032  -0.00031   2.05367
   R51        2.05153  -0.00036   0.00003  -0.00061  -0.00059   2.05094
   R52        2.65199   0.00172  -0.00003   0.00427   0.00425   2.65625
   R53        2.63706   0.00113  -0.00003   0.00010   0.00007   2.63713
   R54        2.63270  -0.00046   0.00001  -0.00162  -0.00160   2.63110
   R55        2.06018  -0.00028   0.00002  -0.00006  -0.00004   2.06013
   R56        2.64068  -0.00035   0.00002   0.00026   0.00028   2.64096
   R57        2.05407  -0.00020   0.00002  -0.00023  -0.00021   2.05386
   R58        2.63429  -0.00081   0.00002  -0.00180  -0.00180   2.63249
   R59        2.05400  -0.00020   0.00001  -0.00055  -0.00054   2.05347
   R60        2.64192  -0.00024   0.00002   0.00057   0.00057   2.64250
   R61        2.05411  -0.00013   0.00001  -0.00024  -0.00023   2.05388
   R62        2.04809  -0.00080   0.00002  -0.00159  -0.00156   2.04653
   R63        2.04695  -0.00021   0.00001  -0.00043  -0.00042   2.04653
   R64        3.49811  -0.00197   0.00021  -0.00451  -0.00430   3.49381
   R65        3.47063  -0.00169   0.00014  -0.00965  -0.00951   3.46112
    A1        1.84085   0.00059  -0.00005   0.00368   0.00363   1.84447
    A2        1.93888   0.00004   0.00000  -0.00070  -0.00070   1.93818
    A3        1.93880  -0.00002  -0.00000  -0.00123  -0.00123   1.93757
    A4        1.91388  -0.00024   0.00002  -0.00025  -0.00023   1.91365
    A5        1.91385  -0.00020   0.00002   0.00020   0.00022   1.91407
    A6        1.91620  -0.00015   0.00001  -0.00150  -0.00150   1.91470
    A7        2.06488   0.00079  -0.00003  -0.00773  -0.00776   2.05712
    A8        2.17222  -0.00019  -0.00000  -0.00555  -0.00555   2.16667
    A9        2.03059   0.00041  -0.00002   0.00491   0.00490   2.03549
   A10        2.08036  -0.00022   0.00002   0.00066   0.00066   2.08102
   A11        2.03952   0.00078  -0.00002   0.00079   0.00071   2.04023
   A12        2.15045  -0.00038   0.00003  -0.00054  -0.00050   2.14994
   A13        2.09292  -0.00039  -0.00001  -0.00005  -0.00005   2.09287
   A14        2.16538  -0.00053  -0.00001  -0.00440  -0.00431   2.16107
   A15        2.15997   0.00004   0.00001   0.00023   0.00026   2.16023
   A16        1.95758   0.00049  -0.00000   0.00428   0.00416   1.96174
   A17        2.11032   0.00005   0.00001   0.00630   0.00625   2.11657
   A18        2.10666   0.00123  -0.00005  -0.00220  -0.00226   2.10440
   A19        2.06621  -0.00128   0.00004  -0.00410  -0.00402   2.06219
   A20        1.89733   0.00081  -0.00004   0.00444   0.00389   1.90122
   A21        1.95917   0.00026  -0.00000  -0.00620  -0.00675   1.95242
   A22        2.42653  -0.00106   0.00005   0.00279   0.00214   2.42868
   A23        1.96186  -0.00225   0.00005  -0.00415  -0.00401   1.95785
   A24        1.78327   0.00070   0.00000   0.00037   0.00029   1.78355
   A25        1.88901   0.00030   0.00001  -0.00409  -0.00410   1.88491
   A26        2.02563   0.00084   0.00004   0.00228   0.00229   2.02792
   A27        1.87545   0.00063  -0.00007   0.00350   0.00339   1.87884
   A28        1.92466  -0.00027  -0.00002   0.00139   0.00143   1.92609
   A29        1.93275   0.00006   0.00002  -0.00050  -0.00051   1.93224
   A30        1.90336  -0.00048  -0.00005  -0.00343  -0.00349   1.89987
   A31        1.88792  -0.00011   0.00003   0.00127   0.00130   1.88922
   A32        1.90437  -0.00030  -0.00002  -0.00704  -0.00708   1.89729
   A33        1.93384   0.00002   0.00003   0.00548   0.00552   1.93936
   A34        1.90110   0.00082  -0.00002   0.00427   0.00427   1.90536
   A35        1.91599   0.00026  -0.00004   0.00090   0.00085   1.91684
   A36        1.96267   0.00008   0.00002   0.00159   0.00161   1.96428
   A37        1.92888  -0.00032  -0.00003  -0.00446  -0.00448   1.92440
   A38        1.87339  -0.00013   0.00002  -0.00091  -0.00090   1.87249
   A39        1.87958   0.00002   0.00001  -0.00030  -0.00029   1.87928
   A40        1.90070   0.00010   0.00003   0.00323   0.00326   1.90397
   A41        1.90875   0.00053  -0.00004   0.00448   0.00443   1.91319
   A42        1.95430  -0.00075  -0.00003  -0.01347  -0.01349   1.94080
   A43        1.93881   0.00043  -0.00001   0.00395   0.00393   1.94275
   A44        1.87477   0.00025   0.00006  -0.00051  -0.00046   1.87431
   A45        1.87792  -0.00031   0.00003   0.00005   0.00006   1.87798
   A46        1.90664  -0.00015  -0.00001   0.00585   0.00586   1.91249
   A47        1.91588   0.00019  -0.00005  -0.00009  -0.00014   1.91573
   A48        1.94026   0.00021  -0.00001   0.00098   0.00097   1.94123
   A49        1.96850  -0.00038   0.00004   0.00103   0.00107   1.96957
   A50        1.87806  -0.00010   0.00001  -0.00051  -0.00050   1.87756
   A51        1.87097   0.00008   0.00001  -0.00071  -0.00070   1.87027
   A52        1.88668   0.00001   0.00000  -0.00083  -0.00083   1.88585
   A53        1.83387  -0.00127   0.00005  -0.00092  -0.00131   1.83257
   A54        1.99683   0.00006  -0.00004  -0.00555  -0.00549   1.99135
   A55        1.97502   0.00005   0.00001   0.00328   0.00335   1.97837
   A56        1.86683   0.00036  -0.00000   0.00023   0.00032   1.86715
   A57        1.86746   0.00085   0.00000   0.00329   0.00349   1.87095
   A58        1.91423  -0.00002  -0.00002   0.00009   0.00004   1.91427
   A59        1.83897   0.00110  -0.00001   0.00526   0.00489   1.84386
   A60        2.08791  -0.00057  -0.00005  -0.00093  -0.00098   2.08693
   A61        1.98538  -0.00161   0.00001  -0.00845  -0.00852   1.97686
   A62        2.19428   0.00228   0.00004   0.01034   0.01043   2.20472
   A63        2.01599   0.00448  -0.00014   0.01225   0.01194   2.02793
   A64        2.10518  -0.00085   0.00008   0.00020   0.00011   2.10529
   A65        2.16202  -0.00363   0.00006  -0.01248  -0.01257   2.14945
   A66        1.92263  -0.00271  -0.00013  -0.02634  -0.02646   1.89618
   A67        1.92461   0.00097   0.00002   0.00421   0.00433   1.92893
   A68        1.83212   0.00084   0.00003   0.00639   0.00634   1.83846
   A69        2.08182   0.00168   0.00005   0.02017   0.02022   2.10204
   A70        1.84637  -0.00048   0.00012  -0.00285  -0.00279   1.84358
   A71        1.83591  -0.00027  -0.00008  -0.00159  -0.00171   1.83419
   A72        2.05208  -0.00030  -0.00000  -0.00268  -0.00281   2.04927
   A73        2.15585   0.00020  -0.00001   0.00083   0.00069   2.15654
   A74        2.07390   0.00007   0.00002   0.00055   0.00051   2.07442
   A75        2.10200  -0.00034   0.00000  -0.00058  -0.00055   2.10145
   A76        2.07978   0.00031   0.00001   0.00294   0.00292   2.08271
   A77        2.09951   0.00004  -0.00001  -0.00198  -0.00201   2.09750
   A78        2.10119   0.00009   0.00000  -0.00021  -0.00020   2.10099
   A79        2.08392  -0.00005  -0.00001  -0.00051  -0.00052   2.08340
   A80        2.09801  -0.00003   0.00001   0.00073   0.00074   2.09875
   A81        2.08549   0.00022  -0.00001   0.00070   0.00068   2.08617
   A82        2.10037  -0.00006   0.00000  -0.00018  -0.00017   2.10020
   A83        2.09722  -0.00016   0.00001  -0.00052  -0.00051   2.09671
   A84        2.09744   0.00000   0.00000   0.00035   0.00035   2.09779
   A85        2.09804  -0.00002  -0.00000  -0.00005  -0.00005   2.09799
   A86        2.08769   0.00002  -0.00000  -0.00030  -0.00031   2.08738
   A87        2.10535  -0.00005  -0.00001  -0.00089  -0.00087   2.10448
   A88        2.10248   0.00008  -0.00003   0.00031   0.00027   2.10275
   A89        2.07529  -0.00003   0.00004   0.00055   0.00058   2.07586
   A90        2.02405   0.00047  -0.00007  -0.00453  -0.00467   2.01938
   A91        2.17539   0.00091   0.00005   0.00837   0.00836   2.18375
   A92        2.08365  -0.00138   0.00002  -0.00362  -0.00359   2.08005
   A93        2.09727   0.00032   0.00001   0.00198   0.00194   2.09921
   A94        2.08287   0.00041  -0.00007   0.00026   0.00005   2.08292
   A95        2.10279  -0.00073   0.00006  -0.00282  -0.00290   2.09988
   A96        2.10081   0.00024  -0.00001  -0.00016  -0.00015   2.10066
   A97        2.08503  -0.00008   0.00000  -0.00025  -0.00027   2.08476
   A98        2.09729  -0.00015   0.00001   0.00033   0.00032   2.09761
   A99        2.08567   0.00013  -0.00002  -0.00067  -0.00070   2.08497
   A100       2.09892   0.00002   0.00000   0.00033   0.00033   2.09925
   A101       2.09851  -0.00015   0.00001   0.00027   0.00028   2.09879
   A102       2.10024   0.00018   0.00001   0.00121   0.00121   2.10145
   A103       2.09764  -0.00014   0.00001   0.00051   0.00052   2.09816
   A104       2.08526  -0.00004  -0.00002  -0.00172  -0.00173   2.08354
   A105       2.09850   0.00051  -0.00002   0.00104   0.00103   2.09953
   A106       2.09938   0.00026  -0.00002   0.00276   0.00274   2.10212
   A107       2.08490  -0.00078   0.00004  -0.00380  -0.00376   2.08114
   A108       2.09233   0.00083  -0.00004  -0.00004  -0.00008   2.09225
   A109       2.08255  -0.00034   0.00006   0.00159   0.00164   2.08419
   A110       2.10821  -0.00049  -0.00002  -0.00150  -0.00152   2.10669
   A111       1.39997   0.00086   0.00001   0.00771   0.00766   1.40763
   A112       1.87212  -0.00223  -0.00025  -0.05652  -0.05683   1.81529
   A113       1.95136  -0.00141  -0.00013  -0.02837  -0.02865   1.92271
   A114       1.87388   0.00059  -0.00006  -0.01428  -0.01443   1.85945
   A115       1.80260  -0.00098  -0.00028  -0.05502  -0.05548   1.74711
   A116       2.32980   0.00275   0.00048   0.10282   0.10355   2.43335
    D1       -3.14050  -0.00003  -0.00000  -0.00268  -0.00268   3.14000
    D2       -1.06807   0.00005  -0.00001  -0.00117  -0.00118  -1.06925
    D3        1.07034  -0.00013   0.00000  -0.00444  -0.00444   1.06589
    D4       -0.00428  -0.00009   0.00002  -0.00074  -0.00070  -0.00498
    D5        3.13093   0.00006   0.00001   0.00204   0.00203   3.13297
    D6        3.12002   0.00021  -0.00000   0.01006   0.01004   3.13006
    D7        0.00502  -0.00011   0.00003   0.00166   0.00168   0.00670
    D8       -0.01502   0.00005   0.00001   0.00719   0.00723  -0.00780
    D9       -3.13002  -0.00027   0.00004  -0.00121  -0.00113  -3.13115
   D10        3.12453   0.00012  -0.00002   0.00398   0.00395   3.12848
   D11       -0.03253   0.00015   0.00005   0.00772   0.00773  -0.02480
   D12       -0.02309   0.00026  -0.00004   0.00658   0.00651  -0.01657
   D13        3.10303   0.00030   0.00004   0.01033   0.01029   3.11333
   D14       -3.08425  -0.00063   0.00003  -0.01343  -0.01339  -3.09764
   D15        0.03111  -0.00037   0.00003  -0.00752  -0.00747   0.02364
   D16        0.03167  -0.00032  -0.00001  -0.00533  -0.00533   0.02634
   D17       -3.13616  -0.00006  -0.00001   0.00058   0.00060  -3.13556
   D18        3.04422   0.00008  -0.00013  -0.01918  -0.01932   3.02491
   D19       -0.09694   0.00010  -0.00014  -0.02751  -0.02764  -0.12457
   D20       -0.07382  -0.00015  -0.00014  -0.02445  -0.02461  -0.09842
   D21        3.06821  -0.00013  -0.00014  -0.03278  -0.03293   3.03528
   D22       -0.00682   0.00032  -0.00004  -0.00678  -0.00687  -0.01368
   D23       -2.97013  -0.00051  -0.00004  -0.01323  -0.01332  -2.98345
   D24        3.11131   0.00054  -0.00004  -0.00160  -0.00165   3.10966
   D25        0.14799  -0.00029  -0.00003  -0.00805  -0.00810   0.13989
   D26        3.11590   0.00011   0.00000  -0.00847  -0.00840   3.10750
   D27       -0.04080   0.00034   0.00023   0.04257   0.04269   0.00189
   D28       -0.02611   0.00009   0.00001  -0.00033  -0.00028  -0.02639
   D29        3.10037   0.00032   0.00024   0.05072   0.05081  -3.13200
   D30        3.10254   0.00017   0.00019   0.03943   0.03959  -3.14105
   D31       -0.03863   0.00019   0.00019   0.03131   0.03153  -0.00710
   D32       -2.10992  -0.00052  -0.00027  -0.02944  -0.02967  -2.13959
   D33        0.07355  -0.00030  -0.00019  -0.02872  -0.02891   0.04464
   D34        2.10474  -0.00015  -0.00021  -0.02862  -0.02882   2.07592
   D35        1.05300  -0.00087  -0.00058  -0.10138  -0.10207   0.95093
   D36       -3.04671  -0.00064  -0.00051  -0.10066  -0.10131   3.13516
   D37       -1.01552  -0.00049  -0.00053  -0.10056  -0.10122  -1.11675
   D38        0.09218  -0.00027  -0.00018  -0.03420  -0.03426   0.05792
   D39        1.92968   0.00080  -0.00022  -0.04178  -0.04181   1.88787
   D40       -1.66171   0.00033   0.00010   0.01955   0.01956  -1.64216
   D41       -3.07124   0.00009   0.00014   0.03951   0.03962  -3.03162
   D42       -1.23374   0.00116   0.00010   0.03193   0.03207  -1.20167
   D43        1.45805   0.00068   0.00042   0.09326   0.09344   1.55149
   D44        0.96953  -0.00010   0.00008   0.00304   0.00308   0.97262
   D45       -1.12622   0.00054   0.00012   0.01423   0.01433  -1.11190
   D46        3.09178  -0.00011   0.00015   0.01031   0.01044   3.10222
   D47       -1.07423   0.00010   0.00001   0.00407   0.00412  -1.07011
   D48        3.11319   0.00073   0.00005   0.01527   0.01537   3.12856
   D49        1.04801   0.00008   0.00008   0.01135   0.01148   1.05949
   D50        3.04601  -0.00065   0.00007  -0.00218  -0.00213   3.04388
   D51        0.95026  -0.00001   0.00011   0.00901   0.00911   0.95937
   D52       -1.11493  -0.00066   0.00014   0.00510   0.00522  -1.10971
   D53       -0.09240   0.00049   0.00028   0.04507   0.04525  -0.04715
   D54       -2.13446   0.00083   0.00027   0.04835   0.04861  -2.08585
   D55        1.93900   0.00076   0.00032   0.05015   0.05038   1.98938
   D56        2.04832  -0.00135   0.00036   0.04144   0.04175   2.09007
   D57        0.00626  -0.00100   0.00035   0.04472   0.04511   0.05136
   D58       -2.20346  -0.00107   0.00040   0.04652   0.04688  -2.15659
   D59       -2.09764  -0.00010   0.00028   0.04898   0.04920  -2.04844
   D60        2.14349   0.00025   0.00026   0.05226   0.05256   2.19605
   D61       -0.06624   0.00018   0.00031   0.05406   0.05433  -0.01191
   D62        3.09916   0.00022  -0.00005  -0.00599  -0.00604   3.09313
   D63        1.01484   0.00016  -0.00005  -0.00648  -0.00653   1.00832
   D64       -1.11328   0.00021  -0.00008  -0.00853  -0.00862  -1.12189
   D65       -1.08887  -0.00052  -0.00010  -0.01503  -0.01512  -1.10399
   D66        3.10999  -0.00058  -0.00011  -0.01551  -0.01561   3.09438
   D67        0.98188  -0.00054  -0.00014  -0.01757  -0.01770   0.96417
   D68        1.00416   0.00031  -0.00012  -0.01085  -0.01098   0.99318
   D69       -1.08016   0.00025  -0.00012  -0.01134  -0.01147  -1.09163
   D70        3.07491   0.00030  -0.00016  -0.01340  -0.01356   3.06135
   D71       -2.97991  -0.00024   0.00036  -0.00223  -0.00186  -2.98177
   D72        1.22736  -0.00044   0.00034   0.00388   0.00423   1.23159
   D73       -0.90966  -0.00003   0.00037   0.00307   0.00346  -0.90620
   D74        1.19010   0.00016   0.00038   0.00479   0.00516   1.19526
   D75       -0.88581  -0.00003   0.00035   0.01091   0.01125  -0.87456
   D76       -3.02283   0.00038   0.00039   0.01009   0.01048  -3.01235
   D77       -0.92301  -0.00018   0.00036  -0.00022   0.00014  -0.92287
   D78       -2.99892  -0.00037   0.00034   0.00590   0.00623  -2.99269
   D79        1.14724   0.00004   0.00037   0.00508   0.00546   1.15271
   D80        3.07110   0.00002  -0.00009   0.00322   0.00312   3.07422
   D81        0.99524  -0.00010  -0.00006   0.00330   0.00323   0.99847
   D82       -1.12712   0.00001  -0.00009   0.00293   0.00284  -1.12428
   D83       -1.09051   0.00004  -0.00003   0.00681   0.00678  -1.08374
   D84        3.11681  -0.00009   0.00000   0.00689   0.00688   3.12370
   D85        0.99446   0.00002  -0.00002   0.00652   0.00649   1.00094
   D86        1.00447   0.00020  -0.00004   0.00421   0.00417   1.00864
   D87       -1.07139   0.00008  -0.00001   0.00429   0.00428  -1.06711
   D88        3.08944   0.00018  -0.00004   0.00392   0.00388   3.09332
   D89        0.08089  -0.00043  -0.00028  -0.04580  -0.04611   0.03478
   D90        2.20981  -0.00085  -0.00030  -0.05262  -0.05300   2.15681
   D91       -2.02306  -0.00026  -0.00032  -0.05074  -0.05104  -2.07410
   D92        3.10660  -0.00054   0.00011  -0.01116  -0.01129   3.09532
   D93       -0.03391   0.00009   0.00001   0.02128   0.02132  -0.01258
   D94       -0.23627  -0.00008   0.00010  -0.00613  -0.00621  -0.24248
   D95        2.90640   0.00055   0.00000   0.02631   0.02640   2.93280
   D96       -0.13553   0.00039   0.00011   0.02258   0.02265  -0.11288
   D97       -1.97101   0.00255   0.00037   0.07856   0.07880  -1.89221
   D98        1.78918  -0.00081   0.00000   0.00007   0.00028   1.78946
   D99       -3.08609  -0.00012   0.00013   0.01720   0.01725  -3.06884
   D100       1.36162   0.00204   0.00038   0.07317   0.07340   1.43501
   D101      -1.16138  -0.00132   0.00002  -0.00531  -0.00512  -1.16650
   D102      -1.80630   0.00148   0.00020   0.11374   0.11396  -1.69233
   D103       2.14324   0.00069   0.00023   0.10517   0.10539   2.24864
   D104       0.17408   0.00014   0.00030   0.10186   0.10214   0.27622
   D105       1.33417   0.00083   0.00031   0.08011   0.08045   1.41463
   D106      -0.99947   0.00003   0.00034   0.07155   0.07188  -0.92759
   D107      -2.96864  -0.00051   0.00040   0.06824   0.06863  -2.90001
   D108       0.04872  -0.00036   0.00003  -0.02130  -0.02127   0.02745
   D109      -3.07717  -0.00040  -0.00005  -0.02513  -0.02513  -3.10230
   D110      -3.09170   0.00032  -0.00008   0.01395   0.01367  -3.07803
   D111       0.06560   0.00028  -0.00016   0.01013   0.00981   0.07541
   D112       1.83362   0.00001  -0.00126  -0.02112  -0.02227   1.81135
   D113      -1.25122   0.00044  -0.00126   0.00587   0.00470  -1.24652
   D114      -2.19852   0.00023  -0.00132  -0.02306  -0.02442  -2.22294
   D115       0.99983   0.00066  -0.00132   0.00393   0.00255   1.00238
   D116      -0.13761   0.00054  -0.00129  -0.01488  -0.01620  -0.15381
   D117       3.06074   0.00097  -0.00130   0.01211   0.01077   3.07151
   D118      -1.21715  -0.00071   0.00045   0.07739   0.07785  -1.13930
   D119       1.90912  -0.00056   0.00057   0.09435   0.09496   2.00409
   D120       2.81588   0.00074   0.00058   0.09323   0.09379   2.90967
   D121      -0.34102   0.00090   0.00070   0.11018   0.11090  -0.23012
   D122       0.74958   0.00055   0.00045   0.08585   0.08626   0.83584
   D123      -2.40733   0.00071   0.00058   0.10280   0.10337  -2.30396
   D124      -3.13008   0.00028   0.00010   0.02492   0.02500  -3.10509
   D125      -0.05440   0.00047   0.00016   0.03153   0.03168  -0.02272
   D126      -0.04249  -0.00013   0.00010  -0.00075  -0.00065  -0.04314
   D127       3.03319   0.00007   0.00016   0.00587   0.00604   3.03923
   D128       3.12921  -0.00033  -0.00008  -0.02510  -0.02520   3.10401
   D129       0.00044  -0.00019  -0.00012  -0.02307  -0.02321  -0.02278
   D130       0.04504   0.00011  -0.00008   0.00231   0.00224   0.04728
   D131      -3.08373   0.00025  -0.00012   0.00434   0.00422  -3.07951
   D132       0.01036   0.00005  -0.00004  -0.00094  -0.00098   0.00938
   D133       3.14042   0.00008  -0.00004   0.00093   0.00089   3.14131
   D134      -3.06458  -0.00016  -0.00010  -0.00781  -0.00791  -3.07249
   D135       0.06549  -0.00013  -0.00010  -0.00595  -0.00604   0.05945
   D136       0.01990   0.00005  -0.00004   0.00105   0.00101   0.02091
   D137      -3.13715  -0.00002   0.00000   0.00140   0.00140  -3.13575
   D138      -3.11007   0.00002  -0.00005  -0.00082  -0.00087  -3.11093
   D139       0.01606  -0.00005   0.00000  -0.00048  -0.00047   0.01559
   D140      -0.01740  -0.00007   0.00007   0.00052   0.00058  -0.01682
   D141       3.11777  -0.00007   0.00006  -0.00017  -0.00012   3.11765
   D142       3.13962  -0.00000   0.00002   0.00017   0.00019   3.13981
   D143      -0.00839  -0.00000   0.00001  -0.00052  -0.00051  -0.00890
   D144      -0.01538  -0.00001  -0.00000  -0.00221  -0.00222  -0.01760
   D145       3.11360  -0.00015   0.00004  -0.00421  -0.00418   3.10942
   D146       3.13260  -0.00001   0.00001  -0.00153  -0.00153   3.13107
   D147      -0.02162  -0.00015   0.00005  -0.00353  -0.00349  -0.02510
   D148       3.10828   0.00007   0.00009   0.00707   0.00709   3.11537
   D149      -0.05726  -0.00022  -0.00007  -0.02059  -0.02074  -0.07800
   D150      -0.01885  -0.00010  -0.00003  -0.00905  -0.00906  -0.02791
   D151       3.09879  -0.00038  -0.00018  -0.03671  -0.03688   3.06191
   D152      -3.10512  -0.00013  -0.00007  -0.00870  -0.00882  -3.11395
   D153       0.06697   0.00002  -0.00015  -0.00866  -0.00885   0.05812
   D154       0.02067   0.00005   0.00005   0.00880   0.00883   0.02950
   D155      -3.09042   0.00019  -0.00003   0.00883   0.00880  -3.08162
   D156       0.00214   0.00005  -0.00000   0.00180   0.00179   0.00393
   D157       3.13142  -0.00000  -0.00005  -0.00491  -0.00494   3.12647
   D158      -3.11522   0.00032   0.00015   0.02974   0.02984  -3.08538
   D159       0.01405   0.00027   0.00011   0.02303   0.02311   0.03716
   D160       0.01280   0.00007   0.00001   0.00576   0.00577   0.01858
   D161       3.14025  -0.00002  -0.00000  -0.00033  -0.00033   3.13992
   D162      -3.11638   0.00012   0.00006   0.01252   0.01256  -3.10382
   D163       0.01107   0.00003   0.00004   0.00643   0.00646   0.01753
   D164      -0.01099  -0.00012   0.00001  -0.00602  -0.00601  -0.01699
   D165       3.12148  -0.00012   0.00000  -0.00566  -0.00567   3.11581
   D166      -3.13844  -0.00003   0.00002   0.00007   0.00009  -3.13835
   D167      -0.00598  -0.00002   0.00001   0.00043   0.00043  -0.00554
   D168      -0.00582   0.00005  -0.00004  -0.00133  -0.00138  -0.00719
   D169       3.10553  -0.00008   0.00003  -0.00125  -0.00124   3.10429
   D170      -3.13835   0.00004  -0.00003  -0.00169  -0.00173  -3.14007
   D171      -0.02700  -0.00008   0.00004  -0.00161  -0.00159  -0.02859
         Item               Value     Threshold  Converged?
 Maximum Force            0.004476     0.000450     NO 
 RMS     Force            0.000769     0.000300     NO 
 Maximum Displacement     0.725902     0.001800     NO 
 RMS     Displacement     0.144454     0.001200     NO 
 Predicted change in Energy=-1.474838D-03
 GradGradGradGradGradGradGradGradGradGradGradGradGradGradGradGradGradGrad

 Stoichiometry    C26H28F2N2NiO2(3)
 Framework group  C1[X(C26H28F2N2NiO2)]
 Deg. of freedom   177
 Full point group                 C1      NOp   1
 Largest Abelian subgroup         C1      NOp   1
 Largest concise Abelian subgroup C1      NOp   1
                         Standard orientation:                         
 ---------------------------------------------------------------------
 Center     Atomic      Atomic             Coordinates (Angstroms)
 Number     Number       Type             X           Y           Z
 ---------------------------------------------------------------------
      1          6           0        0.997783    4.970358    2.058711
      2          8           0        1.769053    3.840682    1.658318
      3          6           0        1.117567    2.792140    1.123653
      4          6           0       -0.274585    2.738632    0.940700
      5          6           0       -0.787080    1.588523    0.361748
      6          6           0       -2.209909    1.393143    0.051905
      7          7           0       -2.614475    0.364308   -0.597977
      8          6           0       -4.078313    0.419000   -0.714061
      9          6           0       -4.762134   -0.842367   -0.114817
     10          6           0       -4.339106   -1.046437    1.348872
     11          6           0       -4.332036   -2.076323   -0.929932
     12          6           0       -6.286896   -0.665525   -0.231956
     13          6           0       -4.412715    1.776122   -0.024137
     14          8           0       -3.123530    2.287509    0.452172
     15          7           0       -0.033564    0.533441   -0.000656
     16          6           0        1.294892    0.574252    0.182949
     17          6           0        2.064033   -0.682665   -0.195575
     18          6           0        2.291261   -1.511349    1.061460
     19          6           0        1.488310   -2.646199    1.240177
     20          6           0        1.613605   -3.425705    2.390249
     21          6           0        2.531607   -3.078555    3.380920
     22          6           0        3.308941   -1.929442    3.226387
     23          6           0        3.182142   -1.145893    2.079889
     24          6           0        3.234191   -0.337726   -1.118386
     25          6           0        2.885101    0.170867   -2.381418
     26          6           0        3.875472    0.545638   -3.285444
     27          6           0        5.225473    0.415626   -2.948248
     28          6           0        5.573876   -0.113354   -1.707523
     29          6           0        4.583186   -0.493062   -0.796626
     30          6           0        1.900832    1.701805    0.730001
     31          1           0        1.713377    5.688784    2.458972
     32          1           0        0.471913    5.411262    1.203595
     33          1           0        0.274772    4.697153    2.836519
     34          1           0       -0.939003    3.547674    1.212881
     35          1           0       -4.332227    0.460150   -1.779442
     36          1           0       -4.866352   -1.908712    1.771224
     37          1           0       -4.574159   -0.179314    1.979747
     38          1           0       -3.265554   -1.251693    1.408058
     39          1           0       -4.928539   -2.944646   -0.625766
     40          1           0       -3.280904   -2.322490   -0.750416
     41          1           0       -4.495242   -1.921419   -2.004369
     42          1           0       -6.792759   -1.570469    0.120497
     43          1           0       -6.588948   -0.501600   -1.274249
     44          1           0       -6.665780    0.171075    0.367200
     45          1           0       -5.060377    1.684431    0.847473
     46          1           0       -4.821978    2.520715   -0.709548
     47          1           0        1.376770   -1.267206   -0.813575
     48          1           0        0.727557   -2.882537    0.499718
     49          1           0        0.982448   -4.301750    2.511609
     50          1           0        2.632425   -3.689305    4.273985
     51          1           0        4.011785   -1.636434    4.001754
     52          1           0        3.774511   -0.240523    1.994413
     53          1           0        1.833547    0.223249   -2.664217
     54          1           0        3.590554    0.923980   -4.263673
     55          1           0        5.997347    0.707075   -3.655404
     56          1           0        6.619919   -0.242237   -1.442076
     57          1           0        4.874592   -0.934445    0.148416
     58          1           0        2.976554    1.750471    0.845293
     59         28           0       -1.073720   -0.873683   -1.094989
     60          9           0       -1.301222   -2.337622    0.011063
     61          9           0       -0.467998   -0.483146   -2.778775
 ---------------------------------------------------------------------
 Rotational constants (GHZ):           0.1637661           0.0866263           0.0797578
 Basis read from rwf:  (6D, 7F)
 Pseudo-potential data read from rwf file.
 There are   613 symmetry adapted cartesian basis functions of A   symmetry.
 There are   610 symmetry adapted basis functions of A   symmetry.
   610 basis functions,  1162 primitive gaussians,   613 cartesian basis functions
   126 alpha electrons      124 beta electrons
       nuclear repulsion energy      3835.6077858350 Hartrees.
 NAtoms=   61 NActive=   61 NUniq=   61 SFac= 1.00D+00 NAtFMM=   60 NAOKFM=T Big=T
 Integral buffers will be    131072 words long.
 Raffenetti 2 integral format.
 Two-electron integral symmetry is turned on.
 Nuclear repulsion after empirical dispersion term =     3835.4572843344 Hartrees.
 One-electron integrals computed using PRISM.
 PrsmSu:  requested number of processors reduced to:  12 ShMem   1 Linda.
   1 Symmetry operations used in ECPInt.
 ECPInt:  NShTT=   21115 NPrTT=  128985 LenC2=   17116 LenP2D=   55925.
 LDataN:  DoStor=T MaxTD1= 6 Len=  172
 Number of processors reduced to  12 by ecpmxn.
 NBasis=   610 RedAO= T EigKep=  6.98D-06  NBF=   610
 NBsUse=   609 1.00D-06 EigRej=  9.90D-07 NBFU=   609
 Initial guess from the checkpoint file:  "Lig2126_xyz_2.chk"
 B after Tr=     0.000000   -0.000000    0.000000
         Rot=    0.999294   -0.029317    0.017979    0.015102 Ang=  -4.31 deg.
 Initial guess <Sx>= 0.0000 <Sy>= 0.0000 <Sz>= 1.0000 <S**2>= 2.0063 S= 1.0021
 ExpMin= 2.40D-02 ExpMax= 7.14D+04 ExpMxC= 1.07D+04 IAcc=3 IRadAn=         5 AccDes= 0.00D+00
 Harris functional with IExCor=  402 and IRadAn=       5 diagonalized for initial guess.
 HarFok:  IExCor=  402 AccDes= 0.00D+00 IRadAn=         5 IDoV= 1 UseB2=F ITyADJ=14
 ICtDFT=  3500011 ScaDFX=  1.000000  1.000000  1.000000  1.000000
 FoFCou: FMM=F IPFlag=           0 FMFlag=      100000 FMFlg1=        2001
         NFxFlg=           0 DoJE=T BraDBF=F KetDBF=T FulRan=T
         wScrn=  0.000000 ICntrl=       500 IOpCl=  0 I1Cent=   200000004 NGrid=           0
         NMat0=    1 NMatS0=      1 NMatT0=    0 NMatD0=    1 NMtDS0=    0 NMtDT0=    0
 Petite list used in FoFCou.
 Requested convergence on RMS density matrix=1.00D-08 within 128 cycles.
 Requested convergence on MAX density matrix=1.00D-06.
 Requested convergence on             energy=1.00D-06.
 No special actions if energy rises.
 Restarting incremental Fock formation.
 SCF Done:  E(UB3LYP) =  -1636.88054090     A.U. after   30 cycles
            NFock= 30  Conv=0.82D-08     -V/T= 2.0485
 <Sx>= 0.0000 <Sy>= 0.0000 <Sz>= 1.0000 <S**2>= 2.0061 S= 1.0020
 <L.S>=  0.00000000000    
 Annihilation of the first spin contaminant:
 S**2 before annihilation     2.0061,   after     2.0000
 PrsmSu:  requested number of processors reduced to:  12 ShMem   1 Linda.
   1 Symmetry operations used in ECPInt.
 ECPInt:  NShTT=   21115 NPrTT=  128985 LenC2=   17116 LenP2D=   55925.
 LDataN:  DoStor=T MaxTD1= 7 Len=  274
 Number of processors reduced to  13 by ecpmxn.
 Calling FoFJK, ICntrl=      2127 FMM=T ISym2X=0 I1Cent= 0 IOpClX= 1 NMat=1 NMatS=1 NMatT=0.
 ***** Axes restored to original set *****
 -------------------------------------------------------------------
 Center     Atomic                   Forces (Hartrees/Bohr)
 Number     Number              X              Y              Z
 -------------------------------------------------------------------
      1        6           0.000106791   -0.001053254   -0.000550203
      2        8           0.000487832   -0.001044580   -0.000408979
      3        6          -0.000707275    0.000790825   -0.000192318
      4        6          -0.000215744    0.000669831    0.000550386
      5        6          -0.000705799    0.000756185    0.000948797
      6        6          -0.000509865    0.000105349    0.000303912
      7        7           0.000188280    0.000304555   -0.000750381
      8        6          -0.000582154   -0.000305979    0.000791695
      9        6           0.000401470   -0.000349887   -0.000252962
     10        6          -0.000074161   -0.000329445   -0.000469903
     11        6           0.000128156    0.000690654   -0.000184730
     12        6           0.000036822   -0.000060501   -0.000459238
     13        6           0.000048270    0.000098894   -0.000854369
     14        8           0.000515875    0.000379702    0.001165424
     15        7           0.001405321    0.001209599   -0.000473848
     16        6          -0.000222001    0.000106487    0.000773822
     17        6           0.001767814    0.000420360   -0.000367047
     18        6          -0.001291443    0.000416694   -0.000153745
     19        6           0.000304743    0.000846102   -0.001163020
     20        6           0.000023733    0.000263790    0.000051592
     21        6           0.000080051   -0.000164496   -0.000159655
     22        6          -0.000139609   -0.000099160    0.000068740
     23        6           0.000686954    0.000164127   -0.000305223
     24        6          -0.000344131   -0.000856608    0.001792831
     25        6           0.000018059    0.000970754   -0.000330052
     26        6           0.000252709    0.000439015    0.000581020
     27        6          -0.000311313   -0.000123679    0.000094164
     28        6          -0.000038535    0.000086191   -0.000147998
     29        6           0.000018630   -0.000082196    0.000288347
     30        6           0.000208750   -0.000208251    0.000009638
     31        1           0.000030270    0.000030072    0.000147704
     32        1          -0.000031431   -0.000211440   -0.000098619
     33        1           0.000183716   -0.000218615   -0.000204674
     34        1          -0.000257076    0.000632708   -0.000190555
     35        1           0.000107079   -0.000036951   -0.000304191
     36        1           0.000138445   -0.000020518    0.000075200
     37        1          -0.000071325    0.000166831    0.000000459
     38        1          -0.000054160    0.000419990    0.000103870
     39        1           0.000190872   -0.000127484   -0.000039995
     40        1          -0.000065501    0.000372262    0.000833031
     41        1          -0.000070837   -0.000102153   -0.000125590
     42        1          -0.000039204   -0.000106796    0.000002720
     43        1          -0.000167610   -0.000127713   -0.000078980
     44        1           0.000198986   -0.000533353   -0.000371881
     45        1          -0.000363306    0.000009744    0.000389664
     46        1          -0.000171331    0.000073789    0.000115825
     47        1           0.000561261   -0.000163260    0.000312630
     48        1          -0.001586605   -0.001144424   -0.000071921
     49        1           0.000147941   -0.000114966   -0.000026384
     50        1           0.000063533   -0.000092250    0.000036774
     51        1          -0.000035375    0.000084066   -0.000001262
     52        1           0.000558905    0.000393915   -0.000573923
     53        1          -0.000424121   -0.000813379   -0.000093149
     54        1          -0.000050410   -0.000241257   -0.000178039
     55        1          -0.000014926   -0.000091148    0.000079572
     56        1           0.000123446    0.000100819    0.000034363
     57        1          -0.000707132   -0.000944174    0.000770545
     58        1           0.000088898    0.000145232   -0.000158403
     59       28          -0.000448081   -0.000324044   -0.002058637
     60        9           0.001540262    0.000266957    0.001468610
     61        9          -0.000913413   -0.001323539    0.000008539
 -------------------------------------------------------------------
 Cartesian Forces:  Max     0.002058637 RMS     0.000544246

 GradGradGradGradGradGradGradGradGradGradGradGradGradGradGradGradGradGrad
 Berny optimization.
 Using GEDIIS/GDIIS optimizer.
 FormGI is forming the generalized inverse of G from B-inverse, IUseBI=4.
 Internal  Forces:  Max     0.005465494 RMS     0.000882099
 Search for a local minimum.
 Step number   9 out of a maximum of  362
 All quantities printed in internal units (Hartrees-Bohrs-Radians)
 Mixed Optimization -- En-DIIS/RFO-DIIS
 Swapping is turned off.
 Update second derivatives using D2CorX and points    8    9
 DE= -6.61D-04 DEPred=-1.47D-03 R= 4.48D-01
 Trust test= 4.48D-01 RLast= 4.90D-01 DXMaxT set to 1.20D+00
 ITU=  0  1 -1  1  0  1  1  1  0
     Eigenvalues ---    0.00202   0.00230   0.00233   0.00238   0.00335
     Eigenvalues ---    0.00536   0.00603   0.01067   0.01299   0.01382
     Eigenvalues ---    0.01393   0.01470   0.01746   0.01970   0.01973
     Eigenvalues ---    0.02034   0.02047   0.02070   0.02078   0.02095
     Eigenvalues ---    0.02101   0.02120   0.02130   0.02143   0.02168
     Eigenvalues ---    0.02169   0.02176   0.02190   0.02190   0.02191
     Eigenvalues ---    0.02191   0.02192   0.02194   0.02194   0.02196
     Eigenvalues ---    0.02293   0.02332   0.02457   0.03180   0.03649
     Eigenvalues ---    0.04067   0.04300   0.04469   0.04639   0.04807
     Eigenvalues ---    0.04985   0.05191   0.05214   0.05280   0.05312
     Eigenvalues ---    0.05543   0.05590   0.05616   0.05851   0.06044
     Eigenvalues ---    0.06271   0.06786   0.08095   0.09654   0.10125
     Eigenvalues ---    0.10685   0.10745   0.11410   0.11750   0.13791
     Eigenvalues ---    0.14138   0.14464   0.14588   0.15772   0.15865
     Eigenvalues ---    0.15984   0.15993   0.15996   0.15997   0.15998
     Eigenvalues ---    0.15998   0.15999   0.15999   0.15999   0.16000
     Eigenvalues ---    0.16000   0.16000   0.16000   0.16000   0.16000
     Eigenvalues ---    0.16000   0.16001   0.16020   0.16028   0.16075
     Eigenvalues ---    0.16189   0.16364   0.17802   0.19376   0.19827
     Eigenvalues ---    0.20188   0.20890   0.21396   0.21650   0.21997
     Eigenvalues ---    0.21999   0.22046   0.22065   0.23418   0.23529
     Eigenvalues ---    0.23599   0.23635   0.24198   0.24533   0.24813
     Eigenvalues ---    0.24895   0.25011   0.26107   0.26365   0.26985
     Eigenvalues ---    0.27359   0.27727   0.27875   0.27935   0.28099
     Eigenvalues ---    0.29383   0.29636   0.31845   0.33713   0.34497
     Eigenvalues ---    0.34613   0.34660   0.34682   0.34684   0.34690
     Eigenvalues ---    0.34700   0.34709   0.34733   0.34741   0.34806
     Eigenvalues ---    0.34851   0.34880   0.34893   0.35004   0.35278
     Eigenvalues ---    0.35799   0.35924   0.35939   0.35949   0.35953
     Eigenvalues ---    0.35957   0.35968   0.36000   0.36020   0.36177
     Eigenvalues ---    0.36379   0.37109   0.37680   0.40055   0.41243
     Eigenvalues ---    0.41828   0.42018   0.42129   0.42169   0.42266
     Eigenvalues ---    0.42749   0.44311   0.45355   0.45694   0.45751
     Eigenvalues ---    0.46105   0.46272   0.46354   0.46901   0.46940
     Eigenvalues ---    0.46972   0.47073   0.48346   0.50001   0.50137
     Eigenvalues ---    0.53628   0.67727
 En-DIIS/RFO-DIIS/Sim-DIIS IScMMF=       -3 using points:     9    8
 RFO step:  Lambda=-2.39148297D-03.
 DidBck=F Rises=F RFO-DIIS coefs:    1.12428   -0.12428
 Iteration  1 RMS(Cart)=  0.12959541 RMS(Int)=  0.00397545
 Iteration  2 RMS(Cart)=  0.00810201 RMS(Int)=  0.00005879
 Iteration  3 RMS(Cart)=  0.00003252 RMS(Int)=  0.00005722
 Iteration  4 RMS(Cart)=  0.00000000 RMS(Int)=  0.00005722
 Variable       Old X    -DE/DX   Delta X   Delta X   Delta X     New X
                                 (Linear)    (Quad)   (Total)
    R1        2.69333   0.00084  -0.00011   0.00079   0.00068   2.69401
    R2        2.06008  -0.00012  -0.00000  -0.00023  -0.00023   2.05985
    R3        2.07195  -0.00012  -0.00002  -0.00051  -0.00052   2.07143
    R4        2.07214  -0.00020  -0.00001  -0.00066  -0.00067   2.07147
    R5        2.54219   0.00282  -0.00019   0.00535   0.00516   2.54734
    R6        2.65533   0.00103  -0.00006   0.00129   0.00123   2.65656
    R7        2.64379  -0.00032  -0.00018  -0.00183  -0.00200   2.64179
    R8        2.61888   0.00049  -0.00023  -0.00011  -0.00035   2.61853
    R9        2.04412  -0.00066   0.00010  -0.00110  -0.00100   2.04312
   R10        2.77643  -0.00041  -0.00002  -0.00195  -0.00200   2.77443
   R11        2.54400  -0.00070   0.00024   0.00193   0.00214   2.54613
   R12        2.42336  -0.00009  -0.00024  -0.00328  -0.00343   2.41993
   R13        2.53167   0.00014  -0.00017   0.00119   0.00104   2.53271
   R14        2.77686   0.00053  -0.00033  -0.00591  -0.00618   2.77068
   R15        3.85132  -0.00018  -0.00015  -0.01513  -0.01525   3.83607
   R16        2.93836  -0.00103   0.00001  -0.00734  -0.00733   2.93103
   R17        2.94555  -0.00064   0.00017  -0.00102  -0.00091   2.94464
   R18        2.07113   0.00004   0.00012   0.00061   0.00073   2.07186
   R19        2.90489  -0.00007   0.00023   0.00086   0.00108   2.90597
   R20        2.91045   0.00057   0.00036   0.00392   0.00428   2.91473
   R21        2.90913  -0.00086   0.00024  -0.00057  -0.00033   2.90880
   R22        2.06999  -0.00006   0.00004  -0.00011  -0.00007   2.06993
   R23        2.07453  -0.00017  -0.00000  -0.00068  -0.00068   2.07385
   R24        2.06849  -0.00006  -0.00005  -0.00013  -0.00018   2.06831
   R25        2.07209  -0.00019  -0.00006  -0.00089  -0.00095   2.07114
   R26        2.06811  -0.00070   0.00001  -0.00039  -0.00038   2.06773
   R27        2.07444  -0.00011   0.00001  -0.00085  -0.00084   2.07360
   R28        2.06927  -0.00001  -0.00003  -0.00042  -0.00045   2.06882
   R29        2.07395  -0.00022   0.00001  -0.00066  -0.00065   2.07330
   R30        2.07220   0.00041  -0.00010   0.00024   0.00014   2.07234
   R31        2.77113  -0.00157  -0.00029  -0.00576  -0.00614   2.76499
   R32        2.05935   0.00045   0.00005   0.00135   0.00140   2.06075
   R33        2.06292  -0.00015  -0.00011  -0.00077  -0.00087   2.06205
   R34        2.53545  -0.00041   0.00022   0.00187   0.00209   2.53755
   R35        3.90012  -0.00081   0.00054  -0.00900  -0.00844   3.89167
   R36        2.87505  -0.00057   0.00126   0.00538   0.00664   2.88169
   R37        2.63060   0.00035   0.00019   0.00221   0.00241   2.63301
   R38        2.87740   0.00084   0.00005   0.00147   0.00152   2.87893
   R39        2.89062  -0.00353   0.00100  -0.00104  -0.00005   2.89058
   R40        2.06659   0.00012   0.00006   0.00016   0.00022   2.06681
   R41        2.64869  -0.00021   0.00017   0.00016   0.00033   2.64901
   R42        2.64860  -0.00039   0.00016   0.00020   0.00036   2.64896
   R43        2.63615   0.00002   0.00002   0.00035   0.00036   2.63651
   R44        2.05527  -0.00154   0.00023  -0.00087  -0.00064   2.05463
   R45        2.63525   0.00012  -0.00007  -0.00012  -0.00019   2.63506
   R46        2.05324  -0.00015  -0.00002  -0.00062  -0.00064   2.05260
   R47        2.63790  -0.00038   0.00004  -0.00042  -0.00037   2.63753
   R48        2.05342  -0.00004  -0.00006  -0.00059  -0.00065   2.05277
   R49        2.63512  -0.00013  -0.00010  -0.00066  -0.00076   2.63437
   R50        2.05367  -0.00005  -0.00004  -0.00055  -0.00059   2.05308
   R51        2.05094   0.00045  -0.00007  -0.00020  -0.00027   2.05067
   R52        2.65625  -0.00058   0.00053   0.00190   0.00244   2.65869
   R53        2.63713  -0.00082   0.00001  -0.00066  -0.00065   2.63648
   R54        2.63110  -0.00034  -0.00020  -0.00122  -0.00142   2.62968
   R55        2.06013  -0.00043  -0.00001  -0.00133  -0.00133   2.05880
   R56        2.64096   0.00040   0.00003   0.00054   0.00057   2.64153
   R57        2.05386  -0.00016  -0.00003  -0.00070  -0.00073   2.05313
   R58        2.63249   0.00016  -0.00022  -0.00116  -0.00140   2.63110
   R59        2.05347  -0.00010  -0.00007  -0.00060  -0.00067   2.05280
   R60        2.64250  -0.00003   0.00007  -0.00009  -0.00003   2.64247
   R61        2.05388  -0.00010  -0.00003  -0.00055  -0.00058   2.05330
   R62        2.04653   0.00097  -0.00019   0.00119   0.00100   2.04753
   R63        2.04653   0.00010  -0.00005  -0.00054  -0.00059   2.04594
   R64        3.49381  -0.00091  -0.00053  -0.00692  -0.00746   3.48635
   R65        3.46112  -0.00130  -0.00118  -0.00785  -0.00903   3.45209
    A1        1.84447  -0.00003   0.00045   0.00288   0.00333   1.84780
    A2        1.93818   0.00017  -0.00009   0.00105   0.00096   1.93915
    A3        1.93757   0.00035  -0.00015   0.00143   0.00127   1.93884
    A4        1.91365  -0.00021  -0.00003  -0.00243  -0.00246   1.91119
    A5        1.91407  -0.00026   0.00003  -0.00221  -0.00219   1.91189
    A6        1.91470  -0.00004  -0.00019  -0.00072  -0.00090   1.91380
    A7        2.05712   0.00417  -0.00096   0.00864   0.00767   2.06479
    A8        2.16667   0.00226  -0.00069   0.00390   0.00321   2.16988
    A9        2.03549  -0.00098   0.00061  -0.00030   0.00031   2.03580
   A10        2.08102  -0.00128   0.00008  -0.00360  -0.00351   2.07751
   A11        2.04023   0.00066   0.00009   0.00305   0.00310   2.04334
   A12        2.14994  -0.00007  -0.00006  -0.00089  -0.00094   2.14901
   A13        2.09287  -0.00059  -0.00001  -0.00222  -0.00222   2.09065
   A14        2.16107  -0.00030  -0.00054  -0.00275  -0.00320   2.15787
   A15        2.16023  -0.00004   0.00003   0.00016   0.00022   2.16044
   A16        1.96174   0.00033   0.00052   0.00256   0.00297   1.96470
   A17        2.11657   0.00001   0.00078   0.00113   0.00182   2.11839
   A18        2.10440  -0.00041  -0.00028   0.00178   0.00155   2.10595
   A19        2.06219   0.00040  -0.00050  -0.00290  -0.00337   2.05882
   A20        1.90122  -0.00084   0.00048   0.00159   0.00177   1.90300
   A21        1.95242  -0.00041  -0.00084  -0.00334  -0.00457   1.94785
   A22        2.42868   0.00125   0.00027   0.00037   0.00030   2.42897
   A23        1.95785   0.00080  -0.00050  -0.01030  -0.01074   1.94711
   A24        1.78355   0.00014   0.00004   0.00170   0.00164   1.78519
   A25        1.88491   0.00006  -0.00051   0.00344   0.00294   1.88786
   A26        2.02792  -0.00104   0.00028  -0.00125  -0.00099   2.02693
   A27        1.87884   0.00017   0.00042   0.00579   0.00620   1.88504
   A28        1.92609  -0.00007   0.00018   0.00059   0.00079   1.92688
   A29        1.93224   0.00022  -0.00006  -0.00123  -0.00130   1.93094
   A30        1.89987   0.00077  -0.00043  -0.00070  -0.00113   1.89873
   A31        1.88922  -0.00105   0.00016  -0.00523  -0.00506   1.88416
   A32        1.89729  -0.00033  -0.00088  -0.00380  -0.00471   1.89258
   A33        1.93936   0.00029   0.00069   0.00338   0.00407   1.94342
   A34        1.90536   0.00011   0.00053   0.00770   0.00823   1.91360
   A35        1.91684  -0.00014   0.00011   0.00000   0.00011   1.91694
   A36        1.96428   0.00015   0.00020   0.00219   0.00239   1.96667
   A37        1.92440  -0.00028  -0.00056  -0.00382  -0.00437   1.92003
   A38        1.87249  -0.00002  -0.00011  -0.00064  -0.00075   1.87174
   A39        1.87928   0.00008  -0.00004  -0.00046  -0.00050   1.87878
   A40        1.90397   0.00021   0.00041   0.00273   0.00314   1.90710
   A41        1.91319  -0.00030   0.00055   0.00263   0.00317   1.91636
   A42        1.94080   0.00064  -0.00168  -0.00634  -0.00801   1.93279
   A43        1.94275  -0.00005   0.00049   0.00291   0.00339   1.94614
   A44        1.87431  -0.00025  -0.00006   0.00026   0.00020   1.87451
   A45        1.87798   0.00008   0.00001   0.00017   0.00016   1.87814
   A46        1.91249  -0.00016   0.00073   0.00050   0.00124   1.91373
   A47        1.91573   0.00016  -0.00002   0.00164   0.00163   1.91736
   A48        1.94123   0.00003   0.00012   0.00100   0.00112   1.94235
   A49        1.96957  -0.00073   0.00013  -0.00352  -0.00339   1.96618
   A50        1.87756   0.00006  -0.00006   0.00091   0.00085   1.87841
   A51        1.87027   0.00029  -0.00009   0.00084   0.00076   1.87103
   A52        1.88585   0.00024  -0.00010  -0.00072  -0.00083   1.88502
   A53        1.83257   0.00041  -0.00016  -0.00151  -0.00194   1.83063
   A54        1.99135  -0.00028  -0.00068  -0.00440  -0.00504   1.98631
   A55        1.97837  -0.00017   0.00042   0.00046   0.00093   1.97931
   A56        1.86715   0.00023   0.00004   0.00319   0.00329   1.87044
   A57        1.87095  -0.00030   0.00043   0.00375   0.00430   1.87525
   A58        1.91427   0.00013   0.00000  -0.00072  -0.00075   1.91352
   A59        1.84386  -0.00010   0.00061   0.00260   0.00295   1.84681
   A60        2.08693  -0.00030  -0.00012  -0.00263  -0.00273   2.08420
   A61        1.97686  -0.00020  -0.00106  -0.00791  -0.00904   1.96782
   A62        2.20472   0.00040   0.00130   0.01069   0.01203   2.21674
   A63        2.02793   0.00152   0.00148   0.01207   0.01346   2.04139
   A64        2.10529   0.00040   0.00001   0.00044   0.00038   2.10567
   A65        2.14945  -0.00190  -0.00156  -0.01298  -0.01462   2.13483
   A66        1.89618   0.00202  -0.00329  -0.01174  -0.01524   1.88094
   A67        1.92893   0.00064   0.00054  -0.00062  -0.00043   1.92850
   A68        1.83846  -0.00054   0.00079   0.00920   0.00999   1.84845
   A69        2.10204  -0.00460   0.00251  -0.01765  -0.01530   2.08674
   A70        1.84358   0.00226  -0.00035   0.01112   0.01090   1.85448
   A71        1.83419   0.00066  -0.00021   0.01543   0.01524   1.84944
   A72        2.04927   0.00547  -0.00035   0.01059   0.01024   2.05950
   A73        2.15654  -0.00543   0.00009  -0.01130  -0.01123   2.14531
   A74        2.07442  -0.00001   0.00006   0.00096   0.00100   2.07541
   A75        2.10145  -0.00032  -0.00007  -0.00119  -0.00127   2.10019
   A76        2.08271   0.00133   0.00036   0.00615   0.00652   2.08923
   A77        2.09750  -0.00103  -0.00025  -0.00516  -0.00541   2.09209
   A78        2.10099   0.00025  -0.00002   0.00031   0.00028   2.10127
   A79        2.08340  -0.00018  -0.00006  -0.00045  -0.00051   2.08290
   A80        2.09875  -0.00007   0.00009   0.00013   0.00023   2.09898
   A81        2.08617  -0.00005   0.00008   0.00083   0.00091   2.08708
   A82        2.10020   0.00007  -0.00002  -0.00015  -0.00017   2.10003
   A83        2.09671  -0.00002  -0.00006  -0.00064  -0.00070   2.09601
   A84        2.09779  -0.00029   0.00004  -0.00072  -0.00069   2.09711
   A85        2.09799   0.00010  -0.00001   0.00001   0.00000   2.09799
   A86        2.08738   0.00019  -0.00004   0.00074   0.00070   2.08808
   A87        2.10448   0.00043  -0.00011   0.00034   0.00022   2.10470
   A88        2.10275  -0.00078   0.00003  -0.00208  -0.00205   2.10070
   A89        2.07586   0.00035   0.00007   0.00183   0.00190   2.07776
   A90        2.01938   0.00141  -0.00058   0.00870   0.00806   2.02744
   A91        2.18375  -0.00249   0.00104  -0.00915  -0.00816   2.17559
   A92        2.08005   0.00107  -0.00045   0.00043  -0.00004   2.08002
   A93        2.09921  -0.00031   0.00024  -0.00079  -0.00055   2.09866
   A94        2.08292  -0.00046   0.00001   0.00178   0.00173   2.08465
   A95        2.09988   0.00078  -0.00036  -0.00139  -0.00180   2.09808
   A96        2.10066  -0.00041  -0.00002  -0.00027  -0.00028   2.10038
   A97        2.08476   0.00037  -0.00003   0.00056   0.00052   2.08528
   A98        2.09761   0.00004   0.00004  -0.00028  -0.00025   2.09736
   A99        2.08497   0.00040  -0.00009   0.00118   0.00109   2.08606
   A100       2.09925  -0.00020   0.00004  -0.00033  -0.00029   2.09896
   A101       2.09879  -0.00020   0.00003  -0.00084  -0.00081   2.09798
   A102       2.10145  -0.00029   0.00015  -0.00071  -0.00057   2.10089
   A103       2.09816   0.00002   0.00006   0.00032   0.00039   2.09855
   A104       2.08354   0.00027  -0.00021   0.00041   0.00020   2.08374
   A105       2.09953  -0.00046   0.00013   0.00011   0.00025   2.09978
   A106       2.10212  -0.00063   0.00034  -0.00133  -0.00100   2.10112
   A107       2.08114   0.00109  -0.00047   0.00133   0.00085   2.08199
   A108       2.09225   0.00053  -0.00001   0.00251   0.00251   2.09477
   A109       2.08419  -0.00016   0.00020  -0.00074  -0.00056   2.08363
   A110       2.10669  -0.00037  -0.00019  -0.00170  -0.00191   2.10478
   A111       1.40763   0.00025   0.00095   0.00791   0.00886   1.41649
   A112       1.81529  -0.00107  -0.00706  -0.03845  -0.04555   1.76974
   A113       1.92271  -0.00007  -0.00356  -0.01600  -0.01960   1.90311
   A114       1.85945   0.00174  -0.00179   0.00678   0.00511   1.86456
   A115       1.74711  -0.00126  -0.00690  -0.02853  -0.03554   1.71158
   A116       2.43335   0.00058   0.01287   0.05240   0.06520   2.49855
    D1        3.14000   0.00003  -0.00033  -0.00110  -0.00143   3.13857
    D2       -1.06925  -0.00014  -0.00015  -0.00174  -0.00188  -1.07113
    D3        1.06589   0.00016  -0.00055  -0.00092  -0.00147   1.06442
    D4       -0.00498   0.00006  -0.00009  -0.00125  -0.00133  -0.00630
    D5        3.13297  -0.00006   0.00025  -0.00022   0.00003   3.13299
    D6        3.13006  -0.00045   0.00125  -0.00314  -0.00190   3.12816
    D7        0.00670   0.00013   0.00021   0.00079   0.00099   0.00769
    D8       -0.00780  -0.00033   0.00090  -0.00420  -0.00329  -0.01108
    D9       -3.13115   0.00025  -0.00014  -0.00028  -0.00040  -3.13156
   D10        3.12848  -0.00024   0.00049   0.00080   0.00129   3.12977
   D11       -0.02480   0.00012   0.00096   0.00741   0.00834  -0.01647
   D12       -0.01657  -0.00035   0.00081   0.00180   0.00258  -0.01399
   D13        3.11333   0.00001   0.00128   0.00840   0.00962   3.12295
   D14       -3.09764   0.00086  -0.00166   0.00259   0.00090  -3.09674
   D15        0.02364   0.00051  -0.00093   0.00083  -0.00009   0.02355
   D16        0.02634   0.00031  -0.00066  -0.00119  -0.00187   0.02447
   D17       -3.13556  -0.00005   0.00007  -0.00295  -0.00286  -3.13842
   D18        3.02491  -0.00102  -0.00240  -0.02435  -0.02673   2.99817
   D19       -0.12457  -0.00037  -0.00343  -0.02286  -0.02629  -0.15086
   D20       -0.09842  -0.00070  -0.00306  -0.02276  -0.02583  -0.12425
   D21        3.03528  -0.00005  -0.00409  -0.02126  -0.02539   3.00990
   D22       -0.01368   0.00005  -0.00085   0.00522   0.00433  -0.00935
   D23       -2.98345   0.00055  -0.00166   0.00328   0.00159  -2.98186
   D24        3.10966  -0.00028  -0.00021   0.00359   0.00338   3.11304
   D25        0.13989   0.00022  -0.00101   0.00165   0.00064   0.14053
   D26        3.10750   0.00090  -0.00104   0.00191   0.00085   3.10835
   D27        0.00189   0.00077   0.00531   0.03042   0.03563   0.03752
   D28       -0.02639   0.00027  -0.00003   0.00043   0.00040  -0.02599
   D29       -3.13200   0.00014   0.00632   0.02894   0.03518  -3.09682
   D30       -3.14105  -0.00069   0.00492   0.01753   0.02251  -3.11854
   D31       -0.00710  -0.00006   0.00392   0.01900   0.02296   0.01585
   D32       -2.13959   0.00039  -0.00369  -0.01214  -0.01580  -2.15539
   D33        0.04464  -0.00033  -0.00359  -0.01823  -0.02180   0.02283
   D34        2.07592  -0.00033  -0.00358  -0.01538  -0.01895   2.05697
   D35        0.95093   0.00050  -0.01269  -0.05270  -0.06545   0.88548
   D36        3.13516  -0.00023  -0.01259  -0.05879  -0.07145   3.06371
   D37       -1.11675  -0.00022  -0.01258  -0.05595  -0.06859  -1.18534
   D38        0.05792  -0.00048  -0.00426  -0.02107  -0.02529   0.03263
   D39        1.88787   0.00149  -0.00520  -0.00834  -0.01357   1.87430
   D40       -1.64216   0.00078   0.00243   0.00486   0.00729  -1.63486
   D41       -3.03162  -0.00058   0.00492   0.02019   0.02507  -3.00655
   D42       -1.20167   0.00139   0.00399   0.03292   0.03679  -1.16488
   D43        1.55149   0.00068   0.01161   0.04611   0.05765   1.60914
   D44        0.97262  -0.00078   0.00038  -0.10879  -0.10843   0.86419
   D45       -1.11190  -0.00099   0.00178  -0.10294  -0.10116  -1.21306
   D46        3.10222  -0.00096   0.00130  -0.10878  -0.10749   2.99472
   D47       -1.07011  -0.00084   0.00051  -0.10232  -0.10179  -1.17190
   D48        3.12856  -0.00106   0.00191  -0.09646  -0.09453   3.03403
   D49        1.05949  -0.00103   0.00143  -0.10231  -0.10086   0.95863
   D50        3.04388  -0.00013  -0.00026  -0.10690  -0.10718   2.93670
   D51        0.95937  -0.00035   0.00113  -0.10105  -0.09992   0.85945
   D52       -1.10971  -0.00032   0.00065  -0.10689  -0.10625  -1.21596
   D53       -0.04715   0.00026   0.00562   0.02796   0.03353  -0.01362
   D54       -2.08585  -0.00014   0.00604   0.02736   0.03341  -2.05244
   D55        1.98938   0.00007   0.00626   0.03178   0.03800   2.02738
   D56        2.09007   0.00077   0.00519   0.01558   0.02073   2.11080
   D57        0.05136   0.00038   0.00561   0.01498   0.02061   0.07197
   D58       -2.15659   0.00058   0.00583   0.01940   0.02520  -2.13139
   D59       -2.04844   0.00015   0.00611   0.02292   0.02901  -2.01943
   D60        2.19605  -0.00025   0.00653   0.02232   0.02888   2.22493
   D61       -0.01191  -0.00004   0.00675   0.02675   0.03347   0.02157
   D62        3.09313  -0.00067  -0.00075  -0.01557  -0.01632   3.07680
   D63        1.00832  -0.00065  -0.00081  -0.01618  -0.01700   0.99132
   D64       -1.12189  -0.00083  -0.00107  -0.01846  -0.01954  -1.14143
   D65       -1.10399   0.00020  -0.00188  -0.01955  -0.02142  -1.12542
   D66        3.09438   0.00022  -0.00194  -0.02016  -0.02209   3.07229
   D67        0.96417   0.00005  -0.00220  -0.02244  -0.02463   0.93954
   D68        0.99318   0.00031  -0.00136  -0.01040  -0.01177   0.98141
   D69       -1.09163   0.00033  -0.00143  -0.01101  -0.01244  -1.10407
   D70        3.06135   0.00015  -0.00169  -0.01329  -0.01498   3.04637
   D71       -2.98177   0.00057  -0.00023   0.00877   0.00854  -2.97323
   D72        1.23159   0.00067   0.00053   0.01069   0.01122   1.24281
   D73       -0.90620   0.00045   0.00043   0.01248   0.01292  -0.89328
   D74        1.19526   0.00004   0.00064   0.01296   0.01358   1.20884
   D75       -0.87456   0.00014   0.00140   0.01488   0.01626  -0.85830
   D76       -3.01235  -0.00008   0.00130   0.01667   0.01796  -2.99439
   D77       -0.92287  -0.00019   0.00002   0.00648   0.00650  -0.91637
   D78       -2.99269  -0.00008   0.00077   0.00840   0.00918  -2.98351
   D79        1.15271  -0.00030   0.00068   0.01019   0.01088   1.16358
   D80        3.07422   0.00034   0.00039   0.01787   0.01826   3.09248
   D81        0.99847   0.00015   0.00040   0.01505   0.01545   1.01392
   D82       -1.12428   0.00035   0.00035   0.01778   0.01813  -1.10616
   D83       -1.08374   0.00011   0.00084   0.01502   0.01585  -1.06789
   D84        3.12370  -0.00008   0.00086   0.01220   0.01304   3.13674
   D85        1.00094   0.00011   0.00081   0.01492   0.01571   1.01666
   D86        1.00864  -0.00004   0.00052   0.01738   0.01791   1.02656
   D87       -1.06711  -0.00024   0.00053   0.01456   0.01511  -1.05200
   D88        3.09332  -0.00004   0.00048   0.01728   0.01778   3.11111
   D89        0.03478  -0.00014  -0.00573  -0.02834  -0.03406   0.00072
   D90        2.15681  -0.00013  -0.00659  -0.03263  -0.03927   2.11754
   D91       -2.07410  -0.00001  -0.00634  -0.02995  -0.03626  -2.11036
   D92        3.09532  -0.00020  -0.00140  -0.02311  -0.02469   3.07063
   D93       -0.01258  -0.00076   0.00265  -0.00765  -0.00497  -0.01755
   D94       -0.24248  -0.00085  -0.00077  -0.02313  -0.02406  -0.26654
   D95        2.93280  -0.00141   0.00328  -0.00767  -0.00434   2.92846
   D96       -0.11288   0.00012   0.00281   0.01006   0.01287  -0.10001
   D97       -1.89221   0.00136   0.00979   0.04896   0.05878  -1.83343
   D98        1.78946   0.00023   0.00003  -0.00203  -0.00200   1.78746
   D99       -3.06884   0.00075   0.00214   0.00972   0.01184  -3.05700
   D100       1.43501   0.00199   0.00912   0.04862   0.05775   1.49277
   D101      -1.16650   0.00086  -0.00064  -0.00237  -0.00302  -1.16953
   D102      -1.69233  -0.00454   0.01416  -0.05867  -0.04448  -1.73682
   D103       2.24864  -0.00056   0.01310  -0.02424  -0.01115   2.23749
   D104       0.27622  -0.00133   0.01269  -0.04669  -0.03403   0.24219
   D105       1.41463  -0.00391   0.01000  -0.07426  -0.06423   1.35040
   D106      -0.92759   0.00007   0.00893  -0.03983  -0.03089  -0.95848
   D107      -2.90001  -0.00070   0.00853  -0.06228  -0.05377  -2.95378
   D108       0.02745   0.00093  -0.00264   0.00427   0.00164   0.02908
   D109      -3.10230   0.00056  -0.00312  -0.00242  -0.00550  -3.10780
   D110      -3.07803   0.00026   0.00170   0.02033   0.02185  -3.05618
   D111       0.07541  -0.00011   0.00122   0.01363   0.01472   0.09012
   D112       1.81135   0.00081  -0.00277  -0.04873  -0.05161   1.75974
   D113      -1.24652   0.00040   0.00058  -0.05227  -0.05181  -1.29832
   D114      -2.22294  -0.00035  -0.00304  -0.07770  -0.08062  -2.30356
   D115       1.00238  -0.00076   0.00032  -0.08124  -0.08081   0.92156
   D116      -0.15381  -0.00055  -0.00201  -0.05940  -0.06141  -0.21523
   D117       3.07151  -0.00097   0.00134  -0.06295  -0.06161   3.00990
   D118      -1.13930  -0.00053   0.00968  -0.03398  -0.02431  -1.16362
   D119       2.00409  -0.00045   0.01180  -0.01972  -0.00793   1.99616
   D120       2.90967   0.00009   0.01166   0.00064   0.01227   2.92194
   D121      -0.23012   0.00017   0.01378   0.01490   0.02866  -0.20147
   D122       0.83584  -0.00053   0.01072  -0.01554  -0.00478   0.83106
   D123      -2.30396  -0.00045   0.01285  -0.00128   0.01161  -2.29235
   D124      -3.10509   0.00019   0.00311   0.01035   0.01346  -3.09163
   D125      -0.02272  -0.00023   0.00394   0.00635   0.01027  -0.01244
   D126      -0.04314   0.00030  -0.00008   0.01309   0.01301  -0.03013
   D127       3.03923  -0.00012   0.00075   0.00908   0.00983   3.04905
   D128       3.10401   0.00037  -0.00313  -0.00718  -0.01032   3.09369
   D129      -0.02278   0.00013  -0.00289  -0.01491  -0.01780  -0.04057
   D130       0.04728  -0.00029   0.00028  -0.01120  -0.01093   0.03636
   D131      -3.07951  -0.00053   0.00053  -0.01893  -0.01840  -3.09791
   D132       0.00938  -0.00009  -0.00012  -0.00616  -0.00628   0.00310
   D133       3.14131  -0.00022   0.00011  -0.00623  -0.00612   3.13519
   D134      -3.07249   0.00026  -0.00098  -0.00250  -0.00350  -3.07598
   D135       0.05945   0.00013  -0.00075  -0.00258  -0.00334   0.05611
   D136       0.02091  -0.00011   0.00013  -0.00286  -0.00273   0.01818
   D137      -3.13575  -0.00006   0.00017   0.00051   0.00069  -3.13506
   D138      -3.11093   0.00002  -0.00011  -0.00277  -0.00288  -3.11382
   D139       0.01559   0.00007  -0.00006   0.00060   0.00054   0.01612
   D140      -0.01682   0.00010   0.00007   0.00473   0.00481  -0.01202
   D141       3.11765   0.00020  -0.00001   0.00769   0.00767   3.12533
   D142       3.13981   0.00005   0.00002   0.00136   0.00139   3.14120
   D143      -0.00890   0.00015  -0.00006   0.00432   0.00426  -0.00464
   D144      -0.01760   0.00010  -0.00028   0.00239   0.00211  -0.01549
   D145       3.10942   0.00033  -0.00052   0.00997   0.00946   3.11887
   D146       3.13107   0.00001  -0.00019  -0.00054  -0.00074   3.13033
   D147      -0.02510   0.00023  -0.00043   0.00704   0.00661  -0.01849
   D148       3.11537   0.00017   0.00088   0.01168   0.01263   3.12799
   D149      -0.07800   0.00039  -0.00258   0.00281   0.00027  -0.07773
   D150      -0.02791   0.00009  -0.00113  -0.00169  -0.00282  -0.03073
   D151       3.06191   0.00032  -0.00458  -0.01056  -0.01518   3.04673
   D152      -3.11395  -0.00021  -0.00110  -0.01492  -0.01596  -3.12991
   D153       0.05812  -0.00037  -0.00110  -0.01915  -0.02020   0.03792
   D154       0.02950  -0.00013   0.00110  -0.00021   0.00088   0.03037
   D155      -3.08162  -0.00029   0.00109  -0.00444  -0.00336  -3.08498
   D156       0.00393  -0.00001   0.00022   0.00125   0.00149   0.00542
   D157       3.12647   0.00013  -0.00061   0.00185   0.00124   3.12771
   D158      -3.08538  -0.00020   0.00371   0.01011   0.01383  -3.07155
   D159       0.03716  -0.00006   0.00287   0.01071   0.01358   0.05074
   D160       0.01858  -0.00006   0.00072   0.00112   0.00183   0.02040
   D161       3.13992   0.00007  -0.00004   0.00167   0.00162   3.14154
   D162      -3.10382  -0.00020   0.00156   0.00051   0.00207  -3.10175
   D163       0.01753  -0.00008   0.00080   0.00106   0.00186   0.01939
   D164      -0.01699   0.00002  -0.00075  -0.00304  -0.00379  -0.02079
   D165       3.11581   0.00009  -0.00070  -0.00021  -0.00091   3.11490
   D166      -3.13835  -0.00010   0.00001  -0.00360  -0.00359   3.14125
   D167      -0.00554  -0.00003   0.00005  -0.00077  -0.00071  -0.00625
   D168      -0.00719   0.00008  -0.00017   0.00259   0.00243  -0.00476
   D169       3.10429   0.00021  -0.00015   0.00672   0.00659   3.11088
   D170      -3.14007   0.00001  -0.00021  -0.00021  -0.00043  -3.14050
   D171      -0.02859   0.00014  -0.00020   0.00392   0.00373  -0.02486
         Item               Value     Threshold  Converged?
 Maximum Force            0.005465     0.000450     NO 
 RMS     Force            0.000882     0.000300     NO 
 Maximum Displacement     0.686455     0.001800     NO 
 RMS     Displacement     0.132654     0.001200     NO 
 Predicted change in Energy=-1.437454D-03
 GradGradGradGradGradGradGradGradGradGradGradGradGradGradGradGradGradGrad

 Stoichiometry    C26H28F2N2NiO2(3)
 Framework group  C1[X(C26H28F2N2NiO2)]
 Deg. of freedom   177
 Full point group                 C1      NOp   1
 Largest Abelian subgroup         C1      NOp   1
 Largest concise Abelian subgroup C1      NOp   1
                         Standard orientation:                         
 ---------------------------------------------------------------------
 Center     Atomic      Atomic             Coordinates (Angstroms)
 Number     Number       Type             X           Y           Z
 ---------------------------------------------------------------------
      1          6           0        1.038370    5.049028    1.778219
      2          8           0        1.790161    3.892539    1.418069
      3          6           0        1.124783    2.818356    0.948498
      4          6           0       -0.271138    2.755576    0.794508
      5          6           0       -0.796882    1.580470    0.281881
      6          6           0       -2.225688    1.378945    0.010929
      7          7           0       -2.647165    0.338466   -0.605208
      8          6           0       -4.110042    0.391610   -0.688044
      9          6           0       -4.762516   -0.869124   -0.063115
     10          6           0       -4.180272   -1.145042    1.333166
     11          6           0       -4.461900   -2.083257   -0.965629
     12          6           0       -6.282574   -0.634999   -0.000170
     13          6           0       -4.432456    1.747932    0.008041
     14          8           0       -3.131433    2.281648    0.412218
     15          7           0       -0.052057    0.506295   -0.044841
     16          6           0        1.280241    0.553958    0.115951
     17          6           0        2.058599   -0.723407   -0.180520
     18          6           0        2.350613   -1.408937    1.148283
     19          6           0        1.542697   -2.491950    1.521636
     20          6           0        1.728555   -3.117443    2.754822
     21          6           0        2.716992   -2.670261    3.630841
     22          6           0        3.508105   -1.576351    3.276526
     23          6           0        3.319965   -0.944650    2.048142
     24          6           0        3.206200   -0.438278   -1.150815
     25          6           0        2.836755   -0.060834   -2.454833
     26          6           0        3.812511    0.234124   -3.402125
     27          6           0        5.167635    0.151984   -3.069193
     28          6           0        5.536269   -0.251180   -1.788525
     29          6           0        4.560088   -0.548356   -0.832441
     30          6           0        1.896868    1.707519    0.595986
     31          1           0        1.766432    5.780651    2.128659
     32          1           0        0.499240    5.454213    0.914091
     33          1           0        0.328846    4.823419    2.582753
     34          1           0       -0.929983    3.577662    1.037478
     35          1           0       -4.391309    0.429152   -1.747065
     36          1           0       -4.695820   -1.997217    1.789037
     37          1           0       -4.294484   -0.292935    2.015248
     38          1           0       -3.119770   -1.403390    1.252352
     39          1           0       -5.053396   -2.945493   -0.637155
     40          1           0       -3.406827   -2.365066   -0.897329
     41          1           0       -4.722782   -1.880989   -2.012100
     42          1           0       -6.780497   -1.528103    0.390938
     43          1           0       -6.696134   -0.433392   -0.996187
     44          1           0       -6.554372    0.201125    0.655290
     45          1           0       -5.033809    1.646725    0.912101
     46          1           0       -4.892946    2.478683   -0.658776
     47          1           0        1.366511   -1.378428   -0.717324
     48          1           0        0.730417   -2.807491    0.871420
     49          1           0        1.089457   -3.951391    3.030309
     50          1           0        2.864715   -3.161961    4.588136
     51          1           0        4.271006   -1.210011    3.957799
     52          1           0        3.930601   -0.082594    1.799994
     53          1           0        1.783637   -0.059698   -2.733920
     54          1           0        3.513494    0.511669   -4.409087
     55          1           0        5.928237    0.382489   -3.809725
     56          1           0        6.586331   -0.342979   -1.524791
     57          1           0        4.866243   -0.888068    0.149827
     58          1           0        2.973831    1.755849    0.695856
     59         28           0       -1.128829   -0.933836   -1.048659
     60          9           0       -1.437835   -2.302032    0.149758
     61          9           0       -0.525010   -0.576241   -2.735253
 ---------------------------------------------------------------------
 Rotational constants (GHZ):           0.1652446           0.0853021           0.0800262
 Basis read from rwf:  (6D, 7F)
 Pseudo-potential data read from rwf file.
 There are   613 symmetry adapted cartesian basis functions of A   symmetry.
 There are   610 symmetry adapted basis functions of A   symmetry.
   610 basis functions,  1162 primitive gaussians,   613 cartesian basis functions
   126 alpha electrons      124 beta electrons
       nuclear repulsion energy      3836.3824348609 Hartrees.
 NAtoms=   61 NActive=   61 NUniq=   61 SFac= 1.00D+00 NAtFMM=   60 NAOKFM=T Big=T
 Integral buffers will be    131072 words long.
 Raffenetti 2 integral format.
 Two-electron integral symmetry is turned on.
 Nuclear repulsion after empirical dispersion term =     3836.2316126331 Hartrees.
 One-electron integrals computed using PRISM.
 PrsmSu:  requested number of processors reduced to:  12 ShMem   1 Linda.
   1 Symmetry operations used in ECPInt.
 ECPInt:  NShTT=   21115 NPrTT=  128985 LenC2=   17093 LenP2D=   55934.
 LDataN:  DoStor=T MaxTD1= 6 Len=  172
 Number of processors reduced to  12 by ecpmxn.
 NBasis=   610 RedAO= T EigKep=  6.98D-06  NBF=   610
 NBsUse=   609 1.00D-06 EigRej=  9.94D-07 NBFU=   609
 Initial guess from the checkpoint file:  "Lig2126_xyz_2.chk"
 B after Tr=    -0.000000    0.000000    0.000000
         Rot=    0.999400    0.033544   -0.008532   -0.001194 Ang=   3.97 deg.
 Initial guess <Sx>= 0.0000 <Sy>= 0.0000 <Sz>= 1.0000 <S**2>= 2.0061 S= 1.0020
 ExpMin= 2.40D-02 ExpMax= 7.14D+04 ExpMxC= 1.07D+04 IAcc=3 IRadAn=         5 AccDes= 0.00D+00
 Harris functional with IExCor=  402 and IRadAn=       5 diagonalized for initial guess.
 HarFok:  IExCor=  402 AccDes= 0.00D+00 IRadAn=         5 IDoV= 1 UseB2=F ITyADJ=14
 ICtDFT=  3500011 ScaDFX=  1.000000  1.000000  1.000000  1.000000
 FoFCou: FMM=F IPFlag=           0 FMFlag=      100000 FMFlg1=        2001
         NFxFlg=           0 DoJE=T BraDBF=F KetDBF=T FulRan=T
         wScrn=  0.000000 ICntrl=       500 IOpCl=  0 I1Cent=   200000004 NGrid=           0
         NMat0=    1 NMatS0=      1 NMatT0=    0 NMatD0=    1 NMtDS0=    0 NMtDT0=    0
 Petite list used in FoFCou.
 Requested convergence on RMS density matrix=1.00D-08 within 128 cycles.
 Requested convergence on MAX density matrix=1.00D-06.
 Requested convergence on             energy=1.00D-06.
 No special actions if energy rises.
 Restarting incremental Fock formation.
 SCF Done:  E(UB3LYP) =  -1636.88037440     A.U. after   29 cycles
            NFock= 29  Conv=0.48D-08     -V/T= 2.0484
 <Sx>= 0.0000 <Sy>= 0.0000 <Sz>= 1.0000 <S**2>= 2.0061 S= 1.0020
 <L.S>=  0.00000000000    
 Annihilation of the first spin contaminant:
 S**2 before annihilation     2.0061,   after     2.0000
 PrsmSu:  requested number of processors reduced to:  12 ShMem   1 Linda.
   1 Symmetry operations used in ECPInt.
 ECPInt:  NShTT=   21115 NPrTT=  128985 LenC2=   17093 LenP2D=   55934.
 LDataN:  DoStor=T MaxTD1= 7 Len=  274
 Number of processors reduced to  13 by ecpmxn.
 Calling FoFJK, ICntrl=      2127 FMM=T ISym2X=0 I1Cent= 0 IOpClX= 1 NMat=1 NMatS=1 NMatT=0.
 ***** Axes restored to original set *****
 -------------------------------------------------------------------
 Center     Atomic                   Forces (Hartrees/Bohr)
 Number     Number              X              Y              Z
 -------------------------------------------------------------------
      1        6           0.000084277   -0.000157046    0.000304559
      2        8          -0.000073411    0.000404502   -0.000091300
      3        6           0.000278771   -0.000542643   -0.000004903
      4        6          -0.000025049    0.000010020   -0.000126905
      5        6          -0.000758077    0.000285012   -0.000251126
      6        6           0.000723739   -0.000504970    0.000912873
      7        7           0.001356427    0.000734204   -0.002118734
      8        6          -0.000522526   -0.000240940    0.000472150
      9        6          -0.000557746    0.000152029    0.001269335
     10        6          -0.000423882   -0.000960562   -0.000369930
     11        6           0.000656375   -0.000193618    0.000158601
     12        6          -0.000584194    0.001402924   -0.000107704
     13        6          -0.000714554    0.000427672   -0.000668693
     14        8           0.000618228   -0.001571319   -0.000167974
     15        7           0.000068943    0.000151782   -0.002230346
     16        6          -0.000206812   -0.000409588    0.001484850
     17        6           0.001950584   -0.001633774    0.000128834
     18        6          -0.000485443    0.001003443   -0.000201118
     19        6           0.000569184   -0.000690086   -0.000235921
     20        6           0.000130894    0.000271802    0.000017456
     21        6          -0.000170460   -0.000099764   -0.000272321
     22        6          -0.000155443    0.000147880    0.000155910
     23        6          -0.000464351   -0.000392142    0.000762736
     24        6           0.000109557    0.001385969    0.002220929
     25        6          -0.001729399    0.001182168    0.000290054
     26        6          -0.000004419    0.000085520   -0.000150012
     27        6           0.000145208    0.000046389    0.000038310
     28        6           0.000004708   -0.000370595    0.000090620
     29        6           0.000041148   -0.000072462   -0.000823837
     30        6           0.000458193    0.000224064    0.000069922
     31        1          -0.000247593    0.000257033   -0.000294997
     32        1           0.000108590    0.000092135    0.000019673
     33        1          -0.000057454   -0.000076649    0.000071316
     34        1          -0.000111412    0.000017313    0.000044915
     35        1           0.000069294   -0.000266174   -0.000131960
     36        1           0.000198935    0.000015094    0.000662642
     37        1           0.000876752   -0.000647510    0.000593328
     38        1          -0.000351988    0.000371205    0.000880471
     39        1          -0.000288222   -0.000251250   -0.000134314
     40        1          -0.000156272   -0.000092526    0.001087679
     41        1           0.000055539   -0.000097685   -0.000102426
     42        1          -0.000023913    0.000076474    0.000121072
     43        1           0.000288343    0.000167906    0.000067409
     44        1          -0.000511269    0.000450621    0.000112483
     45        1          -0.000306256   -0.000385564   -0.000669689
     46        1           0.000055316   -0.000067924    0.000059734
     47        1           0.000642217   -0.000272841    0.000520850
     48        1           0.000249649   -0.000264141   -0.000011514
     49        1          -0.000113569    0.000029402    0.000010048
     50        1          -0.000130194   -0.000077293    0.000131436
     51        1          -0.000073861   -0.000114190   -0.000033799
     52        1          -0.000397929   -0.000486003    0.000910743
     53        1           0.000265573   -0.001998753    0.000784568
     54        1           0.000141918   -0.000094294   -0.000113484
     55        1           0.000114125    0.000083293   -0.000134675
     56        1           0.000027876    0.000086689   -0.000153433
     57        1           0.000682189    0.001008142   -0.000336149
     58        1           0.000302602    0.000049956   -0.000180471
     59       28          -0.000080948   -0.000320250   -0.002678208
     60        9          -0.001239344    0.001979076   -0.000602319
     61        9          -0.000309161    0.000752841   -0.001057243
 -------------------------------------------------------------------
 Cartesian Forces:  Max     0.002678208 RMS     0.000660921

 GradGradGradGradGradGradGradGradGradGradGradGradGradGradGradGradGradGrad
 Berny optimization.
 Using GEDIIS/GDIIS optimizer.
 FormGI is forming the generalized inverse of G from B-inverse, IUseBI=4.
 Internal  Forces:  Max     0.008442711 RMS     0.001186399
 Search for a local minimum.
 Step number  10 out of a maximum of  362
 All quantities printed in internal units (Hartrees-Bohrs-Radians)
 Mixed Optimization -- RFO/linear search
 Update second derivatives using D2CorX and points    8   10    9
 DE=  1.66D-04 DEPred=-1.44D-03 R=-1.16D-01
 Trust test=-1.16D-01 RLast= 4.53D-01 DXMaxT set to 6.00D-01
 ITU= -1  0  1 -1  1  0  1  1  1  0
 Use linear search instead of GDIIS.
     Eigenvalues ---    0.00202   0.00230   0.00233   0.00240   0.00506
     Eigenvalues ---    0.00582   0.00877   0.01032   0.01332   0.01382
     Eigenvalues ---    0.01466   0.01477   0.01767   0.01969   0.01974
     Eigenvalues ---    0.02030   0.02048   0.02070   0.02077   0.02086
     Eigenvalues ---    0.02101   0.02107   0.02128   0.02133   0.02168
     Eigenvalues ---    0.02169   0.02176   0.02189   0.02190   0.02191
     Eigenvalues ---    0.02191   0.02191   0.02193   0.02194   0.02195
     Eigenvalues ---    0.02256   0.02304   0.02454   0.03152   0.03664
     Eigenvalues ---    0.04069   0.04445   0.04532   0.04729   0.04929
     Eigenvalues ---    0.05041   0.05219   0.05234   0.05286   0.05345
     Eigenvalues ---    0.05529   0.05586   0.05647   0.05919   0.06106
     Eigenvalues ---    0.06359   0.06767   0.07887   0.09540   0.10101
     Eigenvalues ---    0.10663   0.10690   0.11236   0.11441   0.13875
     Eigenvalues ---    0.14139   0.14453   0.14871   0.15797   0.15848
     Eigenvalues ---    0.15939   0.15988   0.15994   0.15996   0.15998
     Eigenvalues ---    0.15999   0.15999   0.15999   0.16000   0.16000
     Eigenvalues ---    0.16000   0.16000   0.16000   0.16000   0.16000
     Eigenvalues ---    0.16001   0.16010   0.16018   0.16048   0.16083
     Eigenvalues ---    0.16127   0.16341   0.17510   0.19067   0.19817
     Eigenvalues ---    0.20325   0.21005   0.21347   0.21724   0.21998
     Eigenvalues ---    0.22008   0.22042   0.22061   0.23422   0.23481
     Eigenvalues ---    0.23589   0.23648   0.24386   0.24623   0.24834
     Eigenvalues ---    0.24988   0.25458   0.26118   0.26678   0.26990
     Eigenvalues ---    0.27646   0.27756   0.27887   0.28024   0.28399
     Eigenvalues ---    0.28940   0.29753   0.32908   0.33454   0.34497
     Eigenvalues ---    0.34614   0.34661   0.34683   0.34686   0.34691
     Eigenvalues ---    0.34700   0.34728   0.34734   0.34740   0.34806
     Eigenvalues ---    0.34864   0.34890   0.34990   0.35003   0.35280
     Eigenvalues ---    0.35811   0.35867   0.35940   0.35949   0.35953
     Eigenvalues ---    0.35957   0.35967   0.35993   0.36017   0.36180
     Eigenvalues ---    0.36291   0.36966   0.37685   0.40014   0.41290
     Eigenvalues ---    0.41795   0.42014   0.42052   0.42172   0.42269
     Eigenvalues ---    0.42719   0.44997   0.45416   0.45695   0.45981
     Eigenvalues ---    0.46165   0.46271   0.46414   0.46903   0.46939
     Eigenvalues ---    0.46986   0.47063   0.48063   0.49998   0.50030
     Eigenvalues ---    0.54487   0.67806
 RFO step:  Lambda=-1.36617012D-03 EMin= 2.02462525D-03
 Quartic linear search produced a step of -0.51728.
 Iteration  1 RMS(Cart)=  0.10541790 RMS(Int)=  0.00256041
 Iteration  2 RMS(Cart)=  0.00470999 RMS(Int)=  0.00002788
 Iteration  3 RMS(Cart)=  0.00000820 RMS(Int)=  0.00002758
 Iteration  4 RMS(Cart)=  0.00000000 RMS(Int)=  0.00002758
 Variable       Old X    -DE/DX   Delta X   Delta X   Delta X     New X
                                 (Linear)    (Quad)   (Total)
    R1        2.69401  -0.00010  -0.00035   0.00187   0.00152   2.69553
    R2        2.05985  -0.00002   0.00012  -0.00039  -0.00027   2.05958
    R3        2.07143   0.00014   0.00027  -0.00024   0.00003   2.07146
    R4        2.07147   0.00010   0.00034  -0.00051  -0.00017   2.07130
    R5        2.54734  -0.00048  -0.00267   0.00480   0.00213   2.54948
    R6        2.65656   0.00089  -0.00063   0.00319   0.00256   2.65912
    R7        2.64179   0.00028   0.00103  -0.00065   0.00037   2.64217
    R8        2.61853   0.00059   0.00018   0.00114   0.00133   2.61986
    R9        2.04312  -0.00004   0.00052  -0.00158  -0.00107   2.04206
   R10        2.77443  -0.00008   0.00103  -0.00108  -0.00003   2.77441
   R11        2.54613  -0.00195  -0.00110  -0.00267  -0.00377   2.54236
   R12        2.41993   0.00196   0.00178  -0.00045   0.00133   2.42126
   R13        2.53271  -0.00005  -0.00054   0.00036  -0.00018   2.53254
   R14        2.77068   0.00313   0.00320   0.00173   0.00491   2.77560
   R15        3.83607   0.00322   0.00789   0.00399   0.01188   3.84795
   R16        2.93103   0.00324   0.00379  -0.00061   0.00318   2.93421
   R17        2.94464   0.00060   0.00047  -0.00234  -0.00186   2.94277
   R18        2.07186  -0.00012  -0.00038   0.00003  -0.00034   2.07151
   R19        2.90597   0.00011  -0.00056   0.00004  -0.00052   2.90545
   R20        2.91473  -0.00089  -0.00221   0.00123  -0.00098   2.91375
   R21        2.90880  -0.00023   0.00017  -0.00266  -0.00249   2.90631
   R22        2.06993   0.00029   0.00003   0.00022   0.00025   2.07018
   R23        2.07385   0.00082   0.00035   0.00049   0.00084   2.07470
   R24        2.06831  -0.00064   0.00009  -0.00087  -0.00077   2.06754
   R25        2.07114  -0.00002   0.00049  -0.00063  -0.00014   2.07100
   R26        2.06773  -0.00091   0.00020  -0.00210  -0.00191   2.06582
   R27        2.07360  -0.00001   0.00043  -0.00063  -0.00020   2.07340
   R28        2.06882   0.00012   0.00023   0.00000   0.00023   2.06905
   R29        2.07330   0.00034   0.00034  -0.00025   0.00008   2.07339
   R30        2.07234  -0.00047  -0.00007   0.00027   0.00020   2.07253
   R31        2.76499  -0.00015   0.00317  -0.00265   0.00054   2.76553
   R32        2.06075  -0.00015  -0.00072   0.00097   0.00025   2.06100
   R33        2.06205   0.00007   0.00045  -0.00050  -0.00005   2.06200
   R34        2.53755  -0.00591  -0.00108  -0.00415  -0.00524   2.53231
   R35        3.89167  -0.00103   0.00437  -0.00410   0.00026   3.89193
   R36        2.88169  -0.00319  -0.00343  -0.00397  -0.00740   2.87429
   R37        2.63301  -0.00066  -0.00125   0.00080  -0.00045   2.63256
   R38        2.87893   0.00127  -0.00079   0.00339   0.00261   2.88153
   R39        2.89058  -0.00128   0.00002  -0.00531  -0.00528   2.88529
   R40        2.06681   0.00014  -0.00011  -0.00040  -0.00051   2.06630
   R41        2.64901  -0.00069  -0.00017  -0.00080  -0.00097   2.64804
   R42        2.64896   0.00043  -0.00018   0.00033   0.00015   2.64910
   R43        2.63651   0.00007  -0.00019   0.00045   0.00027   2.63678
   R44        2.05463  -0.00009   0.00033  -0.00152  -0.00119   2.05344
   R45        2.63506  -0.00006   0.00010   0.00009   0.00019   2.63525
   R46        2.05260   0.00008   0.00033  -0.00029   0.00004   2.05264
   R47        2.63753  -0.00024   0.00019  -0.00083  -0.00064   2.63689
   R48        2.05277   0.00016   0.00033  -0.00008   0.00025   2.05302
   R49        2.63437   0.00039   0.00039   0.00011   0.00050   2.63487
   R50        2.05308   0.00013   0.00031  -0.00011   0.00019   2.05327
   R51        2.05067  -0.00062   0.00014  -0.00097  -0.00083   2.04985
   R52        2.65869  -0.00144  -0.00126  -0.00086  -0.00211   2.65658
   R53        2.63648   0.00074   0.00033   0.00049   0.00082   2.63730
   R54        2.62968   0.00024   0.00073  -0.00032   0.00044   2.63012
   R55        2.05880   0.00033   0.00069  -0.00067   0.00002   2.05882
   R56        2.64153  -0.00015  -0.00030   0.00017  -0.00012   2.64141
   R57        2.05313   0.00008   0.00038  -0.00037   0.00000   2.05313
   R58        2.63110   0.00017   0.00072  -0.00030   0.00041   2.63150
   R59        2.05280   0.00019   0.00034   0.00001   0.00036   2.05316
   R60        2.64247   0.00027   0.00001  -0.00013  -0.00013   2.64234
   R61        2.05330   0.00011   0.00030  -0.00014   0.00016   2.05346
   R62        2.04753  -0.00101  -0.00052   0.00038  -0.00014   2.04739
   R63        2.04594   0.00008   0.00031  -0.00039  -0.00008   2.04585
   R64        3.48635   0.00113   0.00386  -0.00440  -0.00054   3.48581
   R65        3.45209   0.00070   0.00467  -0.00381   0.00086   3.45294
    A1        1.84780  -0.00075  -0.00172  -0.00191  -0.00364   1.84417
    A2        1.93915   0.00003  -0.00050   0.00123   0.00073   1.93987
    A3        1.93884   0.00019  -0.00066   0.00237   0.00172   1.94056
    A4        1.91119   0.00024   0.00127  -0.00115   0.00013   1.91131
    A5        1.91189   0.00018   0.00113  -0.00131  -0.00018   1.91171
    A6        1.91380   0.00009   0.00047   0.00060   0.00107   1.91487
    A7        2.06479   0.00057  -0.00397   0.01470   0.01073   2.07552
    A8        2.16988   0.00081  -0.00166   0.00802   0.00637   2.17625
    A9        2.03580  -0.00047  -0.00016  -0.00403  -0.00419   2.03161
   A10        2.07751  -0.00035   0.00182  -0.00399  -0.00219   2.07531
   A11        2.04334  -0.00034  -0.00161   0.00274   0.00112   2.04446
   A12        2.14901   0.00021   0.00048  -0.00032   0.00015   2.14916
   A13        2.09065   0.00013   0.00115  -0.00264  -0.00150   2.08915
   A14        2.15787   0.00170   0.00166   0.00182   0.00344   2.16131
   A15        2.16044  -0.00087  -0.00011  -0.00166  -0.00181   2.15863
   A16        1.96470  -0.00084  -0.00154  -0.00033  -0.00184   1.96287
   A17        2.11839  -0.00068  -0.00094  -0.00206  -0.00298   2.11541
   A18        2.10595  -0.00053  -0.00080  -0.00048  -0.00135   2.10460
   A19        2.05882   0.00121   0.00174   0.00260   0.00435   2.06317
   A20        1.90300  -0.00113  -0.00092  -0.00327  -0.00413   1.89887
   A21        1.94785   0.00021   0.00237   0.00092   0.00337   1.95122
   A22        2.42897   0.00093  -0.00015   0.00250   0.00236   2.43134
   A23        1.94711   0.00369   0.00556   0.01296   0.01854   1.96565
   A24        1.78519  -0.00090  -0.00085   0.00096   0.00019   1.78538
   A25        1.88786  -0.00140  -0.00152  -0.00411  -0.00567   1.88219
   A26        2.02693  -0.00205   0.00051  -0.01020  -0.00974   2.01719
   A27        1.88504  -0.00026  -0.00321   0.00178  -0.00146   1.88358
   A28        1.92688   0.00095  -0.00041  -0.00120  -0.00164   1.92524
   A29        1.93094  -0.00003   0.00067   0.00227   0.00286   1.93380
   A30        1.89873   0.00006   0.00059   0.00699   0.00752   1.90626
   A31        1.88416   0.00076   0.00262  -0.00772  -0.00509   1.87908
   A32        1.89258   0.00114   0.00244   0.00561   0.00800   1.90059
   A33        1.94342  -0.00082  -0.00210  -0.00494  -0.00702   1.93640
   A34        1.91360  -0.00112  -0.00426  -0.00200  -0.00623   1.90737
   A35        1.91694  -0.00056  -0.00006  -0.00322  -0.00328   1.91366
   A36        1.96667  -0.00127  -0.00124  -0.00235  -0.00359   1.96308
   A37        1.92003   0.00078   0.00226   0.00171   0.00397   1.92400
   A38        1.87174   0.00048   0.00039  -0.00110  -0.00073   1.87101
   A39        1.87878  -0.00001   0.00026  -0.00002   0.00024   1.87902
   A40        1.90710   0.00061  -0.00162   0.00503   0.00341   1.91051
   A41        1.91636  -0.00032  -0.00164  -0.00223  -0.00387   1.91249
   A42        1.93279   0.00002   0.00414   0.00271   0.00685   1.93965
   A43        1.94614   0.00006  -0.00175   0.00123  -0.00052   1.94561
   A44        1.87451  -0.00019  -0.00011  -0.00230  -0.00240   1.87211
   A45        1.87814   0.00027  -0.00008   0.00081   0.00073   1.87887
   A46        1.91373   0.00016  -0.00064  -0.00042  -0.00107   1.91266
   A47        1.91736  -0.00000  -0.00084   0.00147   0.00063   1.91799
   A48        1.94235   0.00005  -0.00058   0.00081   0.00023   1.94258
   A49        1.96618   0.00014   0.00175  -0.00459  -0.00284   1.96335
   A50        1.87841  -0.00005  -0.00044   0.00118   0.00074   1.87915
   A51        1.87103  -0.00021  -0.00039   0.00046   0.00006   1.87109
   A52        1.88502   0.00006   0.00043   0.00089   0.00132   1.88635
   A53        1.83063   0.00162   0.00100   0.00128   0.00235   1.83298
   A54        1.98631  -0.00039   0.00261  -0.00207   0.00053   1.98683
   A55        1.97931   0.00006  -0.00048   0.00069   0.00018   1.97949
   A56        1.87044  -0.00038  -0.00170  -0.00265  -0.00438   1.86606
   A57        1.87525  -0.00116  -0.00222   0.00189  -0.00035   1.87490
   A58        1.91352   0.00022   0.00039   0.00089   0.00129   1.91481
   A59        1.84681  -0.00081  -0.00152  -0.00157  -0.00299   1.84382
   A60        2.08420   0.00116   0.00141   0.00004   0.00142   2.08562
   A61        1.96782   0.00294   0.00467   0.00290   0.00759   1.97541
   A62        2.21674  -0.00415  -0.00622  -0.00383  -0.01006   2.20668
   A63        2.04139  -0.00844  -0.00696  -0.00862  -0.01563   2.02576
   A64        2.10567   0.00192  -0.00020   0.00230   0.00203   2.10770
   A65        2.13483   0.00655   0.00756   0.00694   0.01446   2.14930
   A66        1.88094  -0.00049   0.00788   0.00832   0.01628   1.89721
   A67        1.92850  -0.00076   0.00022   0.00145   0.00175   1.93026
   A68        1.84845  -0.00090  -0.00517  -0.01057  -0.01572   1.83273
   A69        2.08674   0.00407   0.00792  -0.00771   0.00019   2.08692
   A70        1.85448  -0.00074  -0.00564   0.00293  -0.00272   1.85177
   A71        1.84944  -0.00174  -0.00788   0.00456  -0.00337   1.84607
   A72        2.05950  -0.00253  -0.00529   0.00506  -0.00024   2.05926
   A73        2.14531   0.00335   0.00581  -0.00335   0.00245   2.14777
   A74        2.07541  -0.00085  -0.00052  -0.00196  -0.00247   2.07295
   A75        2.10019   0.00078   0.00066   0.00081   0.00147   2.10165
   A76        2.08923  -0.00064  -0.00337   0.00229  -0.00109   2.08814
   A77        2.09209  -0.00013   0.00280  -0.00341  -0.00062   2.09147
   A78        2.10127   0.00000  -0.00014   0.00047   0.00033   2.10160
   A79        2.08290   0.00008   0.00026   0.00002   0.00028   2.08318
   A80        2.09898  -0.00008  -0.00012  -0.00052  -0.00064   2.09834
   A81        2.08708  -0.00038  -0.00047  -0.00071  -0.00118   2.08590
   A82        2.10003   0.00013   0.00009   0.00044   0.00052   2.10055
   A83        2.09601   0.00024   0.00036   0.00024   0.00060   2.09661
   A84        2.09711   0.00014   0.00035  -0.00032   0.00004   2.09715
   A85        2.09799  -0.00011  -0.00000  -0.00023  -0.00023   2.09776
   A86        2.08808  -0.00003  -0.00036   0.00054   0.00018   2.08826
   A87        2.10470   0.00029  -0.00011   0.00170   0.00159   2.10629
   A88        2.10070   0.00022   0.00106  -0.00121  -0.00014   2.10055
   A89        2.07776  -0.00051  -0.00098  -0.00048  -0.00146   2.07630
   A90        2.02744  -0.00475  -0.00417   0.00213  -0.00204   2.02540
   A91        2.17559   0.00494   0.00422  -0.00325   0.00098   2.17656
   A92        2.08002  -0.00019   0.00002   0.00103   0.00110   2.08111
   A93        2.09866   0.00061   0.00029  -0.00071  -0.00050   2.09816
   A94        2.08465  -0.00128  -0.00090  -0.00030  -0.00136   2.08330
   A95        2.09808   0.00073   0.00093   0.00241   0.00319   2.10127
   A96        2.10038  -0.00015   0.00014  -0.00007   0.00011   2.10049
   A97        2.08528   0.00019  -0.00027   0.00089   0.00059   2.08587
   A98        2.09736  -0.00003   0.00013  -0.00068  -0.00058   2.09678
   A99        2.08606  -0.00017  -0.00057   0.00092   0.00036   2.08642
   A100       2.09896   0.00004   0.00015  -0.00017  -0.00003   2.09893
   A101       2.09798   0.00014   0.00042  -0.00066  -0.00025   2.09773
   A102       2.10089   0.00008   0.00029  -0.00083  -0.00054   2.10034
   A103       2.09855  -0.00017  -0.00020  -0.00059  -0.00079   2.09776
   A104       2.08374   0.00010  -0.00010   0.00142   0.00132   2.08506
   A105       2.09978  -0.00018  -0.00013  -0.00022  -0.00036   2.09942
   A106       2.10112   0.00050   0.00052  -0.00126  -0.00075   2.10037
   A107       2.08199  -0.00033  -0.00044   0.00139   0.00094   2.08293
   A108       2.09477  -0.00153  -0.00130   0.00006  -0.00126   2.09350
   A109       2.08363   0.00070   0.00029  -0.00121  -0.00091   2.08272
   A110       2.10478   0.00083   0.00099   0.00115   0.00215   2.10693
   A111       1.41649  -0.00163  -0.00458  -0.00227  -0.00685   1.40964
   A112       1.76974   0.00180   0.02356  -0.00401   0.01957   1.78930
   A113       1.90311   0.00086   0.01014   0.00008   0.01026   1.91337
   A114       1.86456   0.00116  -0.00264   0.01305   0.01040   1.87496
   A115       1.71158  -0.00007   0.01838  -0.00459   0.01383   1.72540
   A116       2.49855  -0.00219  -0.03372  -0.00108  -0.03474   2.46381
    D1        3.13857   0.00003   0.00074   0.00063   0.00137   3.13994
    D2       -1.07113  -0.00012   0.00097  -0.00123  -0.00026  -1.07139
    D3        1.06442   0.00015   0.00076   0.00207   0.00283   1.06725
    D4       -0.00630   0.00007   0.00069   0.00000   0.00071  -0.00560
    D5        3.13299  -0.00006  -0.00001  -0.00273  -0.00276   3.13023
    D6        3.12816  -0.00026   0.00098  -0.01319  -0.01221   3.11595
    D7        0.00769   0.00007  -0.00051  -0.00158  -0.00209   0.00559
    D8       -0.01108  -0.00012   0.00170  -0.01039  -0.00867  -0.01975
    D9       -3.13156   0.00021   0.00021   0.00121   0.00145  -3.13010
   D10        3.12977  -0.00001  -0.00067   0.00029  -0.00038   3.12940
   D11       -0.01647  -0.00004  -0.00431  -0.00007  -0.00441  -0.02088
   D12       -0.01399  -0.00013  -0.00134  -0.00227  -0.00362  -0.01761
   D13        3.12295  -0.00017  -0.00498  -0.00264  -0.00765   3.11530
   D14       -3.09674   0.00082  -0.00046   0.01769   0.01724  -3.07950
   D15        0.02355   0.00029   0.00005   0.00673   0.00680   0.03035
   D16        0.02447   0.00050   0.00097   0.00652   0.00750   0.03197
   D17       -3.13842  -0.00003   0.00148  -0.00443  -0.00294  -3.14136
   D18        2.99817  -0.00032   0.01383  -0.01677  -0.00294   2.99524
   D19       -0.15086  -0.00002   0.01360  -0.00799   0.00560  -0.14527
   D20       -0.12425   0.00016   0.01336  -0.00689   0.00647  -0.11778
   D21        3.00990   0.00046   0.01313   0.00188   0.01501   3.02491
   D22       -0.00935  -0.00015  -0.00224   0.01052   0.00824  -0.00111
   D23       -2.98186   0.00060  -0.00082   0.01610   0.01526  -2.96660
   D24        3.11304  -0.00060  -0.00175   0.00067  -0.00109   3.11195
   D25        0.14053   0.00015  -0.00033   0.00625   0.00594   0.14647
   D26        3.10835   0.00015  -0.00044   0.00577   0.00531   3.11366
   D27        0.03752  -0.00006  -0.01843   0.00405  -0.01434   0.02319
   D28       -0.02599  -0.00013  -0.00021  -0.00276  -0.00300  -0.02900
   D29       -3.09682  -0.00034  -0.01820  -0.00449  -0.02265  -3.11947
   D30       -3.11854  -0.00062  -0.01164  -0.00078  -0.01243  -3.13097
   D31        0.01585  -0.00034  -0.01188   0.00768  -0.00418   0.01168
   D32       -2.15539   0.00152   0.00817   0.00156   0.00970  -2.14569
   D33        0.02283   0.00048   0.01128  -0.00311   0.00818   0.03101
   D34        2.05697   0.00056   0.00980  -0.00568   0.00412   2.06110
   D35        0.88548   0.00173   0.03386   0.00376   0.03759   0.92307
   D36        3.06371   0.00069   0.03696  -0.00091   0.03607   3.09978
   D37       -1.18534   0.00076   0.03548  -0.00348   0.03201  -1.15333
   D38        0.03263  -0.00001   0.01308  -0.00046   0.01260   0.04523
   D39        1.87430   0.00072   0.00702   0.01297   0.02003   1.89432
   D40       -1.63486   0.00071  -0.00377   0.00519   0.00143  -1.63344
   D41       -3.00655  -0.00017  -0.01297  -0.00254  -0.01556  -3.02211
   D42       -1.16488   0.00056  -0.01903   0.01089  -0.00813  -1.17302
   D43        1.60914   0.00055  -0.02982   0.00311  -0.02673   1.58241
   D44        0.86419   0.00171   0.05609   0.02453   0.08060   0.94480
   D45       -1.21306   0.00030   0.05233   0.01197   0.06427  -1.14878
   D46        2.99472   0.00117   0.05560   0.01484   0.07043   3.06515
   D47       -1.17190   0.00154   0.05265   0.02061   0.07329  -1.09862
   D48        3.03403   0.00013   0.04890   0.00805   0.05696   3.09099
   D49        0.95863   0.00100   0.05217   0.01092   0.06311   1.02174
   D50        2.93670   0.00199   0.05544   0.02823   0.08369   3.02038
   D51        0.85945   0.00058   0.05169   0.01567   0.06736   0.92680
   D52       -1.21596   0.00146   0.05496   0.01854   0.07351  -1.14245
   D53       -0.01362  -0.00069  -0.01735   0.00707  -0.01029  -0.02390
   D54       -2.05244  -0.00104  -0.01728   0.01056  -0.00673  -2.05918
   D55        2.02738  -0.00106  -0.01965   0.01051  -0.00914   2.01823
   D56        2.11080   0.00213  -0.01073   0.01821   0.00746   2.11826
   D57        0.07197   0.00177  -0.01066   0.02169   0.01102   0.08299
   D58       -2.13139   0.00176  -0.01303   0.02164   0.00860  -2.12279
   D59       -2.01943   0.00098  -0.01501   0.01178  -0.00323  -2.02266
   D60        2.22493   0.00063  -0.01494   0.01527   0.00032   2.22525
   D61        0.02157   0.00061  -0.01731   0.01521  -0.00209   0.01948
   D62        3.07680  -0.00057   0.00844  -0.05426  -0.04581   3.03099
   D63        0.99132   0.00003   0.00879  -0.04913  -0.04035   0.95097
   D64       -1.14143  -0.00045   0.01011  -0.05521  -0.04511  -1.18654
   D65       -1.12542   0.00019   0.01108  -0.04091  -0.02981  -1.15523
   D66        3.07229   0.00079   0.01143  -0.03578  -0.02435   3.04794
   D67        0.93954   0.00031   0.01274  -0.04186  -0.02911   0.91043
   D68        0.98141  -0.00097   0.00609  -0.04278  -0.03669   0.94472
   D69       -1.10407  -0.00037   0.00643  -0.03766  -0.03123  -1.13530
   D70        3.04637  -0.00085   0.00775  -0.04374  -0.03599   3.01038
   D71       -2.97323   0.00000  -0.00442   0.02877   0.02438  -2.94886
   D72        1.24281   0.00043  -0.00580   0.03135   0.02557   1.26838
   D73       -0.89328   0.00017  -0.00668   0.02911   0.02244  -0.87084
   D74        1.20884  -0.00067  -0.00703   0.01863   0.01158   1.22042
   D75       -0.85830  -0.00024  -0.00841   0.02120   0.01277  -0.84552
   D76       -2.99439  -0.00050  -0.00929   0.01896   0.00965  -2.98474
   D77       -0.91637   0.00031  -0.00336   0.02239   0.01903  -0.89734
   D78       -2.98351   0.00074  -0.00475   0.02496   0.02022  -2.96329
   D79        1.16358   0.00048  -0.00563   0.02273   0.01709   1.18068
   D80        3.09248  -0.00009  -0.00944   0.00753  -0.00192   3.09056
   D81        1.01392  -0.00005  -0.00799   0.00460  -0.00339   1.01054
   D82       -1.10616  -0.00027  -0.00938   0.00612  -0.00325  -1.10941
   D83       -1.06789  -0.00014  -0.00820   0.00220  -0.00600  -1.07389
   D84        3.13674  -0.00010  -0.00675  -0.00073  -0.00747   3.12927
   D85        1.01666  -0.00031  -0.00813   0.00079  -0.00733   1.00932
   D86        1.02656   0.00002  -0.00927   0.00474  -0.00453   1.02203
   D87       -1.05200   0.00006  -0.00781   0.00181  -0.00600  -1.05800
   D88        3.11111  -0.00015  -0.00920   0.00333  -0.00587   3.10524
   D89        0.00072   0.00064   0.01762  -0.00864   0.00897   0.00969
   D90        2.11754   0.00084   0.02031  -0.01169   0.00862   2.12616
   D91       -2.11036   0.00030   0.01876  -0.01105   0.00769  -2.10267
   D92        3.07063   0.00057   0.01277  -0.01087   0.00179   3.07242
   D93       -0.01755  -0.00019   0.00257  -0.02378  -0.02121  -0.03876
   D94       -0.26654   0.00056   0.01245  -0.01654  -0.00416  -0.27071
   D95        2.92846  -0.00020   0.00225  -0.02945  -0.02716   2.90130
   D96       -0.10001  -0.00014  -0.00666  -0.00343  -0.01008  -0.11009
   D97       -1.83343  -0.00144  -0.03040   0.00283  -0.02758  -1.86102
   D98        1.78746   0.00058   0.00103  -0.00303  -0.00198   1.78548
   D99       -3.05700  -0.00002  -0.00613   0.00214  -0.00400  -3.06100
   D100       1.49277  -0.00132  -0.02987   0.00840  -0.02151   1.47126
   D101      -1.16953   0.00070   0.00156   0.00254   0.00409  -1.16543
   D102      -1.73682   0.00136   0.02301  -0.07305  -0.04997  -1.78679
   D103       2.23749  -0.00303   0.00577  -0.07062  -0.06486   2.17262
   D104       0.24219  -0.00013   0.01760  -0.07096  -0.05337   0.18881
   D105       1.35040   0.00196   0.03322  -0.06007  -0.02680   1.32360
   D106      -0.95848  -0.00242   0.01598  -0.05764  -0.04170  -1.00018
   D107      -2.95378   0.00047   0.02781  -0.05798  -0.03021  -2.98399
   D108       0.02908   0.00033  -0.00085   0.01991   0.01906   0.04815
   D109      -3.10780   0.00036   0.00285   0.02028   0.02316  -3.08464
   D110      -3.05618   0.00000  -0.01130   0.00678  -0.00464  -3.06082
   D111       0.09012   0.00004  -0.00761   0.00716  -0.00055   0.08958
   D112       1.75974  -0.00085   0.02670  -0.02369   0.00305   1.76279
   D113      -1.29832  -0.00029   0.02680  -0.02015   0.00669  -1.29163
   D114      -2.30356   0.00099   0.04170  -0.02012   0.02155  -2.28201
   D115       0.92156   0.00155   0.04180  -0.01658   0.02519   0.94675
   D116      -0.21523   0.00076   0.03177  -0.01676   0.01500  -0.20023
   D117       3.00990   0.00132   0.03187  -0.01322   0.01864   3.02854
   D118      -1.16362   0.00238   0.01258   0.08079   0.09336  -1.07026
   D119       1.99616   0.00237   0.00410   0.08681   0.09090   2.08706
   D120       2.92194   0.00028  -0.00635   0.07412   0.06780   2.98975
   D121      -0.20147   0.00028  -0.01482   0.08013   0.06535  -0.13612
   D122       0.83106   0.00001   0.00247   0.07157   0.07401   0.90507
   D123      -2.29235   0.00001  -0.00601   0.07758   0.07156  -2.22080
   D124      -3.09163  -0.00009  -0.00696   0.00323  -0.00374  -3.09537
   D125      -0.01244   0.00002  -0.00531  -0.00274  -0.00805  -0.02049
   D126      -0.03013  -0.00042  -0.00673  -0.00025  -0.00698  -0.03712
   D127       3.04905  -0.00031  -0.00508  -0.00622  -0.01130   3.03776
   D128       3.09369  -0.00027   0.00534  -0.00343   0.00191   3.09560
   D129      -0.04057   0.00007   0.00921  -0.00525   0.00395  -0.03662
   D130       0.03636   0.00036   0.00565  -0.00018   0.00548   0.04183
   D131      -3.09791   0.00071   0.00952  -0.00200   0.00752  -3.09039
   D132       0.00310   0.00020   0.00325   0.00047   0.00372   0.00682
   D133       3.13519   0.00013   0.00317  -0.00261   0.00055   3.13574
   D134      -3.07598   0.00011   0.00181   0.00624   0.00806  -3.06792
   D135       0.05611   0.00004   0.00173   0.00316   0.00489   0.06100
   D136       0.01818   0.00010   0.00141  -0.00018   0.00124   0.01942
   D137      -3.13506  -0.00012  -0.00036  -0.00306  -0.00341  -3.13848
   D138      -3.11382   0.00016   0.00149   0.00293   0.00443  -3.10939
   D139       0.01612  -0.00006  -0.00028   0.00005  -0.00022   0.01590
   D140      -0.01202  -0.00015  -0.00249  -0.00027  -0.00276  -0.01477
   D141       3.12533  -0.00028  -0.00397   0.00039  -0.00358   3.12175
   D142       3.14120   0.00007  -0.00072   0.00260   0.00188  -3.14010
   D143      -0.00464  -0.00006  -0.00220   0.00326   0.00106  -0.00358
   D144      -0.01549  -0.00010  -0.00109   0.00043  -0.00066  -0.01615
   D145       3.11887  -0.00043  -0.00489   0.00222  -0.00267   3.11620
   D146       3.13033   0.00003   0.00038  -0.00022   0.00016   3.13049
   D147      -0.01849  -0.00030  -0.00342   0.00157  -0.00185  -0.02034
   D148       3.12799  -0.00010  -0.00653   0.00721   0.00065   3.12864
   D149      -0.07773   0.00092  -0.00014   0.03243   0.03223  -0.04550
   D150      -0.03073  -0.00003   0.00146   0.00150   0.00296  -0.02777
   D151       3.04673   0.00099   0.00785   0.02672   0.03455   3.08128
   D152      -3.12991  -0.00007   0.00826  -0.01130  -0.00308  -3.13299
   D153       0.03792   0.00028   0.01045  -0.00699   0.00343   0.04135
   D154       0.03037  -0.00003  -0.00045  -0.00512  -0.00558   0.02479
   D155      -3.08498   0.00032   0.00174  -0.00081   0.00093  -3.08405
   D156       0.00542   0.00010  -0.00077   0.00302   0.00225   0.00767
   D157       3.12771   0.00032  -0.00064   0.01141   0.01078   3.13849
   D158      -3.07155  -0.00085  -0.00716  -0.02229  -0.02949  -3.10104
   D159       0.05074  -0.00063  -0.00703  -0.01390  -0.02096   0.02978
   D160       0.02040  -0.00011  -0.00095  -0.00390  -0.00485   0.01556
   D161       3.14154  -0.00001  -0.00084   0.00140   0.00056  -3.14108
   D162      -3.10175  -0.00033  -0.00107  -0.01236  -0.01345  -3.11519
   D163       0.01939  -0.00023  -0.00096  -0.00707  -0.00804   0.01135
   D164      -0.02079   0.00005   0.00196   0.00026   0.00223  -0.01856
   D165       3.11490  -0.00005   0.00047   0.00089   0.00136   3.11626
   D166       3.14125  -0.00004   0.00186  -0.00503  -0.00318   3.13807
   D167      -0.00625  -0.00015   0.00037  -0.00441  -0.00405  -0.01030
   D168      -0.00476   0.00002  -0.00126   0.00429   0.00303  -0.00173
   D169       3.11088  -0.00031  -0.00341  -0.00001  -0.00344   3.10744
   D170      -3.14050   0.00012   0.00022   0.00367   0.00390  -3.13660
   D171      -0.02486  -0.00021  -0.00193  -0.00063  -0.00257  -0.02743
         Item               Value     Threshold  Converged?
 Maximum Force            0.008443     0.000450     NO 
 RMS     Force            0.001186     0.000300     NO 
 Maximum Displacement     0.528782     0.001800     NO 
 RMS     Displacement     0.106728     0.001200     NO 
 Predicted change in Energy=-1.401267D-03
 GradGradGradGradGradGradGradGradGradGradGradGradGradGradGradGradGradGrad

 Stoichiometry    C26H28F2N2NiO2(3)
 Framework group  C1[X(C26H28F2N2NiO2)]
 Deg. of freedom   177
 Full point group                 C1      NOp   1
 Largest Abelian subgroup         C1      NOp   1
 Largest concise Abelian subgroup C1      NOp   1
                         Standard orientation:                         
 ---------------------------------------------------------------------
 Center     Atomic      Atomic             Coordinates (Angstroms)
 Number     Number       Type             X           Y           Z
 ---------------------------------------------------------------------
      1          6           0        1.000308    5.132285    1.670774
      2          8           0        1.749666    3.966118    1.334367
      3          6           0        1.091633    2.868479    0.907375
      4          6           0       -0.305645    2.775455    0.769463
      5          6           0       -0.815250    1.579985    0.286579
      6          6           0       -2.239339    1.349019    0.014371
      7          7           0       -2.637867    0.285309   -0.578388
      8          6           0       -4.103118    0.317942   -0.674801
      9          6           0       -4.772713   -0.918592   -0.016345
     10          6           0       -4.303427   -1.083575    1.438457
     11          6           0       -4.392610   -2.184560   -0.810239
     12          6           0       -6.295720   -0.715388   -0.083105
     13          6           0       -4.447407    1.692488   -0.028959
     14          8           0       -3.158947    2.252194    0.381285
     15          7           0       -0.054050    0.513330   -0.018071
     16          6           0        1.274389    0.582997    0.143486
     17          6           0        2.049536   -0.695690   -0.135043
     18          6           0        2.418927   -1.343124    1.195191
     19          6           0        1.645707   -2.424974    1.637150
     20          6           0        1.904151   -3.020026    2.872483
     21          6           0        2.929941   -2.540333    3.686310
     22          6           0        3.683934   -1.443506    3.267320
     23          6           0        3.423728   -0.843978    2.035666
     24          6           0        3.134967   -0.448931   -1.180109
     25          6           0        2.689569   -0.026820   -2.444912
     26          6           0        3.606506    0.238187   -3.457880
     27          6           0        4.976315    0.078479   -3.230087
     28          6           0        5.418339   -0.366203   -1.986699
     29          6           0        4.501782   -0.630472   -0.964333
     30          6           0        1.878468    1.760433    0.578721
     31          1           0        1.734919    5.873735    1.984524
     32          1           0        0.446205    5.510059    0.803684
     33          1           0        0.305897    4.932807    2.495037
     34          1           0       -0.977029    3.591960    0.993696
     35          1           0       -4.369784    0.319711   -1.738067
     36          1           0       -4.869180   -1.889365    1.918797
     37          1           0       -4.460575   -0.175837    2.035668
     38          1           0       -3.244975   -1.359220    1.465731
     39          1           0       -5.010840   -3.026082   -0.477537
     40          1           0       -3.349051   -2.460105   -0.636707
     41          1           0       -4.563756   -2.050747   -1.885712
     42          1           0       -6.806942   -1.592958    0.325942
     43          1           0       -6.635385   -0.584517   -1.118154
     44          1           0       -6.628847    0.153776    0.496906
     45          1           0       -5.060759    1.616012    0.869614
     46          1           0       -4.902680    2.397431   -0.726398
     47          1           0        1.327871   -1.366769   -0.608816
     48          1           0        0.801419   -2.761051    1.041325
     49          1           0        1.290564   -3.854134    3.200557
     50          1           0        3.132197   -3.006222    4.646691
     51          1           0        4.473626   -1.049155    3.900919
     52          1           0        4.005738    0.022224    1.739692
     53          1           0        1.620000    0.060997   -2.632751
     54          1           0        3.249510    0.560987   -4.431929
     55          1           0        5.690869    0.286221   -4.021733
     56          1           0        6.479172   -0.516609   -1.805576
     57          1           0        4.860633   -1.006191   -0.013602
     58          1           0        2.955715    1.832460    0.658799
     59         28           0       -1.089768   -0.965275   -1.009353
     60          9           0       -1.350958   -2.349911    0.181087
     61          9           0       -0.491397   -0.639660   -2.704835
 ---------------------------------------------------------------------
 Rotational constants (GHZ):           0.1631035           0.0852813           0.0802543
 Basis read from rwf:  (6D, 7F)
 Pseudo-potential data read from rwf file.
 There are   613 symmetry adapted cartesian basis functions of A   symmetry.
 There are   610 symmetry adapted basis functions of A   symmetry.
   610 basis functions,  1162 primitive gaussians,   613 cartesian basis functions
   126 alpha electrons      124 beta electrons
       nuclear repulsion energy      3832.4918629927 Hartrees.
 NAtoms=   61 NActive=   61 NUniq=   61 SFac= 1.00D+00 NAtFMM=   60 NAOKFM=T Big=T
 Integral buffers will be    131072 words long.
 Raffenetti 2 integral format.
 Two-electron integral symmetry is turned on.
 Nuclear repulsion after empirical dispersion term =     3832.3413817529 Hartrees.
 One-electron integrals computed using PRISM.
 PrsmSu:  requested number of processors reduced to:  12 ShMem   1 Linda.
   1 Symmetry operations used in ECPInt.
 ECPInt:  NShTT=   21115 NPrTT=  128985 LenC2=   17063 LenP2D=   55865.
 LDataN:  DoStor=T MaxTD1= 6 Len=  172
 Number of processors reduced to  12 by ecpmxn.
 NBasis=   610 RedAO= T EigKep=  6.98D-06  NBF=   610
 NBsUse=   609 1.00D-06 EigRej=  9.89D-07 NBFU=   609
 Lowest energy guess from the checkpoint file:  "Lig2126_xyz_2.chk"
 B after Tr=    -0.000000    0.000000   -0.000000
         Rot=    0.998752    0.046669   -0.016082   -0.007592 Ang=   5.73 deg.
 B after Tr=     0.000000   -0.000000   -0.000000
         Rot=    0.999865    0.013103   -0.007770   -0.006116 Ang=   1.88 deg.
 Initial guess <Sx>= 0.0000 <Sy>= 0.0000 <Sz>= 1.0000 <S**2>= 2.0061 S= 1.0020
 Requested convergence on RMS density matrix=1.00D-08 within 128 cycles.
 Requested convergence on MAX density matrix=1.00D-06.
 Requested convergence on             energy=1.00D-06.
 No special actions if energy rises.
 Restarting incremental Fock formation.
 SCF Done:  E(UB3LYP) =  -1636.88127044     A.U. after   29 cycles
            NFock= 29  Conv=0.45D-08     -V/T= 2.0484
 <Sx>= 0.0000 <Sy>= 0.0000 <Sz>= 1.0000 <S**2>= 2.0061 S= 1.0020
 <L.S>=  0.00000000000    
 Annihilation of the first spin contaminant:
 S**2 before annihilation     2.0061,   after     2.0000
 PrsmSu:  requested number of processors reduced to:  12 ShMem   1 Linda.
   1 Symmetry operations used in ECPInt.
 ECPInt:  NShTT=   21115 NPrTT=  128985 LenC2=   17063 LenP2D=   55865.
 LDataN:  DoStor=T MaxTD1= 7 Len=  274
 Number of processors reduced to  13 by ecpmxn.
 Calling FoFJK, ICntrl=      2127 FMM=T ISym2X=0 I1Cent= 0 IOpClX= 1 NMat=1 NMatS=1 NMatT=0.
 ***** Axes restored to original set *****
 -------------------------------------------------------------------
 Center     Atomic                   Forces (Hartrees/Bohr)
 Number     Number              X              Y              Z
 -------------------------------------------------------------------
      1        6          -0.000151279    0.001003200    0.000571964
      2        8          -0.000326800    0.001008070    0.000459630
      3        6           0.000705156   -0.000885440    0.000151012
      4        6           0.000153930   -0.000328143   -0.000845374
      5        6           0.000589586   -0.001060776   -0.000082675
      6        6           0.000431009   -0.000808374   -0.000257524
      7        7          -0.000504161    0.000493266    0.000432418
      8        6          -0.000088413    0.000130265    0.000492466
      9        6           0.000292522    0.000555978   -0.000421358
     10        6          -0.000544346    0.000404086   -0.000153363
     11        6          -0.000198677   -0.000295995    0.000245867
     12        6          -0.000041962    0.000075605    0.000427999
     13        6          -0.000021630   -0.000453195   -0.000063249
     14        8           0.000251905   -0.000154608   -0.000091574
     15        7          -0.000181509    0.000280045    0.000189080
     16        6          -0.000242097   -0.000041484   -0.000345672
     17        6           0.000016994   -0.000351395   -0.000340414
     18        6           0.000317301   -0.000262845    0.000180405
     19        6           0.000183732   -0.000679940    0.000379566
     20        6           0.000056018    0.000012774    0.000029587
     21        6          -0.000099859    0.000082631    0.000079543
     22        6           0.000066091    0.000088891   -0.000027475
     23        6           0.000010731    0.000047646    0.000125006
     24        6           0.000488900   -0.000142343    0.000053912
     25        6           0.000328808   -0.001266354   -0.000247805
     26        6          -0.000072112   -0.000058505   -0.000058605
     27        6           0.000155413    0.000095851   -0.000020687
     28        6          -0.000083540   -0.000074556    0.000132400
     29        6          -0.000383854    0.000764537    0.000025590
     30        6          -0.000179551    0.000092087    0.000080408
     31        1          -0.000119206    0.000062039   -0.000194412
     32        1           0.000049313    0.000210904    0.000119487
     33        1          -0.000140327    0.000138194    0.000182685
     34        1           0.000148174   -0.000745684    0.000177333
     35        1          -0.000113407    0.000187737    0.000034150
     36        1          -0.000011524   -0.000018394    0.000145877
     37        1          -0.000236006    0.000189778   -0.000170173
     38        1           0.000463164   -0.000173793   -0.000549485
     39        1           0.000004714    0.000094810    0.000333025
     40        1           0.000285455   -0.000433421   -0.000569380
     41        1           0.000166727   -0.000082910    0.000064390
     42        1           0.000041018    0.000019814    0.000014630
     43        1           0.000058458   -0.000019958    0.000016943
     44        1           0.000044050    0.000163288    0.000361187
     45        1           0.000192846    0.000055181   -0.000146785
     46        1           0.000094571   -0.000162592    0.000076485
     47        1          -0.000660058    0.000444965    0.000071016
     48        1           0.000862864    0.000855680    0.000037674
     49        1          -0.000107766    0.000101387   -0.000004398
     50        1          -0.000080944    0.000035804    0.000031650
     51        1           0.000022409   -0.000073384   -0.000024046
     52        1           0.000363185    0.000181349   -0.000318723
     53        1          -0.000498055    0.001017099   -0.000210154
     54        1           0.000051728    0.000142018    0.000011170
     55        1           0.000053043    0.000098219   -0.000051288
     56        1          -0.000005897   -0.000074069   -0.000061034
     57        1          -0.000000893   -0.000202335    0.000129223
     58        1          -0.000313385   -0.000018607   -0.000076126
     59       28          -0.001097230   -0.000548779   -0.000573521
     60        9          -0.001068490    0.000359045    0.000450587
     61        9           0.000623163   -0.000074367   -0.000409065
 -------------------------------------------------------------------
 Cartesian Forces:  Max     0.001266354 RMS     0.000367076

 GradGradGradGradGradGradGradGradGradGradGradGradGradGradGradGradGradGrad
 Berny optimization.
 Using GEDIIS/GDIIS optimizer.
 FormGI is forming the generalized inverse of G from B-inverse, IUseBI=4.
 Internal  Forces:  Max     0.003615625 RMS     0.000505349
 Search for a local minimum.
 Step number  11 out of a maximum of  362
 All quantities printed in internal units (Hartrees-Bohrs-Radians)
 Mixed Optimization -- En-DIIS/RFO-DIIS
 Update second derivatives using D2CorX and points   10    9   11
 DE= -7.30D-04 DEPred=-1.40D-03 R= 5.21D-01
 TightC=F SS=  1.41D+00  RLast= 4.21D-01 DXNew= 1.0091D+00 1.2621D+00
 Trust test= 5.21D-01 RLast= 4.21D-01 DXMaxT set to 1.01D+00
 ITU=  1 -1  0  1 -1  1  0  1  1  1  0
 Use linear search instead of GDIIS.
     Eigenvalues ---    0.00210   0.00230   0.00234   0.00241   0.00513
     Eigenvalues ---    0.00596   0.00941   0.01070   0.01329   0.01382
     Eigenvalues ---    0.01460   0.01603   0.01757   0.01972   0.01983
     Eigenvalues ---    0.02039   0.02047   0.02068   0.02079   0.02088
     Eigenvalues ---    0.02102   0.02121   0.02128   0.02154   0.02168
     Eigenvalues ---    0.02173   0.02187   0.02189   0.02190   0.02191
     Eigenvalues ---    0.02191   0.02192   0.02194   0.02194   0.02228
     Eigenvalues ---    0.02285   0.02354   0.02454   0.03220   0.03677
     Eigenvalues ---    0.04150   0.04414   0.04552   0.04712   0.04985
     Eigenvalues ---    0.05058   0.05170   0.05250   0.05288   0.05336
     Eigenvalues ---    0.05529   0.05601   0.05655   0.05900   0.06092
     Eigenvalues ---    0.06435   0.06750   0.08144   0.09513   0.10096
     Eigenvalues ---    0.10681   0.10727   0.11023   0.11426   0.13865
     Eigenvalues ---    0.14204   0.14363   0.14744   0.15788   0.15840
     Eigenvalues ---    0.15969   0.15990   0.15996   0.15998   0.15998
     Eigenvalues ---    0.15998   0.15999   0.15999   0.16000   0.16000
     Eigenvalues ---    0.16000   0.16000   0.16000   0.16000   0.16000
     Eigenvalues ---    0.16005   0.16018   0.16033   0.16041   0.16120
     Eigenvalues ---    0.16154   0.16422   0.18282   0.19296   0.19819
     Eigenvalues ---    0.20435   0.21261   0.21296   0.21526   0.22000
     Eigenvalues ---    0.22006   0.22026   0.22069   0.23415   0.23569
     Eigenvalues ---    0.23597   0.23664   0.24214   0.24598   0.24828
     Eigenvalues ---    0.25004   0.25773   0.26176   0.26983   0.27437
     Eigenvalues ---    0.27603   0.27756   0.27885   0.28160   0.28262
     Eigenvalues ---    0.29586   0.30228   0.32641   0.33546   0.34498
     Eigenvalues ---    0.34615   0.34660   0.34683   0.34686   0.34691
     Eigenvalues ---    0.34701   0.34724   0.34740   0.34770   0.34807
     Eigenvalues ---    0.34864   0.34901   0.34942   0.35046   0.35259
     Eigenvalues ---    0.35817   0.35936   0.35949   0.35953   0.35954
     Eigenvalues ---    0.35966   0.35975   0.35988   0.36049   0.36180
     Eigenvalues ---    0.36557   0.36934   0.37695   0.40004   0.41203
     Eigenvalues ---    0.41733   0.42038   0.42145   0.42244   0.42315
     Eigenvalues ---    0.42515   0.44886   0.45561   0.45707   0.45981
     Eigenvalues ---    0.46148   0.46272   0.46410   0.46903   0.46939
     Eigenvalues ---    0.46983   0.47076   0.48540   0.50019   0.50547
     Eigenvalues ---    0.53641   0.67691
 RFO step:  Lambda=-2.92315875D-04 EMin= 2.09739065D-03
 Quartic linear search produced a step of -0.28093.
 Iteration  1 RMS(Cart)=  0.04731496 RMS(Int)=  0.00047133
 Iteration  2 RMS(Cart)=  0.00080925 RMS(Int)=  0.00000645
 Iteration  3 RMS(Cart)=  0.00000023 RMS(Int)=  0.00000645
 Variable       Old X    -DE/DX   Delta X   Delta X   Delta X     New X
                                 (Linear)    (Quad)   (Total)
    R1        2.69553  -0.00091  -0.00062  -0.00070  -0.00132   2.69421
    R2        2.05958   0.00008   0.00014   0.00006   0.00020   2.05978
    R3        2.07146   0.00015   0.00014   0.00025   0.00039   2.07185
    R4        2.07130   0.00016   0.00023   0.00020   0.00043   2.07174
    R5        2.54948  -0.00275  -0.00205  -0.00158  -0.00362   2.54585
    R6        2.65912  -0.00096  -0.00106   0.00006  -0.00101   2.65811
    R7        2.64217   0.00027   0.00046   0.00026   0.00071   2.64288
    R8        2.61986  -0.00035  -0.00027  -0.00020  -0.00047   2.61939
    R9        2.04206   0.00067   0.00058   0.00047   0.00105   2.04311
   R10        2.77441   0.00018   0.00057  -0.00034   0.00023   2.77464
   R11        2.54236   0.00085   0.00046   0.00106   0.00153   2.54389
   R12        2.42126   0.00091   0.00059   0.00187   0.00245   2.42371
   R13        2.53254   0.00015  -0.00024   0.00039   0.00014   2.53268
   R14        2.77560   0.00001   0.00036   0.00134   0.00169   2.77729
   R15        3.84795   0.00049   0.00095   0.00172   0.00266   3.85061
   R16        2.93421  -0.00021   0.00116  -0.00045   0.00072   2.93493
   R17        2.94277   0.00075   0.00078   0.00122   0.00201   2.94478
   R18        2.07151   0.00004  -0.00011   0.00010  -0.00001   2.07151
   R19        2.90545   0.00010  -0.00016   0.00028   0.00012   2.90557
   R20        2.91375  -0.00076  -0.00093  -0.00095  -0.00187   2.91187
   R21        2.90631   0.00080   0.00079   0.00075   0.00154   2.90785
   R22        2.07018   0.00010  -0.00005   0.00033   0.00028   2.07046
   R23        2.07470  -0.00025  -0.00005  -0.00006  -0.00011   2.07459
   R24        2.06754   0.00027   0.00027   0.00011   0.00038   2.06792
   R25        2.07100   0.00028   0.00031   0.00020   0.00051   2.07151
   R26        2.06582   0.00033   0.00064  -0.00019   0.00045   2.06627
   R27        2.07340   0.00008   0.00029   0.00006   0.00035   2.07375
   R28        2.06905  -0.00001   0.00006   0.00002   0.00008   2.06914
   R29        2.07339   0.00004   0.00016   0.00012   0.00028   2.07366
   R30        2.07253  -0.00002  -0.00009   0.00005  -0.00004   2.07249
   R31        2.76553   0.00035   0.00157  -0.00167  -0.00009   2.76544
   R32        2.06100  -0.00023  -0.00046   0.00006  -0.00040   2.06060
   R33        2.06200   0.00011   0.00026   0.00017   0.00043   2.06243
   R34        2.53231  -0.00038   0.00088  -0.00260  -0.00170   2.53060
   R35        3.89193  -0.00075   0.00230  -0.00514  -0.00284   3.88909
   R36        2.87429   0.00007   0.00021  -0.00171  -0.00150   2.87279
   R37        2.63256  -0.00043  -0.00055  -0.00052  -0.00107   2.63149
   R38        2.88153  -0.00161  -0.00116  -0.00163  -0.00279   2.87875
   R39        2.88529   0.00034   0.00150  -0.00356  -0.00206   2.88323
   R40        2.06630   0.00034   0.00008   0.00083   0.00091   2.06721
   R41        2.64804  -0.00045   0.00018  -0.00111  -0.00093   2.64712
   R42        2.64910  -0.00050  -0.00014  -0.00079  -0.00093   2.64817
   R43        2.63678  -0.00002  -0.00018  -0.00006  -0.00024   2.63654
   R44        2.05344   0.00091   0.00051   0.00024   0.00076   2.05420
   R45        2.63525   0.00024   0.00000   0.00042   0.00043   2.63567
   R46        2.05264   0.00010   0.00017   0.00009   0.00026   2.05290
   R47        2.63689   0.00051   0.00029   0.00036   0.00064   2.63753
   R48        2.05302   0.00007   0.00011   0.00016   0.00027   2.05329
   R49        2.63487   0.00011   0.00007   0.00023   0.00030   2.63517
   R50        2.05327   0.00006   0.00011   0.00016   0.00027   2.05354
   R51        2.04985   0.00034   0.00031   0.00061   0.00091   2.05076
   R52        2.65658  -0.00016  -0.00009  -0.00100  -0.00109   2.65549
   R53        2.63730  -0.00000  -0.00005  -0.00028  -0.00033   2.63698
   R54        2.63012   0.00010   0.00028  -0.00011   0.00016   2.63028
   R55        2.05882  -0.00028   0.00037  -0.00060  -0.00023   2.05859
   R56        2.64141  -0.00006  -0.00013   0.00023   0.00010   2.64151
   R57        2.05313   0.00010   0.00020   0.00008   0.00029   2.05342
   R58        2.63150   0.00015   0.00028   0.00034   0.00062   2.63212
   R59        2.05316   0.00009   0.00009   0.00016   0.00024   2.05340
   R60        2.64234   0.00001   0.00004   0.00008   0.00013   2.64246
   R61        2.05346   0.00006   0.00012   0.00010   0.00022   2.05367
   R62        2.04739   0.00006  -0.00024   0.00056   0.00031   2.04771
   R63        2.04585   0.00016   0.00019   0.00032   0.00051   2.04636
   R64        3.48581   0.00120   0.00225   0.00356   0.00581   3.49162
   R65        3.45294   0.00063   0.00230   0.00113   0.00342   3.45637
    A1        1.84417  -0.00021   0.00009  -0.00109  -0.00101   1.84316
    A2        1.93987  -0.00015  -0.00047  -0.00017  -0.00065   1.93923
    A3        1.94056  -0.00019  -0.00084   0.00016  -0.00068   1.93987
    A4        1.91131   0.00026   0.00066   0.00060   0.00125   1.91257
    A5        1.91171   0.00025   0.00066   0.00050   0.00116   1.91287
    A6        1.91487   0.00004  -0.00005   0.00001  -0.00004   1.91483
    A7        2.07552  -0.00362  -0.00517  -0.00230  -0.00747   2.06805
    A8        2.17625  -0.00199  -0.00269  -0.00144  -0.00413   2.17211
    A9        2.03161   0.00085   0.00109   0.00041   0.00150   2.03311
   A10        2.07531   0.00113   0.00160   0.00104   0.00264   2.07796
   A11        2.04446  -0.00053  -0.00119  -0.00009  -0.00127   2.04319
   A12        2.14916  -0.00008   0.00022  -0.00048  -0.00026   2.14890
   A13        2.08915   0.00062   0.00104   0.00058   0.00162   2.09077
   A14        2.16131   0.00071  -0.00007   0.00269   0.00261   2.16392
   A15        2.15863  -0.00030   0.00045  -0.00135  -0.00090   2.15774
   A16        1.96287  -0.00041  -0.00032  -0.00138  -0.00168   1.96119
   A17        2.11541  -0.00039   0.00033  -0.00168  -0.00134   2.11407
   A18        2.10460   0.00047  -0.00006   0.00086   0.00079   2.10539
   A19        2.06317  -0.00008  -0.00028   0.00082   0.00055   2.06373
   A20        1.89887   0.00011   0.00066  -0.00117  -0.00049   1.89838
   A21        1.95122   0.00030   0.00034   0.00078   0.00113   1.95235
   A22        2.43134  -0.00040  -0.00075   0.00027  -0.00048   2.43086
   A23        1.96565  -0.00146  -0.00219  -0.00184  -0.00404   1.96161
   A24        1.78538  -0.00011  -0.00051  -0.00014  -0.00065   1.78474
   A25        1.88219   0.00060   0.00077  -0.00038   0.00038   1.88257
   A26        2.01719   0.00156   0.00301   0.00346   0.00647   2.02366
   A27        1.88358  -0.00035  -0.00133  -0.00107  -0.00240   1.88118
   A28        1.92524  -0.00025   0.00024  -0.00018   0.00006   1.92530
   A29        1.93380  -0.00030  -0.00044   0.00044  -0.00001   1.93380
   A30        1.90626  -0.00044  -0.00180  -0.00241  -0.00420   1.90206
   A31        1.87908   0.00066   0.00285   0.00347   0.00632   1.88539
   A32        1.90059  -0.00004  -0.00093  -0.00143  -0.00236   1.89823
   A33        1.93640   0.00028   0.00083   0.00178   0.00260   1.93900
   A34        1.90737  -0.00017  -0.00056  -0.00193  -0.00249   1.90488
   A35        1.91366   0.00010   0.00089  -0.00032   0.00057   1.91423
   A36        1.96308   0.00034   0.00034  -0.00020   0.00014   1.96322
   A37        1.92400  -0.00061   0.00011  -0.00206  -0.00195   1.92206
   A38        1.87101  -0.00011   0.00042  -0.00005   0.00037   1.87138
   A39        1.87902   0.00040   0.00007   0.00209   0.00216   1.88119
   A40        1.91051  -0.00008  -0.00184   0.00072  -0.00112   1.90939
   A41        1.91249   0.00007   0.00020   0.00016   0.00036   1.91284
   A42        1.93965  -0.00061   0.00032  -0.00215  -0.00183   1.93782
   A43        1.94561  -0.00020  -0.00081  -0.00061  -0.00141   1.94420
   A44        1.87211   0.00048   0.00062   0.00219   0.00281   1.87492
   A45        1.87887   0.00007  -0.00025   0.00099   0.00074   1.87961
   A46        1.91266   0.00023  -0.00005  -0.00037  -0.00042   1.91224
   A47        1.91799  -0.00006  -0.00063  -0.00009  -0.00072   1.91727
   A48        1.94258  -0.00007  -0.00038   0.00004  -0.00034   1.94224
   A49        1.96335   0.00057   0.00175   0.00077   0.00252   1.96586
   A50        1.87915  -0.00001  -0.00045   0.00000  -0.00044   1.87871
   A51        1.87109  -0.00023  -0.00023  -0.00057  -0.00080   1.87029
   A52        1.88635  -0.00022  -0.00014  -0.00020  -0.00034   1.88600
   A53        1.83298   0.00011  -0.00012   0.00100   0.00091   1.83390
   A54        1.98683   0.00016   0.00127  -0.00002   0.00124   1.98808
   A55        1.97949  -0.00002  -0.00031  -0.00045  -0.00077   1.97872
   A56        1.86606  -0.00024   0.00031   0.00026   0.00056   1.86662
   A57        1.87490   0.00009  -0.00111  -0.00028  -0.00140   1.87350
   A58        1.91481  -0.00010  -0.00015  -0.00041  -0.00056   1.91425
   A59        1.84382  -0.00002   0.00001  -0.00024  -0.00020   1.84362
   A60        2.08562   0.00051   0.00037   0.00077   0.00116   2.08678
   A61        1.97541   0.00070   0.00041   0.00282   0.00323   1.97864
   A62        2.20668  -0.00117  -0.00055  -0.00375  -0.00432   2.20237
   A63        2.02576  -0.00089   0.00061  -0.00586  -0.00527   2.02049
   A64        2.10770  -0.00024  -0.00068   0.00125   0.00059   2.10829
   A65        2.14930   0.00112   0.00004   0.00451   0.00453   2.15383
   A66        1.89721  -0.00149  -0.00029  -0.00202  -0.00232   1.89490
   A67        1.93026   0.00141  -0.00037   0.00716   0.00680   1.93706
   A68        1.83273   0.00029   0.00161  -0.00061   0.00101   1.83374
   A69        2.08692   0.00041   0.00425  -0.00185   0.00239   2.08931
   A70        1.85177  -0.00062  -0.00230  -0.00198  -0.00429   1.84747
   A71        1.84607  -0.00004  -0.00334  -0.00103  -0.00438   1.84169
   A72        2.05926  -0.00204  -0.00281  -0.00016  -0.00297   2.05630
   A73        2.14777   0.00115   0.00246  -0.00132   0.00114   2.14891
   A74        2.07295   0.00088   0.00041   0.00140   0.00181   2.07476
   A75        2.10165  -0.00019  -0.00006  -0.00039  -0.00045   2.10120
   A76        2.08814  -0.00059  -0.00153   0.00004  -0.00149   2.08665
   A77        2.09147   0.00080   0.00169   0.00055   0.00224   2.09371
   A78        2.10160  -0.00024  -0.00017  -0.00029  -0.00046   2.10114
   A79        2.08318   0.00016   0.00006   0.00024   0.00030   2.08348
   A80        2.09834   0.00009   0.00012   0.00005   0.00016   2.09850
   A81        2.08590   0.00010   0.00008   0.00019   0.00026   2.08617
   A82        2.10055  -0.00010  -0.00010  -0.00026  -0.00036   2.10020
   A83        2.09661   0.00000   0.00003   0.00008   0.00010   2.09672
   A84        2.09715  -0.00001   0.00018  -0.00014   0.00005   2.09719
   A85        2.09776   0.00005   0.00006   0.00008   0.00014   2.09790
   A86        2.08826  -0.00004  -0.00025   0.00006  -0.00019   2.08808
   A87        2.10629  -0.00053  -0.00051  -0.00072  -0.00123   2.10506
   A88        2.10055  -0.00003   0.00062  -0.00157  -0.00096   2.09959
   A89        2.07630   0.00057  -0.00012   0.00232   0.00220   2.07850
   A90        2.02540   0.00104  -0.00169   0.00123  -0.00046   2.02494
   A91        2.17656  -0.00089   0.00202  -0.00189   0.00013   2.17669
   A92        2.08111  -0.00015  -0.00030   0.00050   0.00021   2.08132
   A93        2.09816   0.00013   0.00030   0.00033   0.00062   2.09878
   A94        2.08330   0.00001  -0.00011  -0.00225  -0.00237   2.08092
   A95        2.10127  -0.00016  -0.00039   0.00169   0.00128   2.10255
   A96        2.10049   0.00004   0.00005  -0.00060  -0.00055   2.09994
   A97        2.08587  -0.00001  -0.00031   0.00074   0.00043   2.08630
   A98        2.09678  -0.00003   0.00023  -0.00016   0.00008   2.09686
   A99        2.08642  -0.00015  -0.00041   0.00024  -0.00017   2.08625
   A100       2.09893   0.00003   0.00009  -0.00030  -0.00021   2.09873
   A101       2.09773   0.00011   0.00030   0.00004   0.00034   2.09807
   A102       2.10034   0.00001   0.00031  -0.00011   0.00020   2.10054
   A103       2.09776   0.00000   0.00011  -0.00024  -0.00013   2.09764
   A104       2.08506  -0.00001  -0.00043   0.00034  -0.00009   2.08497
   A105       2.09942   0.00012   0.00003  -0.00043  -0.00040   2.09902
   A106       2.10037  -0.00021   0.00049  -0.00155  -0.00106   2.09931
   A107       2.08293   0.00010  -0.00050   0.00208   0.00158   2.08451
   A108       2.09350  -0.00055  -0.00035  -0.00174  -0.00208   2.09143
   A109       2.08272   0.00040   0.00041   0.00174   0.00214   2.08486
   A110       2.10693   0.00016  -0.00007   0.00002  -0.00005   2.10688
   A111       1.40964  -0.00021  -0.00056  -0.00098  -0.00154   1.40810
   A112       1.78930   0.00002   0.00730  -0.00409   0.00321   1.79251
   A113       1.91337  -0.00008   0.00262  -0.00057   0.00207   1.91544
   A114       1.87496   0.00023  -0.00436   0.00838   0.00403   1.87899
   A115       1.72540  -0.00029   0.00610  -0.00599   0.00013   1.72553
   A116       2.46381   0.00014  -0.00856   0.00261  -0.00591   2.45790
    D1        3.13994   0.00000   0.00002   0.00068   0.00069   3.14063
    D2       -1.07139   0.00011   0.00060   0.00065   0.00125  -1.07014
    D3        1.06725  -0.00008  -0.00038   0.00065   0.00027   1.06752
    D4       -0.00560  -0.00009   0.00017  -0.00130  -0.00112  -0.00672
    D5        3.13023   0.00005   0.00077   0.00064   0.00140   3.13164
    D6        3.11595   0.00017   0.00396  -0.00147   0.00249   3.11844
    D7        0.00559  -0.00010   0.00031  -0.00153  -0.00122   0.00437
    D8       -0.01975   0.00003   0.00336  -0.00344  -0.00009  -0.01984
    D9       -3.13010  -0.00024  -0.00029  -0.00351  -0.00381  -3.13391
   D10        3.12940   0.00010  -0.00026   0.00066   0.00039   3.12979
   D11       -0.02088   0.00008  -0.00110   0.00331   0.00221  -0.01867
   D12       -0.01761   0.00022   0.00029   0.00246   0.00275  -0.01486
   D13        3.11530   0.00020  -0.00055   0.00511   0.00457   3.11987
   D14       -3.07950  -0.00031  -0.00510   0.00225  -0.00284  -3.08235
   D15        0.03035  -0.00020  -0.00189   0.00048  -0.00140   0.02895
   D16        0.03197  -0.00006  -0.00158   0.00229   0.00071   0.03268
   D17       -3.14136   0.00005   0.00163   0.00053   0.00215  -3.13921
   D18        2.99524   0.00010   0.00834  -0.00690   0.00143   2.99667
   D19       -0.14527   0.00010   0.00581  -0.00599  -0.00018  -0.14545
   D20       -0.11778   0.00000   0.00544  -0.00530   0.00013  -0.11764
   D21        3.02491  -0.00000   0.00292  -0.00440  -0.00148   3.02343
   D22       -0.00111   0.00008  -0.00353   0.00362   0.00009  -0.00102
   D23       -2.96660  -0.00002  -0.00473   0.00489   0.00017  -2.96643
   D24        3.11195   0.00020  -0.00064   0.00210   0.00145   3.11341
   D25        0.14647   0.00009  -0.00185   0.00338   0.00153   0.14799
   D26        3.11366   0.00002  -0.00173   0.00304   0.00130   3.11497
   D27        0.02319   0.00002  -0.00598   0.00474  -0.00123   0.02196
   D28       -0.02900   0.00002   0.00073   0.00215   0.00288  -0.02611
   D29       -3.11947   0.00003  -0.00352   0.00386   0.00035  -3.11912
   D30       -3.13097   0.00018  -0.00283   0.00434   0.00151  -3.12946
   D31        0.01168   0.00017  -0.00528   0.00522  -0.00006   0.01162
   D32       -2.14569  -0.00121   0.00171  -0.01105  -0.00933  -2.15503
   D33        0.03101  -0.00020   0.00383  -0.00795  -0.00413   0.02689
   D34        2.06110  -0.00029   0.00416  -0.00837  -0.00421   2.05689
   D35        0.92307  -0.00118   0.00783  -0.01348  -0.00565   0.91742
   D36        3.09978  -0.00016   0.00994  -0.01039  -0.00045   3.09933
   D37       -1.15333  -0.00026   0.01028  -0.01081  -0.00053  -1.15385
   D38        0.04523   0.00002   0.00357  -0.00208   0.00148   0.04671
   D39        1.89432   0.00022  -0.00181   0.00680   0.00500   1.89932
   D40       -1.63344   0.00039  -0.00245   0.00458   0.00213  -1.63131
   D41       -3.02211  -0.00001  -0.00267   0.00045  -0.00223  -3.02434
   D42       -1.17302   0.00019  -0.00805   0.00933   0.00129  -1.17172
   D43        1.58241   0.00036  -0.00869   0.00711  -0.00158   1.58083
   D44        0.94480  -0.00049   0.00782  -0.02613  -0.01831   0.92649
   D45       -1.14878   0.00002   0.01036  -0.02310  -0.01273  -1.16151
   D46        3.06515   0.00010   0.01041  -0.02145  -0.01103   3.05412
   D47       -1.09862  -0.00036   0.00801  -0.02702  -0.01902  -1.11764
   D48        3.09099   0.00016   0.01055  -0.02399  -0.01344   3.07755
   D49        1.02174   0.00023   0.01061  -0.02234  -0.01174   1.01000
   D50        3.02038  -0.00086   0.00660  -0.02840  -0.02181   2.99858
   D51        0.92680  -0.00034   0.00915  -0.02537  -0.01622   0.91058
   D52       -1.14245  -0.00027   0.00920  -0.02372  -0.01452  -1.15697
   D53       -0.02390   0.00028  -0.00653   0.01049   0.00396  -0.01994
   D54       -2.05918   0.00042  -0.00749   0.00955   0.00206  -2.05712
   D55        2.01823   0.00044  -0.00810   0.01054   0.00244   2.02067
   D56        2.11826  -0.00074  -0.00792   0.01006   0.00213   2.12040
   D57        0.08299  -0.00060  -0.00888   0.00912   0.00023   0.08322
   D58       -2.12279  -0.00058  -0.00950   0.01010   0.00061  -2.12218
   D59       -2.02266  -0.00024  -0.00724   0.01107   0.00382  -2.01883
   D60        2.22525  -0.00011  -0.00821   0.01013   0.00192   2.22717
   D61        0.01948  -0.00009  -0.00882   0.01112   0.00230   0.02178
   D62        3.03099   0.00059   0.01746   0.01459   0.03205   3.06304
   D63        0.95097   0.00045   0.01611   0.01501   0.03112   0.98209
   D64       -1.18654   0.00077   0.01816   0.01571   0.03387  -1.15266
   D65       -1.15523  -0.00016   0.01439   0.01098   0.02538  -1.12985
   D66        3.04794  -0.00030   0.01305   0.01140   0.02444   3.07238
   D67        0.91043   0.00002   0.01510   0.01210   0.02720   0.93763
   D68        0.94472  -0.00023   0.01361   0.00878   0.02240   0.96712
   D69       -1.13530  -0.00037   0.01227   0.00920   0.02146  -1.11383
   D70        3.01038  -0.00005   0.01432   0.00990   0.02422   3.03460
   D71       -2.94886  -0.00036  -0.00925  -0.00966  -0.01891  -2.96776
   D72        1.26838  -0.00062  -0.01033  -0.01115  -0.02148   1.24690
   D73       -0.87084  -0.00035  -0.00993  -0.00871  -0.01864  -0.88948
   D74        1.22042   0.00030  -0.00707  -0.00785  -0.01492   1.20550
   D75       -0.84552   0.00003  -0.00816  -0.00934  -0.01750  -0.86302
   D76       -2.98474   0.00031  -0.00776  -0.00690  -0.01466  -2.99940
   D77       -0.89734   0.00009  -0.00717  -0.00797  -0.01514  -0.91248
   D78       -2.96329  -0.00018  -0.00826  -0.00946  -0.01771  -2.98100
   D79        1.18068   0.00010  -0.00786  -0.00702  -0.01487   1.16580
   D80        3.09056  -0.00023  -0.00459  -0.01252  -0.01711   3.07345
   D81        1.01054  -0.00013  -0.00339  -0.01249  -0.01588   0.99466
   D82       -1.10941  -0.00020  -0.00418  -0.01280  -0.01698  -1.12639
   D83       -1.07389  -0.00000  -0.00277  -0.00866  -0.01142  -1.08531
   D84        3.12927   0.00010  -0.00156  -0.00863  -0.01019   3.11908
   D85        1.00932   0.00003  -0.00235  -0.00894  -0.01129   0.99803
   D86        1.02203   0.00001  -0.00376  -0.01056  -0.01432   1.00770
   D87       -1.05800   0.00011  -0.00256  -0.01053  -0.01309  -1.07109
   D88        3.10524   0.00004  -0.00335  -0.01084  -0.01419   3.09105
   D89        0.00969  -0.00028   0.00705  -0.00962  -0.00258   0.00712
   D90        2.12616  -0.00016   0.00861  -0.00899  -0.00038   2.12578
   D91       -2.10267  -0.00035   0.00803  -0.00948  -0.00146  -2.10413
   D92        3.07242  -0.00025   0.00643  -0.00843  -0.00199   3.07043
   D93       -0.03876   0.00018   0.00735  -0.00471   0.00265  -0.03612
   D94       -0.27071   0.00011   0.00793  -0.00909  -0.00115  -0.27185
   D95        2.90130   0.00055   0.00885  -0.00536   0.00349   2.90478
   D96       -0.11009  -0.00007  -0.00078  -0.00093  -0.00171  -0.11181
   D97       -1.86102  -0.00001  -0.00876   0.00457  -0.00421  -1.86523
   D98        1.78548  -0.00014   0.00112  -0.00091   0.00022   1.78569
   D99       -3.06100  -0.00041  -0.00220  -0.00017  -0.00237  -3.06337
   D100       1.47126  -0.00035  -0.01018   0.00533  -0.00487   1.46639
   D101      -1.16543  -0.00048  -0.00030  -0.00014  -0.00044  -1.16587
   D102      -1.78679   0.00144   0.02653   0.00075   0.02729  -1.75950
   D103       2.17262   0.00097   0.02135  -0.00093   0.02043   2.19305
   D104       0.18881   0.00022   0.02455  -0.00269   0.02186   0.21068
   D105       1.32360   0.00096   0.02557  -0.00314   0.02244   1.34603
   D106      -1.00018   0.00050   0.02039  -0.00482   0.01558  -0.98460
   D107      -2.98399  -0.00026   0.02359  -0.00658   0.01701  -2.96698
   D108       0.04815  -0.00036  -0.00582   0.00168  -0.00413   0.04402
   D109      -3.08464  -0.00033  -0.00496  -0.00101  -0.00598  -3.09062
   D110      -3.06082   0.00015  -0.00484   0.00587   0.00105  -3.05977
   D111       0.08958   0.00017  -0.00398   0.00317  -0.00080   0.08878
   D112       1.76279  -0.00063   0.01364   0.01185   0.02551   1.78830
   D113      -1.29163  -0.00063   0.01267   0.01291   0.02559  -1.26603
   D114      -2.28201   0.00030   0.01659   0.01859   0.03518  -2.24683
   D115       0.94675   0.00030   0.01563   0.01965   0.03526   0.98202
   D116      -0.20023   0.00001   0.01304   0.01443   0.02746  -0.17276
   D117       3.02854   0.00001   0.01207   0.01548   0.02755   3.05609
   D118      -1.07026  -0.00075  -0.01940  -0.03592  -0.05530  -1.12556
   D119       2.08706  -0.00052  -0.02331  -0.02427  -0.04756   2.03950
   D120       2.98975  -0.00036  -0.02249  -0.03845  -0.06094   2.92880
   D121      -0.13612  -0.00013  -0.02641  -0.02680  -0.05321  -0.18933
   D122       0.90507   0.00023  -0.01945  -0.03382  -0.05328   0.85179
   D123      -2.22080   0.00046  -0.02336  -0.02217  -0.04554  -2.26634
   D124      -3.09537  -0.00007  -0.00273   0.00139  -0.00134  -3.09671
   D125      -0.02049   0.00021  -0.00062   0.00489   0.00426  -0.01623
   D126      -0.03712  -0.00004  -0.00169   0.00025  -0.00145  -0.03856
   D127       3.03776   0.00023   0.00041   0.00374   0.00416   3.04191
   D128       3.09560  -0.00012   0.00236  -0.00216   0.00020   3.09580
   D129      -0.03662  -0.00020   0.00389  -0.00513  -0.00124  -0.03786
   D130       0.04183   0.00001   0.00153  -0.00102   0.00051   0.04234
   D131      -3.09039  -0.00007   0.00306  -0.00399  -0.00093  -3.09132
   D132       0.00682   0.00003   0.00072   0.00101   0.00173   0.00856
   D133       3.13574   0.00011   0.00156   0.00100   0.00257   3.13831
   D134      -3.06792  -0.00019  -0.00128  -0.00247  -0.00375  -3.07167
   D135       0.06100  -0.00011  -0.00044  -0.00248  -0.00291   0.05809
   D136       0.01942  -0.00003   0.00042  -0.00155  -0.00113   0.01829
   D137      -3.13848   0.00002   0.00077  -0.00122  -0.00045  -3.13893
   D138      -3.10939  -0.00011  -0.00043  -0.00154  -0.00197  -3.11136
   D139       0.01590  -0.00006  -0.00009  -0.00121  -0.00130   0.01460
   D140      -0.01477   0.00001  -0.00058   0.00078   0.00020  -0.01457
   D141       3.12175   0.00002  -0.00115   0.00127   0.00012   3.12186
   D142      -3.14010  -0.00004  -0.00092   0.00046  -0.00046  -3.14057
   D143      -0.00358  -0.00003  -0.00149   0.00095  -0.00055  -0.00413
   D144      -0.01615   0.00001  -0.00041   0.00053   0.00013  -0.01603
   D145       3.11620   0.00009  -0.00191   0.00344   0.00153   3.11773
   D146       3.13049  -0.00000   0.00016   0.00005   0.00021   3.13070
   D147      -0.02034   0.00008  -0.00134   0.00295   0.00161  -0.01873
   D148       3.12864   0.00020  -0.00373   0.00906   0.00531   3.13395
   D149      -0.04550  -0.00043  -0.00913   0.00088  -0.00825  -0.05374
   D150      -0.02777  -0.00003  -0.00004  -0.00194  -0.00198  -0.02974
   D151       3.08128  -0.00065  -0.00544  -0.01011  -0.01554   3.06574
   D152      -3.13299  -0.00008   0.00535  -0.00806  -0.00272  -3.13571
   D153       0.04135  -0.00024   0.00471  -0.01188  -0.00717   0.03417
   D154       0.02479   0.00014   0.00132   0.00393   0.00525   0.03005
   D155      -3.08405  -0.00001   0.00068   0.00011   0.00080  -3.08325
   D156       0.00767  -0.00009  -0.00105  -0.00070  -0.00176   0.00592
   D157       3.13849  -0.00024  -0.00338  -0.00193  -0.00531   3.13318
   D158      -3.10104   0.00054   0.00440   0.00763   0.01204  -3.08899
   D159       0.02978   0.00039   0.00207   0.00641   0.00849   0.03827
   D160       0.01556   0.00009   0.00085   0.00134   0.00219   0.01775
   D161      -3.14108  -0.00002  -0.00061  -0.00021  -0.00082   3.14129
   D162      -3.11519   0.00024   0.00320   0.00257   0.00576  -3.10943
   D163       0.01135   0.00013   0.00173   0.00102   0.00276   0.01411
   D164      -0.01856   0.00003   0.00044   0.00066   0.00110  -0.01745
   D165       3.11626  -0.00002  -0.00013  -0.00060  -0.00073   3.11553
   D166       3.13807   0.00014   0.00190   0.00221   0.00412  -3.14100
   D167      -0.01030   0.00009   0.00134   0.00095   0.00229  -0.00801
   D168      -0.00173  -0.00015  -0.00153  -0.00332  -0.00486  -0.00659
   D169       3.10744   0.00000  -0.00089   0.00039  -0.00049   3.10695
   D170      -3.13660  -0.00010  -0.00098  -0.00206  -0.00304  -3.13964
   D171      -0.02743   0.00005  -0.00033   0.00165   0.00132  -0.02610
         Item               Value     Threshold  Converged?
 Maximum Force            0.003616     0.000450     NO 
 RMS     Force            0.000505     0.000300     NO 
 Maximum Displacement     0.218285     0.001800     NO 
 RMS     Displacement     0.047415     0.001200     NO 
 Predicted change in Energy=-2.111152D-04
 GradGradGradGradGradGradGradGradGradGradGradGradGradGradGradGradGradGrad

 Stoichiometry    C26H28F2N2NiO2(3)
 Framework group  C1[X(C26H28F2N2NiO2)]
 Deg. of freedom   177
 Full point group                 C1      NOp   1
 Largest Abelian subgroup         C1      NOp   1
 Largest concise Abelian subgroup C1      NOp   1
                         Standard orientation:                         
 ---------------------------------------------------------------------
 Center     Atomic      Atomic             Coordinates (Angstroms)
 Number     Number       Type             X           Y           Z
 ---------------------------------------------------------------------
      1          6           0        0.986253    5.154419    1.623615
      2          8           0        1.747889    3.992696    1.302725
      3          6           0        1.094826    2.892240    0.881450
      4          6           0       -0.301688    2.800891    0.740162
      5          6           0       -0.810627    1.601594    0.266883
      6          6           0       -2.233732    1.364654   -0.005996
      7          7           0       -2.627390    0.292477   -0.589488
      8          6           0       -4.093252    0.320547   -0.691544
      9          6           0       -4.756078   -0.919668   -0.032267
     10          6           0       -4.268398   -1.094449    1.415392
     11          6           0       -4.377949   -2.177595   -0.837873
     12          6           0       -6.281954   -0.727576   -0.083312
     13          6           0       -4.442853    1.699438   -0.055326
     14          8           0       -3.157126    2.268015    0.351101
     15          7           0       -0.047761    0.531911   -0.026342
     16          6           0        1.279461    0.602037    0.137517
     17          6           0        2.046788   -0.683393   -0.126937
     18          6           0        2.375162   -1.336111    1.209767
     19          6           0        1.597089   -2.429254    1.612088
     20          6           0        1.816128   -3.033927    2.850217
     21          6           0        2.805590   -2.550648    3.706195
     22          6           0        3.562957   -1.441810    3.325530
     23          6           0        3.342506   -0.833414    2.090294
     24          6           0        3.155348   -0.457263   -1.150577
     25          6           0        2.736876   -0.101538   -2.444024
     26          6           0        3.675286    0.134562   -3.444519
     27          6           0        5.041230    0.013121   -3.173648
     28          6           0        5.457462   -0.366938   -1.899931
     29          6           0        4.518492   -0.605551   -0.891601
     30          6           0        1.883556    1.781090    0.566501
     31          1           0        1.712928    5.904442    1.935832
     32          1           0        0.434621    5.518928    0.749042
     33          1           0        0.287682    4.955014    2.444679
     34          1           0       -0.972398    3.620397    0.958051
     35          1           0       -4.356409    0.314787   -1.755667
     36          1           0       -4.805745   -1.924055    1.888088
     37          1           0       -4.445170   -0.201233    2.028691
     38          1           0       -3.201542   -1.337707    1.426534
     39          1           0       -4.976920   -3.028621   -0.493439
     40          1           0       -3.325932   -2.436524   -0.690260
     41          1           0       -4.576202   -2.041817   -1.908622
     42          1           0       -6.782206   -1.617820    0.311793
     43          1           0       -6.630548   -0.579761   -1.113253
     44          1           0       -6.620152    0.126402    0.515961
     45          1           0       -5.057278    1.628720    0.842729
     46          1           0       -4.899481    2.397630   -0.758995
     47          1           0        1.328313   -1.348031   -0.615524
     48          1           0        0.781989   -2.769423    0.978412
     49          1           0        1.200993   -3.878750    3.146922
     50          1           0        2.977084   -3.023773    4.669182
     51          1           0        4.324168   -1.044935    3.991813
     52          1           0        3.925889    0.041248    1.821364
     53          1           0        1.671037   -0.055498   -2.664418
     54          1           0        3.338567    0.401262   -4.442637
     55          1           0        5.772840    0.197427   -3.955636
     56          1           0        6.515709   -0.488147   -1.684378
     57          1           0        4.856858   -0.931830    0.084739
     58          1           0        2.960687    1.850798    0.653530
     59         28           0       -1.073969   -0.958462   -1.006714
     60          9           0       -1.333184   -2.341569    0.190682
     61          9           0       -0.468947   -0.647470   -2.704532
 ---------------------------------------------------------------------
 Rotational constants (GHZ):           0.1629228           0.0858286           0.0804241
 Basis read from rwf:  (6D, 7F)
 Pseudo-potential data read from rwf file.
 There are   613 symmetry adapted cartesian basis functions of A   symmetry.
 There are   610 symmetry adapted basis functions of A   symmetry.
   610 basis functions,  1162 primitive gaussians,   613 cartesian basis functions
   126 alpha electrons      124 beta electrons
       nuclear repulsion energy      3835.2798070484 Hartrees.
 NAtoms=   61 NActive=   61 NUniq=   61 SFac= 1.00D+00 NAtFMM=   60 NAOKFM=T Big=T
 Integral buffers will be    131072 words long.
 Raffenetti 2 integral format.
 Two-electron integral symmetry is turned on.
 Nuclear repulsion after empirical dispersion term =     3835.1292125401 Hartrees.
 One-electron integrals computed using PRISM.
 PrsmSu:  requested number of processors reduced to:  12 ShMem   1 Linda.
   1 Symmetry operations used in ECPInt.
 ECPInt:  NShTT=   21115 NPrTT=  128985 LenC2=   17098 LenP2D=   55946.
 LDataN:  DoStor=T MaxTD1= 6 Len=  172
 Number of processors reduced to  12 by ecpmxn.
 NBasis=   610 RedAO= T EigKep=  6.98D-06  NBF=   610
 NBsUse=   609 1.00D-06 EigRej=  9.89D-07 NBFU=   609
 Initial guess from the checkpoint file:  "Lig2126_xyz_2.chk"
 B after Tr=    -0.000000   -0.000000   -0.000000
         Rot=    0.999980    0.003606    0.004921    0.001384 Ang=   0.72 deg.
 Initial guess <Sx>= 0.0000 <Sy>= 0.0000 <Sz>= 1.0000 <S**2>= 2.0061 S= 1.0020
 ExpMin= 2.40D-02 ExpMax= 7.14D+04 ExpMxC= 1.07D+04 IAcc=3 IRadAn=         5 AccDes= 0.00D+00
 Harris functional with IExCor=  402 and IRadAn=       5 diagonalized for initial guess.
 HarFok:  IExCor=  402 AccDes= 0.00D+00 IRadAn=         5 IDoV= 1 UseB2=F ITyADJ=14
 ICtDFT=  3500011 ScaDFX=  1.000000  1.000000  1.000000  1.000000
 FoFCou: FMM=F IPFlag=           0 FMFlag=      100000 FMFlg1=        2001
         NFxFlg=           0 DoJE=T BraDBF=F KetDBF=T FulRan=T
         wScrn=  0.000000 ICntrl=       500 IOpCl=  0 I1Cent=   200000004 NGrid=           0
         NMat0=    1 NMatS0=      1 NMatT0=    0 NMatD0=    1 NMtDS0=    0 NMtDT0=    0
 Petite list used in FoFCou.
 Requested convergence on RMS density matrix=1.00D-08 within 128 cycles.
 Requested convergence on MAX density matrix=1.00D-06.
 Requested convergence on             energy=1.00D-06.
 No special actions if energy rises.
 Restarting incremental Fock formation.
 SCF Done:  E(UB3LYP) =  -1636.88147415     A.U. after   26 cycles
            NFock= 26  Conv=0.90D-08     -V/T= 2.0484
 <Sx>= 0.0000 <Sy>= 0.0000 <Sz>= 1.0000 <S**2>= 2.0061 S= 1.0020
 <L.S>=  0.00000000000    
 Annihilation of the first spin contaminant:
 S**2 before annihilation     2.0061,   after     2.0000
 PrsmSu:  requested number of processors reduced to:  12 ShMem   1 Linda.
   1 Symmetry operations used in ECPInt.
 ECPInt:  NShTT=   21115 NPrTT=  128985 LenC2=   17098 LenP2D=   55946.
 LDataN:  DoStor=T MaxTD1= 7 Len=  274
 Number of processors reduced to  13 by ecpmxn.
 Calling FoFJK, ICntrl=      2127 FMM=T ISym2X=0 I1Cent= 0 IOpClX= 1 NMat=1 NMatS=1 NMatT=0.
 ***** Axes restored to original set *****
 -------------------------------------------------------------------
 Center     Atomic                   Forces (Hartrees/Bohr)
 Number     Number              X              Y              Z
 -------------------------------------------------------------------
      1        6           0.000058313    0.000046013    0.000064761
      2        8          -0.000064070    0.000137124    0.000063723
      3        6           0.000018383   -0.000011205    0.000014536
      4        6           0.000132396    0.000107143   -0.000112896
      5        6           0.000093545   -0.000136103   -0.000172089
      6        6           0.000177147    0.000437120    0.000048191
      7        7           0.000336530   -0.000836968    0.000162569
      8        6          -0.000273881   -0.000132456    0.000386723
      9        6           0.000042517    0.000143916    0.000082125
     10        6          -0.000081573   -0.000027430   -0.000260186
     11        6           0.000167603    0.000136933   -0.000241317
     12        6           0.000058205   -0.000115951   -0.000030742
     13        6          -0.000018229    0.000071985    0.000191121
     14        8          -0.000001062    0.000277990   -0.000323806
     15        7           0.000847458   -0.000219733    0.001444991
     16        6          -0.000353198    0.000545475   -0.000754250
     17        6           0.000071306    0.000119175   -0.000174069
     18        6           0.000021499   -0.000156949    0.000146863
     19        6          -0.000168865    0.000065036    0.000210340
     20        6          -0.000071131   -0.000071170   -0.000050001
     21        6           0.000023446    0.000053404    0.000061597
     22        6           0.000053775   -0.000015862   -0.000123680
     23        6          -0.000125028    0.000059541   -0.000112214
     24        6          -0.000113443    0.000445985   -0.000240967
     25        6           0.000219661   -0.000196842    0.000006999
     26        6          -0.000078006   -0.000132544   -0.000173320
     27        6           0.000077220    0.000045355    0.000078030
     28        6          -0.000143272   -0.000055209    0.000028501
     29        6          -0.000135088   -0.000170387   -0.000179526
     30        6          -0.000008586    0.000000255    0.000051121
     31        1           0.000013644   -0.000033169    0.000032834
     32        1          -0.000045091    0.000002198    0.000010805
     33        1          -0.000021107    0.000028417   -0.000010781
     34        1          -0.000047273   -0.000180900   -0.000004782
     35        1           0.000083609   -0.000033688   -0.000059523
     36        1           0.000084168   -0.000059649    0.000022239
     37        1           0.000075411    0.000030483   -0.000089858
     38        1          -0.000072657    0.000162000    0.000063159
     39        1          -0.000010075    0.000026410   -0.000105645
     40        1          -0.000230711   -0.000143470    0.000089491
     41        1           0.000007258   -0.000011958    0.000067951
     42        1           0.000016699   -0.000016595   -0.000026619
     43        1          -0.000021607    0.000017843    0.000032491
     44        1           0.000056359    0.000002057    0.000049112
     45        1          -0.000134097    0.000062117   -0.000002075
     46        1          -0.000075731   -0.000054207    0.000147380
     47        1          -0.000305725   -0.000070333   -0.000175708
     48        1           0.000236097    0.000080075    0.000100458
     49        1          -0.000028213    0.000011115   -0.000028102
     50        1           0.000022018    0.000013322   -0.000002167
     51        1           0.000002834    0.000012704    0.000026613
     52        1           0.000065060    0.000064281   -0.000118471
     53        1           0.000189489    0.000021058    0.000050583
     54        1          -0.000003567   -0.000004763    0.000007917
     55        1          -0.000017149    0.000004848   -0.000014243
     56        1           0.000019962   -0.000000048   -0.000003823
     57        1           0.000028897   -0.000074694   -0.000003236
     58        1           0.000004401   -0.000051255   -0.000000691
     59       28          -0.001173693   -0.000618782   -0.000443252
     60        9           0.000340077    0.000458589    0.000380212
     61        9           0.000177143   -0.000057647   -0.000085394
 -------------------------------------------------------------------
 Cartesian Forces:  Max     0.001444991 RMS     0.000228247

 GradGradGradGradGradGradGradGradGradGradGradGradGradGradGradGradGradGrad
 Berny optimization.
 Using GEDIIS/GDIIS optimizer.
 FormGI is forming the generalized inverse of G from B-inverse, IUseBI=4.
 Internal  Forces:  Max     0.001340900 RMS     0.000176394
 Search for a local minimum.
 Step number  12 out of a maximum of  362
 All quantities printed in internal units (Hartrees-Bohrs-Radians)
 Mixed Optimization -- En-DIIS/RFO-DIIS
 Swapping is turned off.
 Update second derivatives using D2CorX and points   10    9   11   12
 DE= -2.04D-04 DEPred=-2.11D-04 R= 9.65D-01
 TightC=F SS=  1.41D+00  RLast= 2.00D-01 DXNew= 1.6971D+00 6.0137D-01
 Trust test= 9.65D-01 RLast= 2.00D-01 DXMaxT set to 1.01D+00
 ITU=  1  1 -1  0  1 -1  1  0  1  1  1  0
     Eigenvalues ---    0.00225   0.00231   0.00237   0.00246   0.00495
     Eigenvalues ---    0.00573   0.00986   0.01062   0.01382   0.01417
     Eigenvalues ---    0.01502   0.01542   0.01765   0.01971   0.01981
     Eigenvalues ---    0.02039   0.02048   0.02064   0.02078   0.02089
     Eigenvalues ---    0.02101   0.02126   0.02129   0.02157   0.02168
     Eigenvalues ---    0.02173   0.02188   0.02189   0.02190   0.02191
     Eigenvalues ---    0.02192   0.02192   0.02193   0.02194   0.02259
     Eigenvalues ---    0.02290   0.02367   0.02439   0.03213   0.03700
     Eigenvalues ---    0.04112   0.04418   0.04544   0.04696   0.04990
     Eigenvalues ---    0.05067   0.05223   0.05237   0.05298   0.05338
     Eigenvalues ---    0.05532   0.05610   0.05653   0.05898   0.06102
     Eigenvalues ---    0.06360   0.06779   0.07928   0.09391   0.10103
     Eigenvalues ---    0.10683   0.10689   0.10801   0.11424   0.13863
     Eigenvalues ---    0.13990   0.14339   0.14773   0.15761   0.15895
     Eigenvalues ---    0.15971   0.15985   0.15994   0.15996   0.15997
     Eigenvalues ---    0.15998   0.15998   0.15999   0.15999   0.16000
     Eigenvalues ---    0.16000   0.16000   0.16000   0.16000   0.16000
     Eigenvalues ---    0.16011   0.16014   0.16032   0.16065   0.16144
     Eigenvalues ---    0.16175   0.16452   0.18312   0.19350   0.19831
     Eigenvalues ---    0.20464   0.21114   0.21473   0.21580   0.21999
     Eigenvalues ---    0.22012   0.22064   0.22092   0.23447   0.23543
     Eigenvalues ---    0.23591   0.23681   0.24160   0.24629   0.24829
     Eigenvalues ---    0.25003   0.25849   0.26074   0.27003   0.27207
     Eigenvalues ---    0.27620   0.27782   0.27886   0.28198   0.28639
     Eigenvalues ---    0.29484   0.29975   0.32962   0.33117   0.34497
     Eigenvalues ---    0.34616   0.34661   0.34683   0.34686   0.34693
     Eigenvalues ---    0.34705   0.34727   0.34739   0.34768   0.34806
     Eigenvalues ---    0.34865   0.34895   0.34959   0.35027   0.35344
     Eigenvalues ---    0.35836   0.35927   0.35946   0.35951   0.35954
     Eigenvalues ---    0.35958   0.35967   0.35994   0.36025   0.36174
     Eigenvalues ---    0.36413   0.36863   0.37669   0.40080   0.41315
     Eigenvalues ---    0.41760   0.42029   0.42128   0.42252   0.42273
     Eigenvalues ---    0.42750   0.44927   0.45466   0.45690   0.45975
     Eigenvalues ---    0.46138   0.46272   0.46389   0.46901   0.46940
     Eigenvalues ---    0.46984   0.47071   0.48384   0.50012   0.50095
     Eigenvalues ---    0.55973   0.68332
 En-DIIS/RFO-DIIS/Sim-DIIS IScMMF=       -3 using points:    12   11
 RFO step:  Lambda=-1.96839596D-04.
 DidBck=T Rises=F RFO-DIIS coefs:    0.35251    0.64749
 Iteration  1 RMS(Cart)=  0.04254203 RMS(Int)=  0.00043817
 Iteration  2 RMS(Cart)=  0.00075659 RMS(Int)=  0.00000986
 Iteration  3 RMS(Cart)=  0.00000025 RMS(Int)=  0.00000985
 Variable       Old X    -DE/DX   Delta X   Delta X   Delta X     New X
                                 (Linear)    (Quad)   (Total)
    R1        2.69421   0.00002   0.00086  -0.00117  -0.00031   2.69389
    R2        2.05978   0.00000  -0.00013   0.00016   0.00003   2.05981
    R3        2.07185  -0.00003  -0.00025   0.00030   0.00004   2.07190
    R4        2.07174  -0.00002  -0.00028   0.00033   0.00005   2.07179
    R5        2.54585  -0.00025   0.00235  -0.00349  -0.00114   2.54471
    R6        2.65811  -0.00017   0.00065  -0.00097  -0.00032   2.65779
    R7        2.64288   0.00005  -0.00046   0.00045  -0.00001   2.64287
    R8        2.61939  -0.00014   0.00031  -0.00067  -0.00037   2.61902
    R9        2.04311   0.00009  -0.00068   0.00109   0.00041   2.04352
   R10        2.77464   0.00011  -0.00015   0.00029   0.00013   2.77477
   R11        2.54389   0.00002  -0.00099   0.00123   0.00024   2.54413
   R12        2.42371  -0.00057  -0.00159   0.00140  -0.00018   2.42354
   R13        2.53268  -0.00015  -0.00009  -0.00017  -0.00025   2.53244
   R14        2.77729  -0.00009  -0.00110   0.00194   0.00084   2.77813
   R15        3.85061   0.00019  -0.00172   0.00539   0.00367   3.85428
   R16        2.93493  -0.00021  -0.00047   0.00015  -0.00031   2.93462
   R17        2.94478  -0.00020  -0.00130   0.00172   0.00041   2.94519
   R18        2.07151   0.00004   0.00000   0.00028   0.00028   2.07179
   R19        2.90557  -0.00003  -0.00008   0.00024   0.00016   2.90573
   R20        2.91187   0.00007   0.00121  -0.00147  -0.00026   2.91161
   R21        2.90785   0.00006  -0.00100   0.00150   0.00050   2.90835
   R22        2.07046  -0.00006  -0.00018   0.00024   0.00006   2.07052
   R23        2.07459  -0.00003   0.00007  -0.00005   0.00002   2.07461
   R24        2.06792  -0.00001  -0.00024   0.00014  -0.00011   2.06781
   R25        2.07151  -0.00005  -0.00033   0.00028  -0.00005   2.07146
   R26        2.06627   0.00003  -0.00029  -0.00003  -0.00032   2.06595
   R27        2.07375  -0.00001  -0.00022   0.00023   0.00000   2.07375
   R28        2.06914  -0.00003  -0.00005  -0.00002  -0.00007   2.06907
   R29        2.07366  -0.00001  -0.00018   0.00028   0.00011   2.07377
   R30        2.07249   0.00003   0.00003  -0.00001   0.00001   2.07251
   R31        2.76544   0.00023   0.00006  -0.00044  -0.00038   2.76505
   R32        2.06060   0.00003   0.00026  -0.00008   0.00018   2.06078
   R33        2.06243  -0.00004  -0.00028   0.00009  -0.00019   2.06224
   R34        2.53060   0.00134   0.00110  -0.00052   0.00059   2.53119
   R35        3.88909  -0.00028   0.00184  -0.00361  -0.00177   3.88732
   R36        2.87279   0.00041   0.00097  -0.00036   0.00061   2.87341
   R37        2.63149   0.00005   0.00069  -0.00081  -0.00011   2.63138
   R38        2.87875  -0.00004   0.00181  -0.00216  -0.00036   2.87839
   R39        2.88323   0.00036   0.00133  -0.00177  -0.00043   2.88280
   R40        2.06721  -0.00019  -0.00059   0.00072   0.00013   2.06734
   R41        2.64712   0.00017   0.00060  -0.00063  -0.00003   2.64708
   R42        2.64817   0.00001   0.00060  -0.00069  -0.00009   2.64808
   R43        2.63654   0.00008   0.00016   0.00008   0.00024   2.63678
   R44        2.05420   0.00021  -0.00049   0.00107   0.00058   2.05478
   R45        2.63567   0.00001  -0.00028   0.00040   0.00012   2.63579
   R46        2.05290  -0.00000  -0.00017   0.00020   0.00004   2.05294
   R47        2.63753   0.00008  -0.00041   0.00072   0.00030   2.63783
   R48        2.05329  -0.00002  -0.00017   0.00020   0.00003   2.05332
   R49        2.63517  -0.00008  -0.00019   0.00003  -0.00017   2.63500
   R50        2.05354  -0.00002  -0.00017   0.00019   0.00002   2.05356
   R51        2.05076   0.00009  -0.00059   0.00110   0.00051   2.05127
   R52        2.65549   0.00021   0.00071  -0.00053   0.00017   2.65566
   R53        2.63698   0.00022   0.00021   0.00001   0.00022   2.63720
   R54        2.63028   0.00009  -0.00011   0.00000  -0.00011   2.63018
   R55        2.05859   0.00013   0.00015  -0.00011   0.00004   2.05863
   R56        2.64151  -0.00003  -0.00007   0.00015   0.00009   2.64160
   R57        2.05342  -0.00001  -0.00019   0.00021   0.00002   2.05344
   R58        2.63212   0.00002  -0.00040   0.00036  -0.00004   2.63208
   R59        2.05340   0.00000  -0.00016   0.00021   0.00005   2.05345
   R60        2.64246  -0.00014  -0.00008   0.00013   0.00005   2.64251
   R61        2.05367  -0.00000  -0.00014   0.00016   0.00002   2.05370
   R62        2.04771   0.00000  -0.00020  -0.00005  -0.00025   2.04746
   R63        2.04636   0.00001  -0.00033   0.00059   0.00026   2.04662
   R64        3.49162  -0.00010  -0.00376   0.00548   0.00171   3.49333
   R65        3.45637   0.00014  -0.00222   0.00204  -0.00018   3.45619
    A1        1.84316   0.00010   0.00065  -0.00067  -0.00002   1.84314
    A2        1.93923  -0.00002   0.00042  -0.00064  -0.00022   1.93900
    A3        1.93987  -0.00007   0.00044  -0.00071  -0.00027   1.93961
    A4        1.91257  -0.00000  -0.00081   0.00116   0.00035   1.91292
    A5        1.91287  -0.00000  -0.00075   0.00102   0.00027   1.91314
    A6        1.91483  -0.00000   0.00002  -0.00011  -0.00009   1.91474
    A7        2.06805  -0.00045   0.00484  -0.00747  -0.00264   2.06541
    A8        2.17211  -0.00042   0.00267  -0.00458  -0.00190   2.17021
    A9        2.03311   0.00013  -0.00097   0.00183   0.00086   2.03397
   A10        2.07796   0.00029  -0.00171   0.00275   0.00104   2.07900
   A11        2.04319   0.00002   0.00082  -0.00106  -0.00025   2.04294
   A12        2.14890  -0.00013   0.00017  -0.00081  -0.00064   2.14826
   A13        2.09077   0.00011  -0.00105   0.00199   0.00094   2.09171
   A14        2.16392   0.00007  -0.00169   0.00240   0.00072   2.16464
   A15        2.15774  -0.00001   0.00058  -0.00108  -0.00050   2.15724
   A16        1.96119  -0.00006   0.00109  -0.00128  -0.00021   1.96098
   A17        2.11407   0.00002   0.00087  -0.00063   0.00023   2.11429
   A18        2.10539   0.00012  -0.00051   0.00025  -0.00024   2.10516
   A19        2.06373  -0.00014  -0.00036   0.00039   0.00001   2.06373
   A20        1.89838   0.00024   0.00031  -0.00017   0.00009   1.89847
   A21        1.95235   0.00006  -0.00073  -0.00040  -0.00115   1.95120
   A22        2.43086  -0.00030   0.00031   0.00006   0.00038   2.43124
   A23        1.96161  -0.00018   0.00262  -0.00171   0.00094   1.96254
   A24        1.78474   0.00000   0.00042  -0.00067  -0.00031   1.78443
   A25        1.88257   0.00009  -0.00025  -0.00025  -0.00049   1.88209
   A26        2.02366   0.00004  -0.00419   0.00404  -0.00013   2.02353
   A27        1.88118   0.00003   0.00155  -0.00186  -0.00031   1.88087
   A28        1.92530   0.00001  -0.00004   0.00032   0.00029   1.92559
   A29        1.93380  -0.00004   0.00000  -0.00081  -0.00079   1.93301
   A30        1.90206   0.00009   0.00272  -0.00276  -0.00005   1.90201
   A31        1.88539  -0.00013  -0.00409   0.00446   0.00037   1.88576
   A32        1.89823  -0.00017   0.00153  -0.00345  -0.00192   1.89630
   A33        1.93900   0.00013  -0.00169   0.00377   0.00209   1.94109
   A34        1.90488   0.00012   0.00161  -0.00130   0.00031   1.90519
   A35        1.91423  -0.00001  -0.00037  -0.00028  -0.00065   1.91358
   A36        1.96322  -0.00007  -0.00009  -0.00037  -0.00045   1.96276
   A37        1.92206  -0.00002   0.00126  -0.00262  -0.00136   1.92069
   A38        1.87138   0.00004  -0.00024   0.00024   0.00001   1.87138
   A39        1.88119  -0.00001  -0.00140   0.00214   0.00074   1.88193
   A40        1.90939   0.00007   0.00073   0.00109   0.00181   1.91120
   A41        1.91284   0.00011  -0.00023   0.00056   0.00032   1.91317
   A42        1.93782  -0.00021   0.00118  -0.00509  -0.00390   1.93392
   A43        1.94420   0.00002   0.00092   0.00002   0.00094   1.94514
   A44        1.87492  -0.00006  -0.00182   0.00086  -0.00096   1.87396
   A45        1.87961  -0.00003  -0.00048   0.00113   0.00065   1.88026
   A46        1.91224   0.00017   0.00027   0.00274   0.00302   1.91525
   A47        1.91727  -0.00003   0.00047  -0.00088  -0.00041   1.91685
   A48        1.94224   0.00002   0.00022  -0.00002   0.00020   1.94244
   A49        1.96586   0.00009  -0.00163   0.00271   0.00108   1.96694
   A50        1.87871  -0.00001   0.00029  -0.00059  -0.00030   1.87841
   A51        1.87029  -0.00002   0.00052  -0.00093  -0.00041   1.86988
   A52        1.88600  -0.00005   0.00022  -0.00045  -0.00023   1.88577
   A53        1.83390  -0.00024  -0.00059   0.00080   0.00012   1.83401
   A54        1.98808  -0.00003  -0.00080  -0.00066  -0.00145   1.98663
   A55        1.97872   0.00007   0.00050   0.00041   0.00093   1.97965
   A56        1.86662   0.00013  -0.00036   0.00004  -0.00029   1.86633
   A57        1.87350   0.00009   0.00091   0.00007   0.00101   1.87451
   A58        1.91425  -0.00002   0.00036  -0.00057  -0.00021   1.91403
   A59        1.84362   0.00014   0.00013   0.00016   0.00022   1.84384
   A60        2.08678   0.00013  -0.00075   0.00148   0.00072   2.08750
   A61        1.97864   0.00003  -0.00209   0.00253   0.00044   1.97908
   A62        2.20237  -0.00014   0.00279  -0.00448  -0.00169   2.20068
   A63        2.02049   0.00083   0.00341  -0.00230   0.00110   2.02160
   A64        2.10829  -0.00052  -0.00038   0.00001  -0.00038   2.10791
   A65        2.15383  -0.00032  -0.00294   0.00197  -0.00097   2.15286
   A66        1.89490   0.00002   0.00150  -0.00784  -0.00633   1.88857
   A67        1.93706   0.00030  -0.00440   0.00777   0.00337   1.94043
   A68        1.83374  -0.00005  -0.00065   0.00201   0.00135   1.83509
   A69        2.08931  -0.00045  -0.00154   0.00324   0.00171   2.09102
   A70        1.84747  -0.00012   0.00278  -0.00278  -0.00000   1.84747
   A71        1.84169   0.00034   0.00283  -0.00276   0.00007   1.84177
   A72        2.05630  -0.00002   0.00192  -0.00130   0.00062   2.05692
   A73        2.14891  -0.00011  -0.00074  -0.00112  -0.00186   2.14704
   A74        2.07476   0.00014  -0.00117   0.00215   0.00097   2.07573
   A75        2.10120  -0.00015   0.00029  -0.00112  -0.00083   2.10038
   A76        2.08665  -0.00008   0.00096  -0.00082   0.00014   2.08679
   A77        2.09371   0.00023  -0.00145   0.00217   0.00072   2.09443
   A78        2.10114  -0.00001   0.00030  -0.00019   0.00010   2.10124
   A79        2.08348   0.00003  -0.00020   0.00021   0.00001   2.08350
   A80        2.09850  -0.00003  -0.00011  -0.00001  -0.00011   2.09839
   A81        2.08617   0.00009  -0.00017   0.00050   0.00033   2.08649
   A82        2.10020  -0.00004   0.00023  -0.00040  -0.00017   2.10003
   A83        2.09672  -0.00005  -0.00007  -0.00009  -0.00016   2.09656
   A84        2.09719  -0.00004  -0.00003  -0.00024  -0.00027   2.09693
   A85        2.09790   0.00001  -0.00009   0.00020   0.00011   2.09801
   A86        2.08808   0.00003   0.00012   0.00003   0.00015   2.08823
   A87        2.10506  -0.00003   0.00080  -0.00110  -0.00031   2.10476
   A88        2.09959  -0.00004   0.00062  -0.00167  -0.00105   2.09854
   A89        2.07850   0.00007  -0.00142   0.00279   0.00137   2.07987
   A90        2.02494   0.00070   0.00030  -0.00056  -0.00026   2.02468
   A91        2.17669  -0.00074  -0.00008   0.00041   0.00034   2.17703
   A92        2.08132   0.00004  -0.00013   0.00010  -0.00004   2.08128
   A93        2.09878  -0.00022  -0.00040   0.00043   0.00003   2.09881
   A94        2.08092   0.00025   0.00154  -0.00250  -0.00095   2.07998
   A95        2.10255  -0.00003  -0.00083   0.00157   0.00076   2.10331
   A96        2.09994   0.00013   0.00035  -0.00032   0.00003   2.09997
   A97        2.08630  -0.00008  -0.00028   0.00046   0.00018   2.08648
   A98        2.09686  -0.00006  -0.00005  -0.00018  -0.00022   2.09663
   A99        2.08625   0.00005   0.00011  -0.00006   0.00005   2.08630
   A100       2.09873  -0.00000   0.00014  -0.00018  -0.00005   2.09868
   A101       2.09807  -0.00005  -0.00022   0.00023   0.00001   2.09808
   A102       2.10054  -0.00005  -0.00013   0.00013   0.00001   2.10055
   A103       2.09764   0.00001   0.00008  -0.00017  -0.00009   2.09755
   A104       2.08497   0.00004   0.00006   0.00003   0.00009   2.08506
   A105       2.09902   0.00005   0.00026  -0.00026   0.00000   2.09902
   A106       2.09931  -0.00003   0.00069  -0.00087  -0.00018   2.09914
   A107       2.08451  -0.00002  -0.00102   0.00121   0.00019   2.08471
   A108       2.09143   0.00009   0.00134  -0.00192  -0.00058   2.09085
   A109       2.08486  -0.00010  -0.00139   0.00211   0.00072   2.08559
   A110       2.10688   0.00000   0.00003  -0.00017  -0.00014   2.10674
   A111       1.40810  -0.00006   0.00100  -0.00095   0.00005   1.40814
   A112       1.79251  -0.00022  -0.00208  -0.01176  -0.01382   1.77869
   A113       1.91544  -0.00006  -0.00134  -0.00326  -0.00462   1.91082
   A114       1.87899   0.00070  -0.00261   0.00905   0.00643   1.88542
   A115       1.72553  -0.00012  -0.00008  -0.01436  -0.01445   1.71108
   A116       2.45790  -0.00009   0.00383   0.01503   0.01885   2.47675
    D1        3.14063   0.00000  -0.00045   0.00119   0.00074   3.14137
    D2       -1.07014   0.00004  -0.00081   0.00184   0.00103  -1.06911
    D3        1.06752  -0.00002  -0.00017   0.00074   0.00057   1.06808
    D4       -0.00672  -0.00004   0.00073  -0.00198  -0.00125  -0.00797
    D5        3.13164   0.00000  -0.00091   0.00090  -0.00001   3.13163
    D6        3.11844   0.00002  -0.00161   0.00170   0.00009   3.11853
    D7        0.00437  -0.00009   0.00079  -0.00332  -0.00253   0.00184
    D8       -0.01984  -0.00001   0.00006  -0.00123  -0.00117  -0.02101
    D9       -3.13391  -0.00012   0.00246  -0.00626  -0.00380  -3.13771
   D10        3.12979   0.00004  -0.00025   0.00182   0.00157   3.13136
   D11       -0.01867   0.00001  -0.00143   0.00463   0.00320  -0.01548
   D12       -0.01486   0.00008  -0.00178   0.00452   0.00273  -0.01212
   D13        3.11987   0.00004  -0.00296   0.00732   0.00436   3.12423
   D14       -3.08235  -0.00017   0.00184  -0.00315  -0.00131  -3.08366
   D15        0.02895  -0.00007   0.00091  -0.00159  -0.00068   0.02827
   D16        0.03268  -0.00007  -0.00046   0.00166   0.00120   0.03388
   D17       -3.13921   0.00003  -0.00139   0.00322   0.00183  -3.13738
   D18        2.99667   0.00002  -0.00093  -0.00852  -0.00945   2.98722
   D19       -0.14545  -0.00003   0.00012  -0.01178  -0.01166  -0.15711
   D20       -0.11764  -0.00007  -0.00009  -0.00992  -0.01001  -0.12765
   D21        3.02343  -0.00012   0.00096  -0.01318  -0.01222   3.01120
   D22       -0.00102   0.00008  -0.00006   0.00099   0.00093  -0.00009
   D23       -2.96643  -0.00003  -0.00011   0.00417   0.00406  -2.96237
   D24        3.11341   0.00017  -0.00094   0.00245   0.00151   3.11492
   D25        0.14799   0.00007  -0.00099   0.00563   0.00464   0.15264
   D26        3.11497   0.00002  -0.00084   0.00136   0.00051   3.11548
   D27        0.02196   0.00004   0.00079   0.00910   0.00989   0.03185
   D28       -0.02611   0.00007  -0.00187   0.00454   0.00268  -0.02344
   D29       -3.11912   0.00009  -0.00023   0.01229   0.01205  -3.10707
   D30       -3.12946   0.00008  -0.00098   0.01589   0.01491  -3.11455
   D31        0.01162   0.00003   0.00004   0.01272   0.01275   0.02438
   D32       -2.15503  -0.00008   0.00604  -0.02186  -0.01582  -2.17084
   D33        0.02689  -0.00012   0.00267  -0.01834  -0.01566   0.01123
   D34        2.05689  -0.00007   0.00273  -0.01839  -0.01567   2.04121
   D35        0.91742  -0.00009   0.00366  -0.03290  -0.02925   0.88817
   D36        3.09933  -0.00013   0.00029  -0.02938  -0.02909   3.07024
   D37       -1.15385  -0.00008   0.00034  -0.02944  -0.02910  -1.18296
   D38        0.04671   0.00000  -0.00096  -0.00431  -0.00525   0.04145
   D39        1.89932   0.00073  -0.00324   0.00609   0.00285   1.90218
   D40       -1.63131   0.00015  -0.00138   0.01097   0.00959  -1.62172
   D41       -3.02434   0.00000   0.00145   0.00696   0.00841  -3.01593
   D42       -1.17172   0.00074  -0.00084   0.01735   0.01652  -1.15521
   D43        1.58083   0.00015   0.00102   0.02223   0.02325   1.60408
   D44        0.92649  -0.00013   0.01186  -0.02295  -0.01110   0.91538
   D45       -1.16151   0.00005   0.00824  -0.01645  -0.00822  -1.16974
   D46        3.05412  -0.00008   0.00714  -0.01589  -0.00877   3.04535
   D47       -1.11764  -0.00003   0.01232  -0.02365  -0.01131  -1.12895
   D48        3.07755   0.00015   0.00870  -0.01715  -0.00843   3.06912
   D49        1.01000   0.00003   0.00760  -0.01659  -0.00898   1.00102
   D50        2.99858  -0.00010   0.01412  -0.02547  -0.01135   2.98723
   D51        0.91058   0.00008   0.01050  -0.01897  -0.00847   0.90211
   D52       -1.15697  -0.00005   0.00940  -0.01841  -0.00901  -1.16599
   D53       -0.01994   0.00015  -0.00256   0.02466   0.02209   0.00214
   D54       -2.05712   0.00015  -0.00133   0.02445   0.02313  -2.03400
   D55        2.02067   0.00015  -0.00158   0.02546   0.02386   2.04453
   D56        2.12040  -0.00005  -0.00138   0.02434   0.02296   2.14336
   D57        0.08322  -0.00004  -0.00015   0.02414   0.02400   0.10722
   D58       -2.12218  -0.00005  -0.00040   0.02514   0.02474  -2.09744
   D59       -2.01883   0.00003  -0.00248   0.02515   0.02268  -1.99616
   D60        2.22717   0.00004  -0.00124   0.02495   0.02372   2.25089
   D61        0.02178   0.00004  -0.00149   0.02595   0.02445   0.04623
   D62        3.06304  -0.00010  -0.02075  -0.01162  -0.03237   3.03067
   D63        0.98209  -0.00009  -0.02015  -0.01150  -0.03165   0.95044
   D64       -1.15266  -0.00012  -0.02193  -0.01075  -0.03269  -1.18535
   D65       -1.12985  -0.00012  -0.01643  -0.01769  -0.03412  -1.16397
   D66        3.07238  -0.00012  -0.01583  -0.01758  -0.03340   3.03898
   D67        0.93763  -0.00015  -0.01761  -0.01683  -0.03444   0.90319
   D68        0.96712   0.00000  -0.01450  -0.01919  -0.03370   0.93342
   D69       -1.11383   0.00000  -0.01390  -0.01908  -0.03298  -1.14681
   D70        3.03460  -0.00002  -0.01568  -0.01833  -0.03401   3.00059
   D71       -2.96776  -0.00005   0.01224  -0.00100   0.01124  -2.95652
   D72        1.24690   0.00008   0.01391   0.00071   0.01461   1.26151
   D73       -0.88948  -0.00001   0.01207   0.00077   0.01285  -0.87663
   D74        1.20550   0.00005   0.00966   0.00373   0.01339   1.21889
   D75       -0.86302   0.00018   0.01133   0.00543   0.01676  -0.84626
   D76       -2.99940   0.00009   0.00949   0.00550   0.01499  -2.98441
   D77       -0.91248  -0.00009   0.00980   0.00203   0.01183  -0.90065
   D78       -2.98100   0.00005   0.01147   0.00374   0.01521  -2.96580
   D79        1.16580  -0.00004   0.00963   0.00381   0.01344   1.17924
   D80        3.07345   0.00005   0.01108  -0.00891   0.00217   3.07563
   D81        0.99466   0.00008   0.01028  -0.00760   0.00269   0.99734
   D82       -1.12639   0.00007   0.01100  -0.00892   0.00207  -1.12431
   D83       -1.08531   0.00000   0.00740  -0.00465   0.00274  -1.08257
   D84        3.11908   0.00003   0.00660  -0.00334   0.00326   3.12233
   D85        0.99803   0.00001   0.00731  -0.00466   0.00264   1.00068
   D86        1.00770  -0.00004   0.00927  -0.00742   0.00185   1.00956
   D87       -1.07109  -0.00002   0.00847  -0.00611   0.00237  -1.06872
   D88        3.09105  -0.00003   0.00919  -0.00743   0.00175   3.09280
   D89        0.00712  -0.00011   0.00167  -0.02283  -0.02116  -0.01405
   D90        2.12578  -0.00020   0.00025  -0.02316  -0.02293   2.10285
   D91       -2.10413  -0.00012   0.00095  -0.02377  -0.02281  -2.12695
   D92        3.07043  -0.00014   0.00129  -0.00748  -0.00620   3.06423
   D93       -0.03612   0.00001  -0.00171   0.00243   0.00071  -0.03540
   D94       -0.27185   0.00000   0.00074  -0.01022  -0.00949  -0.28134
   D95        2.90478   0.00015  -0.00226  -0.00032  -0.00257   2.90221
   D96       -0.11181  -0.00004   0.00111  -0.00111  -0.00001  -0.11181
   D97       -1.86523   0.00029   0.00273   0.01255   0.01529  -1.84994
   D98        1.78569  -0.00010  -0.00014  -0.00280  -0.00293   1.78276
   D99       -3.06337  -0.00018   0.00153   0.00153   0.00306  -3.06031
   D100       1.46639   0.00014   0.00315   0.01520   0.01835   1.48475
   D101      -1.16587  -0.00024   0.00028  -0.00016   0.00013  -1.16574
   D102      -1.75950   0.00031  -0.01767   0.03443   0.01676  -1.74274
   D103       2.19305   0.00065  -0.01323   0.03026   0.01703   2.21008
   D104       0.21068   0.00015  -0.01415   0.02881   0.01466   0.22533
   D105       1.34603   0.00015  -0.01453   0.02419   0.00966   1.35570
   D106      -0.98460   0.00050  -0.01008   0.02002   0.00994  -0.97467
   D107      -2.96698  -0.00001  -0.01101   0.01857   0.00756  -2.95942
   D108       0.04402  -0.00009   0.00268  -0.00524  -0.00256   0.04145
   D109      -3.09062  -0.00006   0.00387  -0.00809  -0.00421  -3.09483
   D110      -3.05977   0.00005  -0.00068   0.00554   0.00485  -3.05493
   D111       0.08878   0.00008   0.00052   0.00269   0.00319   0.09197
   D112       1.78830  -0.00022  -0.01652  -0.01626  -0.03278   1.75552
   D113      -1.26603  -0.00027  -0.01657  -0.01263  -0.02921  -1.29524
   D114      -2.24683  -0.00016  -0.02278  -0.00993  -0.03270  -2.27954
   D115       0.98202  -0.00022  -0.02283  -0.00630  -0.02913   0.95289
   D116      -0.17276  -0.00010  -0.01778  -0.01373  -0.03151  -0.20427
   D117       3.05609  -0.00016  -0.01784  -0.01010  -0.02794   3.02815
   D118      -1.12556   0.00005   0.03581   0.01043   0.04623  -1.07933
   D119       2.03950  -0.00012   0.03080   0.01319   0.04398   2.08348
   D120       2.92880   0.00014   0.03946   0.01111   0.05057   2.97937
   D121      -0.18933  -0.00003   0.03445   0.01387   0.04832  -0.14100
   D122       0.85179   0.00031   0.03450   0.01493   0.04943   0.90122
   D123      -2.26634   0.00014   0.02949   0.01769   0.04718  -2.21915
   D124      -3.09671  -0.00002   0.00087   0.00237   0.00324  -3.09347
   D125      -0.01623  -0.00005  -0.00276   0.00665   0.00390  -0.01233
   D126      -0.03856   0.00002   0.00094  -0.00126  -0.00033  -0.03889
   D127       3.04191  -0.00001  -0.00269   0.00302   0.00033   3.04225
   D128       3.09580   0.00004  -0.00013  -0.00336  -0.00348   3.09232
   D129      -0.03786  -0.00002   0.00080  -0.00565  -0.00485  -0.04271
   D130       0.04234  -0.00001  -0.00033   0.00048   0.00015   0.04249
   D131      -3.09132  -0.00007   0.00060  -0.00182  -0.00122  -3.09254
   D132       0.00856  -0.00001  -0.00112   0.00173   0.00061   0.00916
   D133       3.13831  -0.00000  -0.00166   0.00254   0.00087   3.13919
   D134      -3.07167   0.00003   0.00243  -0.00247  -0.00004  -3.07171
   D135       0.05809   0.00003   0.00189  -0.00166   0.00023   0.05832
   D136       0.01829  -0.00001   0.00073  -0.00144  -0.00071   0.01758
   D137      -3.13893   0.00000   0.00029  -0.00077  -0.00048  -3.13941
   D138      -3.11136  -0.00002   0.00128  -0.00226  -0.00098  -3.11235
   D139       0.01460  -0.00000   0.00084  -0.00159  -0.00075   0.01385
   D140      -0.01457   0.00002  -0.00013   0.00066   0.00052  -0.01405
   D141       3.12186   0.00002  -0.00008   0.00040   0.00032   3.12218
   D142      -3.14057   0.00000   0.00030  -0.00001   0.00029  -3.14028
   D143      -0.00413   0.00000   0.00035  -0.00027   0.00008  -0.00405
   D144      -0.01603  -0.00000  -0.00008  -0.00015  -0.00023  -0.01625
   D145       3.11773   0.00005  -0.00099   0.00210   0.00112   3.11885
   D146       3.13070  -0.00000  -0.00014   0.00011  -0.00002   3.13067
   D147      -0.01873   0.00005  -0.00104   0.00236   0.00132  -0.01741
   D148       3.13395  -0.00006  -0.00344   0.00386   0.00042   3.13438
   D149      -0.05374  -0.00005   0.00534  -0.00855  -0.00322  -0.05696
   D150      -0.02974   0.00008   0.00128   0.00126   0.00254  -0.02720
   D151       3.06574   0.00009   0.01006  -0.01115  -0.00110   3.06465
   D152      -3.13571   0.00008   0.00176  -0.00219  -0.00043  -3.13614
   D153       0.03417   0.00007   0.00465  -0.00594  -0.00129   0.03288
   D154       0.03005  -0.00010  -0.00340   0.00066  -0.00274   0.02730
   D155      -3.08325  -0.00011  -0.00052  -0.00308  -0.00360  -3.08686
   D156       0.00592  -0.00000   0.00114  -0.00170  -0.00056   0.00535
   D157       3.13318  -0.00002   0.00344  -0.00489  -0.00145   3.13173
   D158      -3.08899  -0.00002  -0.00780   0.01098   0.00317  -3.08582
   D159       0.03827  -0.00004  -0.00550   0.00779   0.00229   0.04056
   D160       0.01775  -0.00005  -0.00142   0.00019  -0.00123   0.01652
   D161       3.14129  -0.00002   0.00053  -0.00099  -0.00046   3.14083
   D162      -3.10943  -0.00004  -0.00373   0.00339  -0.00034  -3.10977
   D163       0.01411  -0.00000  -0.00178   0.00221   0.00043   0.01454
   D164      -0.01745   0.00003  -0.00071   0.00175   0.00103  -0.01642
   D165       3.11553   0.00005   0.00047   0.00100   0.00147   3.11700
   D166      -3.14100  -0.00001  -0.00267   0.00293   0.00026  -3.14074
   D167      -0.00801   0.00002  -0.00148   0.00218   0.00070  -0.00732
   D168      -0.00659   0.00005   0.00315  -0.00218   0.00097  -0.00562
   D169       3.10695   0.00006   0.00032   0.00150   0.00182   3.10876
   D170      -3.13964   0.00003   0.00197  -0.00143   0.00054  -3.13910
   D171      -0.02610   0.00004  -0.00086   0.00225   0.00139  -0.02472
         Item               Value     Threshold  Converged?
 Maximum Force            0.001341     0.000450     NO 
 RMS     Force            0.000176     0.000300     YES
 Maximum Displacement     0.180102     0.001800     NO 
 RMS     Displacement     0.042546     0.001200     NO 
 Predicted change in Energy=-1.029370D-04
 GradGradGradGradGradGradGradGradGradGradGradGradGradGradGradGradGradGrad

 Stoichiometry    C26H28F2N2NiO2(3)
 Framework group  C1[X(C26H28F2N2NiO2)]
 Deg. of freedom   177
 Full point group                 C1      NOp   1
 Largest Abelian subgroup         C1      NOp   1
 Largest concise Abelian subgroup C1      NOp   1
                         Standard orientation:                         
 ---------------------------------------------------------------------
 Center     Atomic      Atomic             Coordinates (Angstroms)
 Number     Number       Type             X           Y           Z
 ---------------------------------------------------------------------
      1          6           0        1.006206    5.142426    1.633603
      2          8           0        1.767109    3.981524    1.308767
      3          6           0        1.110584    2.884890    0.884842
      4          6           0       -0.286548    2.800174    0.747272
      5          6           0       -0.801675    1.605044    0.270728
      6          6           0       -2.226554    1.373527    0.002111
      7          7           0       -2.624865    0.309997   -0.593714
      8          6           0       -4.091602    0.341730   -0.688270
      9          6           0       -4.753423   -0.916226   -0.062856
     10          6           0       -4.247436   -1.141935    1.371504
     11          6           0       -4.390076   -2.148660   -0.913166
     12          6           0       -6.279093   -0.715708   -0.090175
     13          6           0       -4.437054    1.702012   -0.010554
     14          8           0       -3.146835    2.271994    0.378575
     15          7           0       -0.043351    0.533910   -0.029477
     16          6           0        1.284912    0.597573    0.131097
     17          6           0        2.046703   -0.691571   -0.133153
     18          6           0        2.349956   -1.348465    1.207220
     19          6           0        1.533120   -2.410823    1.615080
     20          6           0        1.728051   -3.012653    2.858754
     21          6           0        2.730891   -2.556363    3.714079
     22          6           0        3.527418   -1.477351    3.327091
     23          6           0        3.331533   -0.871832    2.086414
     24          6           0        3.170436   -0.470985   -1.140998
     25          6           0        2.775291   -0.048944   -2.421878
     26          6           0        3.729056    0.187205   -3.407655
     27          6           0        5.087254    0.000668   -3.134603
     28          6           0        5.479581   -0.442727   -1.873859
     29          6           0        4.525134   -0.681468   -0.880159
     30          6           0        1.894658    1.771888    0.564859
     31          1           0        1.733432    5.891400    1.947113
     32          1           0        0.453605    5.509131    0.760533
     33          1           0        0.308403    4.940626    2.454770
     34          1           0       -0.952827    3.621501    0.972855
     35          1           0       -4.359105    0.366987   -1.751178
     36          1           0       -4.806625   -1.962618    1.834413
     37          1           0       -4.381988   -0.257426    2.007732
     38          1           0       -3.190191   -1.423641    1.356334
     39          1           0       -4.997539   -3.005068   -0.598295
     40          1           0       -3.341269   -2.422722   -0.771405
     41          1           0       -4.586517   -1.973232   -1.978474
     42          1           0       -6.778687   -1.615605    0.283191
     43          1           0       -6.639084   -0.535112   -1.110988
     44          1           0       -6.607325    0.120638    0.538785
     45          1           0       -5.028151    1.602726    0.900477
     46          1           0       -4.917884    2.412842   -0.684678
     47          1           0        1.329965   -1.349700   -0.633118
     48          1           0        0.708770   -2.727877    0.980857
     49          1           0        1.083967   -3.833938    3.160151
     50          1           0        2.883016   -3.027177    4.681462
     51          1           0        4.299873   -1.101555    3.992674
     52          1           0        3.945668   -0.020392    1.810428
     53          1           0        1.713353    0.045236   -2.645865
     54          1           0        3.410122    0.504332   -4.396840
     55          1           0        5.830815    0.184708   -3.905338
     56          1           0        6.530835   -0.613188   -1.657352
     57          1           0        4.843746   -1.055357    0.085550
     58          1           0        2.972204    1.835598    0.653056
     59         28           0       -1.074748   -0.945469   -1.019045
     60          9           0       -1.368692   -2.330786    0.169140
     61          9           0       -0.457556   -0.602774   -2.706245
 ---------------------------------------------------------------------
 Rotational constants (GHZ):           0.1634677           0.0858890           0.0804668
 Basis read from rwf:  (6D, 7F)
 Pseudo-potential data read from rwf file.
 There are   613 symmetry adapted cartesian basis functions of A   symmetry.
 There are   610 symmetry adapted basis functions of A   symmetry.
   610 basis functions,  1162 primitive gaussians,   613 cartesian basis functions
   126 alpha electrons      124 beta electrons
       nuclear repulsion energy      3837.3174495395 Hartrees.
 NAtoms=   61 NActive=   61 NUniq=   61 SFac= 1.00D+00 NAtFMM=   60 NAOKFM=T Big=T
 Integral buffers will be    131072 words long.
 Raffenetti 2 integral format.
 Two-electron integral symmetry is turned on.
 Nuclear repulsion after empirical dispersion term =     3837.1666885417 Hartrees.
 One-electron integrals computed using PRISM.
 PrsmSu:  requested number of processors reduced to:  12 ShMem   1 Linda.
   1 Symmetry operations used in ECPInt.
 ECPInt:  NShTT=   21115 NPrTT=  128985 LenC2=   17089 LenP2D=   55961.
 LDataN:  DoStor=T MaxTD1= 6 Len=  172
 Number of processors reduced to  12 by ecpmxn.
 NBasis=   610 RedAO= T EigKep=  6.98D-06  NBF=   610
 NBsUse=   609 1.00D-06 EigRej=  9.90D-07 NBFU=   609
 Initial guess from the checkpoint file:  "Lig2126_xyz_2.chk"
 B after Tr=     0.000000    0.000000    0.000000
         Rot=    0.999989   -0.002911    0.002610    0.002507 Ang=  -0.53 deg.
 Initial guess <Sx>= 0.0000 <Sy>= 0.0000 <Sz>= 1.0000 <S**2>= 2.0061 S= 1.0020
 ExpMin= 2.40D-02 ExpMax= 7.14D+04 ExpMxC= 1.07D+04 IAcc=3 IRadAn=         5 AccDes= 0.00D+00
 Harris functional with IExCor=  402 and IRadAn=       5 diagonalized for initial guess.
 HarFok:  IExCor=  402 AccDes= 0.00D+00 IRadAn=         5 IDoV= 1 UseB2=F ITyADJ=14
 ICtDFT=  3500011 ScaDFX=  1.000000  1.000000  1.000000  1.000000
 FoFCou: FMM=F IPFlag=           0 FMFlag=      100000 FMFlg1=        2001
         NFxFlg=           0 DoJE=T BraDBF=F KetDBF=T FulRan=T
         wScrn=  0.000000 ICntrl=       500 IOpCl=  0 I1Cent=   200000004 NGrid=           0
         NMat0=    1 NMatS0=      1 NMatT0=    0 NMatD0=    1 NMtDS0=    0 NMtDT0=    0
 Petite list used in FoFCou.
 Requested convergence on RMS density matrix=1.00D-08 within 128 cycles.
 Requested convergence on MAX density matrix=1.00D-06.
 Requested convergence on             energy=1.00D-06.
 No special actions if energy rises.
 Restarting incremental Fock formation.
 SCF Done:  E(UB3LYP) =  -1636.88158078     A.U. after   23 cycles
            NFock= 23  Conv=0.58D-08     -V/T= 2.0484
 <Sx>= 0.0000 <Sy>= 0.0000 <Sz>= 1.0000 <S**2>= 2.0060 S= 1.0020
 <L.S>=  0.00000000000    
 Annihilation of the first spin contaminant:
 S**2 before annihilation     2.0060,   after     2.0000
 PrsmSu:  requested number of processors reduced to:  12 ShMem   1 Linda.
   1 Symmetry operations used in ECPInt.
 ECPInt:  NShTT=   21115 NPrTT=  128985 LenC2=   17089 LenP2D=   55961.
 LDataN:  DoStor=T MaxTD1= 7 Len=  274
 Number of processors reduced to  13 by ecpmxn.
 Calling FoFJK, ICntrl=      2127 FMM=T ISym2X=0 I1Cent= 0 IOpClX= 1 NMat=1 NMatS=1 NMatT=0.
 ***** Axes restored to original set *****
 -------------------------------------------------------------------
 Center     Atomic                   Forces (Hartrees/Bohr)
 Number     Number              X              Y              Z
 -------------------------------------------------------------------
      1        6           0.000089573   -0.000257057   -0.000124881
      2        8           0.000025155   -0.000203652   -0.000108566
      3        6          -0.000120794    0.000227333    0.000081208
      4        6           0.000088653    0.000115218    0.000099570
      5        6          -0.000069551    0.000172967   -0.000321197
      6        6           0.000115555    0.000652054    0.000153657
      7        7           0.000234416   -0.000745278    0.000300797
      8        6          -0.000318108   -0.000257620    0.000199719
      9        6           0.000040946   -0.000050135   -0.000054051
     10        6          -0.000190108   -0.000061046    0.000160176
     11        6           0.000091602    0.000144561   -0.000073036
     12        6           0.000141743   -0.000121514   -0.000117882
     13        6           0.000093398    0.000345600    0.000241944
     14        8           0.000120255    0.000056389   -0.000316805
     15        7           0.000587153   -0.000253591    0.001083694
     16        6          -0.000255865    0.000361874   -0.000458037
     17        6          -0.000009054    0.000438053    0.000036479
     18        6          -0.000053993   -0.000303856   -0.000063091
     19        6          -0.000136931    0.000066559    0.000118796
     20        6           0.000003174   -0.000104303   -0.000013112
     21        6           0.000028359    0.000022816    0.000004706
     22        6           0.000010058   -0.000028489   -0.000018212
     23        6           0.000005349    0.000026913   -0.000185744
     24        6           0.000338710   -0.000581524   -0.000123514
     25        6           0.000046389    0.000010734   -0.000001728
     26        6          -0.000022272    0.000064963   -0.000045875
     27        6           0.000052860   -0.000050595    0.000037017
     28        6          -0.000100942    0.000046714    0.000047794
     29        6          -0.000049824    0.000098976   -0.000032331
     30        6          -0.000024015    0.000105109   -0.000002246
     31        1           0.000036233   -0.000050584    0.000071552
     32        1          -0.000050943   -0.000049007   -0.000021942
     33        1           0.000006221   -0.000032987   -0.000053142
     34        1          -0.000091007    0.000103185   -0.000053636
     35        1           0.000120150   -0.000089736   -0.000114754
     36        1          -0.000026009   -0.000085132    0.000079297
     37        1          -0.000013447   -0.000005984    0.000065958
     38        1           0.000113300   -0.000258569   -0.000077278
     39        1           0.000000272    0.000041352   -0.000092128
     40        1           0.000102854    0.000174312    0.000028639
     41        1          -0.000094887    0.000050694    0.000004178
     42        1          -0.000011441    0.000003621   -0.000048012
     43        1           0.000015018    0.000020592    0.000023311
     44        1           0.000017861   -0.000028565   -0.000033617
     45        1          -0.000194466    0.000039308    0.000043208
     46        1          -0.000100220   -0.000066431    0.000094699
     47        1          -0.000088147    0.000060650    0.000016936
     48        1          -0.000077851    0.000158374    0.000045839
     49        1          -0.000004054    0.000006831   -0.000017981
     50        1           0.000016901    0.000033705   -0.000020492
     51        1          -0.000009754    0.000024127    0.000031433
     52        1          -0.000070630    0.000034963   -0.000026688
     53        1           0.000048041    0.000172870   -0.000121063
     54        1          -0.000006359   -0.000027790    0.000004736
     55        1          -0.000009302   -0.000025046    0.000024717
     56        1           0.000015723   -0.000003525    0.000022560
     57        1          -0.000045863   -0.000075668    0.000004850
     58        1           0.000034990   -0.000042027    0.000040364
     59       28          -0.000241994   -0.000708053   -0.000318514
     60        9           0.000129353    0.000810815   -0.000063061
     61        9          -0.000282438   -0.000124464   -0.000045215
 -------------------------------------------------------------------
 Cartesian Forces:  Max     0.001083694 RMS     0.000195270

 GradGradGradGradGradGradGradGradGradGradGradGradGradGradGradGradGradGrad
 Berny optimization.
 Using GEDIIS/GDIIS optimizer.
 FormGI is forming the generalized inverse of G from B-inverse, IUseBI=4.
 Internal  Forces:  Max     0.000997201 RMS     0.000173564
 Search for a local minimum.
 Step number  13 out of a maximum of  362
 All quantities printed in internal units (Hartrees-Bohrs-Radians)
 Mixed Optimization -- En-DIIS/RFO-DIIS
 Swapping is turned off.
 Update second derivatives using D2CorX and points   10    9   11   12   13
 DE= -1.07D-04 DEPred=-1.03D-04 R= 1.04D+00
 TightC=F SS=  1.41D+00  RLast= 2.16D-01 DXNew= 1.6971D+00 6.4888D-01
 Trust test= 1.04D+00 RLast= 2.16D-01 DXMaxT set to 1.01D+00
 ITU=  1  1  1 -1  0  1 -1  1  0  1  1  1  0
     Eigenvalues ---    0.00229   0.00232   0.00239   0.00298   0.00415
     Eigenvalues ---    0.00573   0.01032   0.01089   0.01380   0.01444
     Eigenvalues ---    0.01510   0.01524   0.01834   0.01954   0.01976
     Eigenvalues ---    0.02025   0.02042   0.02062   0.02086   0.02099
     Eigenvalues ---    0.02104   0.02127   0.02129   0.02155   0.02168
     Eigenvalues ---    0.02175   0.02187   0.02189   0.02190   0.02191
     Eigenvalues ---    0.02192   0.02193   0.02194   0.02207   0.02266
     Eigenvalues ---    0.02290   0.02331   0.02418   0.03232   0.03541
     Eigenvalues ---    0.04202   0.04429   0.04544   0.04755   0.04985
     Eigenvalues ---    0.05163   0.05230   0.05237   0.05304   0.05340
     Eigenvalues ---    0.05532   0.05631   0.05674   0.05825   0.06135
     Eigenvalues ---    0.06373   0.06777   0.07412   0.08853   0.10107
     Eigenvalues ---    0.10402   0.10688   0.10752   0.11420   0.13713
     Eigenvalues ---    0.13903   0.14320   0.14894   0.15796   0.15892
     Eigenvalues ---    0.15973   0.15987   0.15993   0.15996   0.15997
     Eigenvalues ---    0.15998   0.15998   0.15999   0.16000   0.16000
     Eigenvalues ---    0.16000   0.16000   0.16000   0.16000   0.16007
     Eigenvalues ---    0.16011   0.16015   0.16057   0.16068   0.16131
     Eigenvalues ---    0.16191   0.16475   0.18376   0.19345   0.19874
     Eigenvalues ---    0.20497   0.20926   0.21445   0.21633   0.22000
     Eigenvalues ---    0.22014   0.22075   0.22104   0.23437   0.23539
     Eigenvalues ---    0.23593   0.23661   0.24096   0.24630   0.24823
     Eigenvalues ---    0.25001   0.25764   0.26194   0.26991   0.27135
     Eigenvalues ---    0.27609   0.27833   0.27918   0.28212   0.28949
     Eigenvalues ---    0.29395   0.29913   0.32816   0.34204   0.34497
     Eigenvalues ---    0.34626   0.34662   0.34683   0.34687   0.34694
     Eigenvalues ---    0.34705   0.34729   0.34743   0.34805   0.34832
     Eigenvalues ---    0.34864   0.34920   0.34987   0.35183   0.35501
     Eigenvalues ---    0.35847   0.35903   0.35946   0.35951   0.35953
     Eigenvalues ---    0.35958   0.35967   0.35999   0.36045   0.36187
     Eigenvalues ---    0.36775   0.36875   0.37668   0.40169   0.41386
     Eigenvalues ---    0.41812   0.42035   0.42143   0.42271   0.42314
     Eigenvalues ---    0.42968   0.44924   0.45439   0.45685   0.45947
     Eigenvalues ---    0.46132   0.46274   0.46385   0.46899   0.46940
     Eigenvalues ---    0.46985   0.47071   0.48434   0.50035   0.50366
     Eigenvalues ---    0.58601   0.69417
 En-DIIS/RFO-DIIS/Sim-DIIS IScMMF=       -3 using points:    13   12   11
 RFO step:  Lambda=-9.96158000D-05.
 DidBck=F Rises=F RFO-DIIS coefs:    1.24158    0.09796   -0.33954
 Iteration  1 RMS(Cart)=  0.01805026 RMS(Int)=  0.00007712
 Iteration  2 RMS(Cart)=  0.00014768 RMS(Int)=  0.00000796
 Iteration  3 RMS(Cart)=  0.00000001 RMS(Int)=  0.00000796
 Variable       Old X    -DE/DX   Delta X   Delta X   Delta X     New X
                                 (Linear)    (Quad)   (Total)
    R1        2.69389   0.00026  -0.00052   0.00063   0.00010   2.69400
    R2        2.05981  -0.00001   0.00008  -0.00008   0.00000   2.05981
    R3        2.07190  -0.00006   0.00014  -0.00016  -0.00002   2.07188
    R4        2.07179  -0.00004   0.00016  -0.00017  -0.00001   2.07178
    R5        2.54471   0.00064  -0.00151   0.00138  -0.00012   2.54459
    R6        2.65779   0.00011  -0.00042   0.00037  -0.00005   2.65774
    R7        2.64287   0.00002   0.00024  -0.00010   0.00014   2.64301
    R8        2.61902   0.00004  -0.00025   0.00014  -0.00011   2.61890
    R9        2.04352  -0.00014   0.00046  -0.00040   0.00006   2.04358
   R10        2.77477   0.00013   0.00011   0.00008   0.00019   2.77496
   R11        2.54413  -0.00024   0.00058  -0.00071  -0.00013   2.54400
   R12        2.42354  -0.00061   0.00079  -0.00080  -0.00001   2.42353
   R13        2.53244   0.00001  -0.00001  -0.00010  -0.00010   2.53234
   R14        2.77813  -0.00004   0.00078   0.00074   0.00151   2.77964
   R15        3.85428   0.00049   0.00179   0.00250   0.00428   3.85857
   R16        2.93462  -0.00027   0.00017  -0.00058  -0.00041   2.93421
   R17        2.94519  -0.00036   0.00078  -0.00129  -0.00052   2.94467
   R18        2.07179   0.00003   0.00007   0.00008   0.00015   2.07194
   R19        2.90573   0.00030   0.00008   0.00078   0.00086   2.90659
   R20        2.91161   0.00040  -0.00070   0.00116   0.00047   2.91208
   R21        2.90835  -0.00011   0.00064  -0.00070  -0.00005   2.90830
   R22        2.07052   0.00004   0.00011   0.00007   0.00018   2.07070
   R23        2.07461   0.00002  -0.00003   0.00005   0.00002   2.07464
   R24        2.06781  -0.00001   0.00010  -0.00015  -0.00005   2.06776
   R25        2.07146  -0.00004   0.00016  -0.00020  -0.00004   2.07142
   R26        2.06595  -0.00007   0.00008  -0.00068  -0.00060   2.06535
   R27        2.07375  -0.00006   0.00012  -0.00019  -0.00007   2.07368
   R28        2.06907  -0.00002   0.00001  -0.00006  -0.00005   2.06901
   R29        2.07377   0.00002   0.00012  -0.00002   0.00010   2.07387
   R30        2.07251   0.00002  -0.00001   0.00016   0.00015   2.07266
   R31        2.76505   0.00023  -0.00012   0.00004  -0.00008   2.76498
   R32        2.06078   0.00011  -0.00009   0.00040   0.00031   2.06109
   R33        2.06224  -0.00007   0.00010  -0.00023  -0.00012   2.06212
   R34        2.53119   0.00078  -0.00044   0.00111   0.00067   2.53186
   R35        3.88732  -0.00030  -0.00139  -0.00264  -0.00403   3.88329
   R36        2.87341   0.00023  -0.00036   0.00016  -0.00021   2.87320
   R37        2.63138   0.00005  -0.00039   0.00021  -0.00018   2.63120
   R38        2.87839   0.00031  -0.00103   0.00139   0.00036   2.87875
   R39        2.88280   0.00015  -0.00080   0.00019  -0.00061   2.88219
   R40        2.06734   0.00005   0.00034  -0.00009   0.00025   2.06759
   R41        2.64708   0.00030  -0.00032   0.00042   0.00010   2.64718
   R42        2.64808   0.00012  -0.00034   0.00030  -0.00003   2.64805
   R43        2.63678   0.00002  -0.00002   0.00018   0.00016   2.63693
   R44        2.05478   0.00010   0.00040   0.00013   0.00053   2.05531
   R45        2.63579  -0.00004   0.00017  -0.00005   0.00012   2.63591
   R46        2.05294  -0.00001   0.00010  -0.00006   0.00003   2.05297
   R47        2.63783  -0.00005   0.00029  -0.00020   0.00009   2.63792
   R48        2.05332  -0.00003   0.00010  -0.00006   0.00003   2.05336
   R49        2.63500  -0.00004   0.00006  -0.00009  -0.00002   2.63498
   R50        2.05356  -0.00003   0.00010  -0.00009   0.00001   2.05357
   R51        2.05127  -0.00003   0.00043  -0.00016   0.00027   2.05154
   R52        2.65566   0.00016  -0.00033   0.00020  -0.00013   2.65553
   R53        2.63720   0.00003  -0.00006   0.00040   0.00034   2.63754
   R54        2.63018   0.00000   0.00003   0.00005   0.00008   2.63025
   R55        2.05863  -0.00006  -0.00007  -0.00020  -0.00027   2.05836
   R56        2.64160  -0.00005   0.00006  -0.00016  -0.00011   2.64149
   R57        2.05344  -0.00002   0.00010  -0.00010   0.00000   2.05344
   R58        2.63208  -0.00001   0.00020  -0.00009   0.00010   2.63218
   R59        2.05345  -0.00003   0.00010  -0.00005   0.00004   2.05349
   R60        2.64251  -0.00012   0.00005  -0.00027  -0.00022   2.64229
   R61        2.05370  -0.00003   0.00008  -0.00008  -0.00000   2.05370
   R62        2.04746   0.00007   0.00005  -0.00001   0.00004   2.04749
   R63        2.04662  -0.00004   0.00024  -0.00010   0.00013   2.04675
   R64        3.49333  -0.00002   0.00239  -0.00064   0.00175   3.49508
   R65        3.45619  -0.00023   0.00112  -0.00145  -0.00033   3.45586
    A1        1.84314   0.00012  -0.00035   0.00019  -0.00015   1.84299
    A2        1.93900   0.00001  -0.00027   0.00021  -0.00006   1.93894
    A3        1.93961   0.00001  -0.00030   0.00032   0.00002   1.93963
    A4        1.91292  -0.00007   0.00051  -0.00037   0.00014   1.91306
    A5        1.91314  -0.00007   0.00046  -0.00049  -0.00003   1.91311
    A6        1.91474  -0.00000  -0.00003   0.00011   0.00008   1.91482
    A7        2.06541   0.00076  -0.00317   0.00341   0.00024   2.06565
    A8        2.17021   0.00035  -0.00186   0.00171  -0.00016   2.17005
    A9        2.03397  -0.00021   0.00072  -0.00092  -0.00021   2.03377
   A10        2.07900  -0.00014   0.00115  -0.00078   0.00037   2.07936
   A11        2.04294   0.00010  -0.00049   0.00049  -0.00000   2.04294
   A12        2.14826  -0.00003  -0.00024  -0.00023  -0.00047   2.14779
   A13        2.09171  -0.00008   0.00078  -0.00027   0.00050   2.09222
   A14        2.16464  -0.00010   0.00106   0.00016   0.00123   2.16587
   A15        2.15724   0.00007  -0.00042  -0.00010  -0.00052   2.15672
   A16        1.96098   0.00003  -0.00062  -0.00009  -0.00072   1.96025
   A17        2.11429   0.00003  -0.00040  -0.00026  -0.00067   2.11362
   A18        2.10516  -0.00002   0.00021  -0.00001   0.00022   2.10538
   A19        2.06373  -0.00001   0.00019   0.00027   0.00045   2.06418
   A20        1.89847   0.00005  -0.00014  -0.00039  -0.00057   1.89791
   A21        1.95120  -0.00005   0.00011  -0.00060  -0.00049   1.95071
   A22        2.43124   0.00001  -0.00007   0.00129   0.00125   2.43249
   A23        1.96254   0.00004  -0.00115   0.00429   0.00316   1.96571
   A24        1.78443   0.00016  -0.00029   0.00019  -0.00015   1.78428
   A25        1.88209  -0.00011   0.00001  -0.00078  -0.00076   1.88133
   A26        2.02353  -0.00027   0.00216  -0.00398  -0.00179   2.02174
   A27        1.88087   0.00016  -0.00089   0.00083  -0.00008   1.88079
   A28        1.92559   0.00002   0.00009  -0.00045  -0.00035   1.92524
   A29        1.93301  -0.00005  -0.00019  -0.00042  -0.00063   1.93238
   A30        1.90201  -0.00004  -0.00144   0.00246   0.00102   1.90303
   A31        1.88576  -0.00002   0.00223  -0.00362  -0.00139   1.88438
   A32        1.89630   0.00023  -0.00126   0.00367   0.00241   1.89871
   A33        1.94109  -0.00012   0.00139  -0.00176  -0.00037   1.94072
   A34        1.90519   0.00000  -0.00077  -0.00028  -0.00105   1.90414
   A35        1.91358   0.00009   0.00004   0.00016   0.00020   1.91379
   A36        1.96276  -0.00008  -0.00006  -0.00121  -0.00127   1.96149
   A37        1.92069   0.00009  -0.00099   0.00091  -0.00008   1.92061
   A38        1.87138  -0.00007   0.00013  -0.00083  -0.00070   1.87068
   A39        1.88193   0.00006   0.00091   0.00124   0.00215   1.88408
   A40        1.91120  -0.00009   0.00006  -0.00021  -0.00016   1.91105
   A41        1.91317   0.00006   0.00020  -0.00031  -0.00011   1.91306
   A42        1.93392   0.00021  -0.00156   0.00203   0.00047   1.93439
   A43        1.94514   0.00007  -0.00025   0.00031   0.00006   1.94520
   A44        1.87396  -0.00012   0.00072  -0.00120  -0.00048   1.87348
   A45        1.88026  -0.00008   0.00041  -0.00053  -0.00013   1.88013
   A46        1.91525  -0.00016   0.00059  -0.00044   0.00015   1.91540
   A47        1.91685  -0.00006  -0.00034  -0.00010  -0.00044   1.91641
   A48        1.94244   0.00005  -0.00007   0.00028   0.00022   1.94266
   A49        1.96694  -0.00004   0.00111  -0.00076   0.00036   1.96730
   A50        1.87841   0.00001  -0.00022   0.00016  -0.00007   1.87834
   A51        1.86988   0.00005  -0.00037   0.00032  -0.00005   1.86983
   A52        1.88577   0.00000  -0.00017   0.00013  -0.00004   1.88573
   A53        1.83401  -0.00024   0.00034   0.00006   0.00033   1.83435
   A54        1.98663  -0.00007   0.00007  -0.00136  -0.00127   1.98536
   A55        1.97965   0.00012  -0.00004   0.00075   0.00072   1.98037
   A56        1.86633   0.00017   0.00012  -0.00038  -0.00024   1.86609
   A57        1.87451   0.00003  -0.00023   0.00084   0.00063   1.87513
   A58        1.91403  -0.00001  -0.00024   0.00015  -0.00009   1.91394
   A59        1.84384   0.00004  -0.00002  -0.00019  -0.00025   1.84359
   A60        2.08750   0.00001   0.00057   0.00027   0.00083   2.08833
   A61        1.97908   0.00006   0.00120   0.00054   0.00173   1.98081
   A62        2.20068  -0.00008  -0.00187  -0.00149  -0.00337   2.19731
   A63        2.02160   0.00100  -0.00152   0.00221   0.00068   2.02228
   A64        2.10791  -0.00029   0.00011  -0.00082  -0.00072   2.10720
   A65        2.15286  -0.00071   0.00131  -0.00146  -0.00017   2.15269
   A66        1.88857  -0.00000  -0.00232  -0.00088  -0.00320   1.88537
   A67        1.94043   0.00003   0.00312  -0.00077   0.00235   1.94277
   A68        1.83509   0.00014   0.00067   0.00147   0.00213   1.83721
   A69        2.09102  -0.00036   0.00122  -0.00363  -0.00240   2.08861
   A70        1.84747   0.00009  -0.00146   0.00144  -0.00002   1.84745
   A71        1.84177   0.00018  -0.00147   0.00333   0.00185   1.84362
   A72        2.05692   0.00034  -0.00086   0.00164   0.00078   2.05770
   A73        2.14704  -0.00029  -0.00006  -0.00132  -0.00139   2.14566
   A74        2.07573  -0.00004   0.00085  -0.00017   0.00068   2.07641
   A75        2.10038  -0.00011  -0.00035  -0.00032  -0.00068   2.09970
   A76        2.08679   0.00016  -0.00047   0.00075   0.00028   2.08707
   A77        2.09443  -0.00006   0.00093  -0.00041   0.00052   2.09495
   A78        2.10124   0.00007  -0.00013   0.00032   0.00019   2.10143
   A79        2.08350  -0.00002   0.00011  -0.00001   0.00009   2.08359
   A80        2.09839  -0.00004   0.00003  -0.00030  -0.00027   2.09812
   A81        2.08649   0.00005   0.00017   0.00006   0.00022   2.08672
   A82        2.10003  -0.00002  -0.00016   0.00000  -0.00016   2.09987
   A83        2.09656  -0.00003  -0.00000  -0.00005  -0.00005   2.09651
   A84        2.09693   0.00000  -0.00005  -0.00017  -0.00022   2.09671
   A85        2.09801  -0.00002   0.00007  -0.00009  -0.00001   2.09800
   A86        2.08823   0.00002  -0.00003   0.00026   0.00023   2.08846
   A87        2.10476   0.00003  -0.00049   0.00034  -0.00015   2.10461
   A88        2.09854   0.00003  -0.00058  -0.00007  -0.00065   2.09789
   A89        2.07987  -0.00006   0.00108  -0.00027   0.00080   2.08067
   A90        2.02468   0.00061  -0.00022   0.00209   0.00186   2.02654
   A91        2.17703  -0.00058   0.00013  -0.00201  -0.00189   2.17513
   A92        2.08128  -0.00003   0.00006  -0.00014  -0.00008   2.08120
   A93        2.09881  -0.00006   0.00022  -0.00025  -0.00004   2.09877
   A94        2.07998   0.00020  -0.00103   0.00083  -0.00023   2.07975
   A95        2.10331  -0.00013   0.00062  -0.00048   0.00011   2.10343
   A96        2.09997   0.00003  -0.00018   0.00020   0.00002   2.10000
   A97        2.08648  -0.00002   0.00019   0.00002   0.00021   2.08669
   A98        2.09663  -0.00001  -0.00003  -0.00021  -0.00024   2.09639
   A99        2.08630   0.00003  -0.00005   0.00015   0.00011   2.08640
   A100       2.09868  -0.00001  -0.00008  -0.00001  -0.00009   2.09859
   A101       2.09808  -0.00002   0.00012  -0.00015  -0.00003   2.09805
   A102       2.10055  -0.00001   0.00007  -0.00023  -0.00016   2.10039
   A103       2.09755   0.00001  -0.00006  -0.00010  -0.00017   2.09738
   A104       2.08506   0.00000  -0.00001   0.00033   0.00033   2.08539
   A105       2.09902   0.00005  -0.00014   0.00026   0.00012   2.09914
   A106       2.09914  -0.00004  -0.00040  -0.00022  -0.00062   2.09851
   A107       2.08471  -0.00001   0.00058  -0.00004   0.00054   2.08524
   A108       2.09085   0.00025  -0.00084   0.00084  -0.00001   2.09084
   A109       2.08559  -0.00018   0.00090  -0.00088   0.00002   2.08561
   A110       2.10674  -0.00007  -0.00005   0.00004  -0.00001   2.10673
   A111       1.40814  -0.00008  -0.00051  -0.00033  -0.00085   1.40730
   A112       1.77869   0.00038  -0.00225   0.00203  -0.00021   1.77847
   A113       1.91082   0.00004  -0.00041   0.00109   0.00067   1.91149
   A114       1.88542   0.00076   0.00292   0.00726   0.01018   1.89560
   A115       1.71108  -0.00024  -0.00345  -0.00142  -0.00486   1.70622
   A116       2.47675  -0.00059   0.00255  -0.00557  -0.00303   2.47373
    D1        3.14137   0.00001   0.00041   0.00123   0.00165  -3.14017
    D2       -1.06911   0.00001   0.00067   0.00102   0.00169  -1.06742
    D3        1.06808   0.00002   0.00023   0.00153   0.00176   1.06984
    D4       -0.00797   0.00000  -0.00068  -0.00026  -0.00094  -0.00891
    D5        3.13163  -0.00001   0.00047  -0.00054  -0.00007   3.13156
    D6        3.11853  -0.00002   0.00087  -0.00204  -0.00118   3.11735
    D7        0.00184  -0.00001  -0.00103  -0.00144  -0.00247  -0.00063
    D8       -0.02101  -0.00001  -0.00031  -0.00176  -0.00208  -0.02309
    D9       -3.13771   0.00000  -0.00221  -0.00116  -0.00337  -3.14107
   D10        3.13136  -0.00001   0.00051   0.00071   0.00122   3.13258
   D11       -0.01548   0.00002   0.00152   0.00119   0.00271  -0.01277
   D12       -0.01212  -0.00001   0.00160   0.00045   0.00205  -0.01007
   D13        3.12423   0.00001   0.00260   0.00093   0.00354   3.12777
   D14       -3.08366   0.00003  -0.00128   0.00170   0.00042  -3.08324
   D15        0.02827   0.00001  -0.00064   0.00040  -0.00024   0.02803
   D16        0.03388   0.00002   0.00053   0.00112   0.00165   0.03553
   D17       -3.13738   0.00000   0.00117  -0.00018   0.00099  -3.13639
   D18        2.98722  -0.00008  -0.00180  -0.00333  -0.00512   2.98210
   D19       -0.15711  -0.00003  -0.00288  -0.00199  -0.00487  -0.16198
   D20       -0.12765  -0.00006  -0.00237  -0.00216  -0.00452  -0.13218
   D21        3.01120  -0.00002  -0.00346  -0.00082  -0.00427   3.00693
   D22       -0.00009   0.00001   0.00025   0.00238   0.00263   0.00254
   D23       -2.96237   0.00009   0.00104   0.00638   0.00743  -2.95494
   D24        3.11492  -0.00001   0.00086   0.00122   0.00207   3.11699
   D25        0.15264   0.00007   0.00164   0.00522   0.00687   0.15951
   D26        3.11548   0.00010   0.00057   0.00198   0.00255   3.11803
   D27        0.03185   0.00003   0.00197  -0.00197   0.00000   0.03185
   D28       -0.02344   0.00005   0.00163   0.00068   0.00231  -0.02113
   D29       -3.10707  -0.00002   0.00303  -0.00328  -0.00024  -3.10731
   D30       -3.11455  -0.00005   0.00411   0.00239   0.00651  -3.10805
   D31        0.02438  -0.00000   0.00306   0.00369   0.00675   0.03112
   D32       -2.17084   0.00013  -0.00699  -0.00205  -0.00904  -2.17989
   D33        0.01123  -0.00007  -0.00518  -0.00439  -0.00957   0.00166
   D34        2.04121  -0.00002  -0.00522  -0.00512  -0.01033   2.03088
   D35        0.88817   0.00023  -0.00898   0.00344  -0.00554   0.88263
   D36        3.07024   0.00003  -0.00718   0.00111  -0.00606   3.06418
   D37       -1.18296   0.00008  -0.00721   0.00038  -0.00683  -1.18979
   D38        0.04145   0.00001  -0.00077   0.00361   0.00284   0.04429
   D39        1.90218   0.00073   0.00239   0.01079   0.01318   1.91535
   D40       -1.62172   0.00029   0.00304   0.00538   0.00841  -1.61331
   D41       -3.01593  -0.00010   0.00127  -0.00201  -0.00073  -3.01667
   D42       -1.15521   0.00062   0.00443   0.00517   0.00960  -1.14560
   D43        1.60408   0.00019   0.00508  -0.00024   0.00484   1.60892
   D44        0.91538   0.00025  -0.00890   0.01569   0.00677   0.92215
   D45       -1.16974   0.00003  -0.00631   0.00988   0.00355  -1.16618
   D46        3.04535   0.00006  -0.00586   0.01090   0.00502   3.05038
   D47       -1.12895   0.00020  -0.00919   0.01503   0.00585  -1.12310
   D48        3.06912  -0.00002  -0.00660   0.00922   0.00263   3.07175
   D49        1.00102   0.00001  -0.00615   0.01024   0.00410   1.00512
   D50        2.98723   0.00024  -0.01015   0.01780   0.00766   2.99489
   D51        0.90211   0.00002  -0.00755   0.01199   0.00444   0.90655
   D52       -1.16599   0.00005  -0.00711   0.01302   0.00591  -1.16007
   D53        0.00214   0.00007   0.00668   0.00625   0.01293   0.01507
   D54       -2.03400   0.00005   0.00628   0.00739   0.01367  -2.02032
   D55        2.04453   0.00002   0.00659   0.00769   0.01427   2.05881
   D56        2.14336   0.00008   0.00627   0.00948   0.01575   2.15911
   D57        0.10722   0.00007   0.00588   0.01061   0.01650   0.12371
   D58       -2.09744   0.00004   0.00618   0.01092   0.01710  -2.08034
   D59       -1.99616   0.00011   0.00678   0.00723   0.01401  -1.98214
   D60        2.25089   0.00009   0.00638   0.00836   0.01476   2.26565
   D61        0.04623   0.00007   0.00669   0.00867   0.01536   0.06159
   D62        3.03067  -0.00010   0.00306   0.00082   0.00388   3.03455
   D63        0.95044  -0.00002   0.00292   0.00253   0.00545   0.95589
   D64       -1.18535   0.00008   0.00361   0.00299   0.00659  -1.17875
   D65       -1.16397  -0.00004   0.00037   0.00589   0.00627  -1.15771
   D66        3.03898   0.00004   0.00023   0.00760   0.00783   3.04681
   D67        0.90319   0.00015   0.00092   0.00806   0.00898   0.91217
   D68        0.93342   0.00004  -0.00054   0.00683   0.00630   0.93972
   D69       -1.14681   0.00012  -0.00068   0.00854   0.00786  -1.13895
   D70        3.00059   0.00022   0.00001   0.00900   0.00901   3.00959
   D71       -2.95652   0.00002  -0.00370  -0.00034  -0.00404  -2.96057
   D72        1.26151  -0.00001  -0.00376   0.00009  -0.00367   1.25784
   D73       -0.87663  -0.00000  -0.00323  -0.00101  -0.00423  -0.88087
   D74        1.21889  -0.00003  -0.00183  -0.00351  -0.00534   1.21355
   D75       -0.84626  -0.00006  -0.00189  -0.00308  -0.00497  -0.85124
   D76       -2.98441  -0.00005  -0.00136  -0.00418  -0.00553  -2.98994
   D77       -0.90065  -0.00003  -0.00228  -0.00345  -0.00573  -0.90637
   D78       -2.96580  -0.00006  -0.00234  -0.00302  -0.00536  -2.97116
   D79        1.17924  -0.00005  -0.00180  -0.00411  -0.00592   1.17332
   D80        3.07563   0.00004  -0.00529   0.00585   0.00056   3.07619
   D81        0.99734   0.00004  -0.00474   0.00554   0.00079   0.99814
   D82       -1.12431   0.00004  -0.00526   0.00570   0.00043  -1.12388
   D83       -1.08257  -0.00011  -0.00322   0.00185  -0.00136  -1.08393
   D84        3.12233  -0.00011  -0.00267   0.00155  -0.00112   3.12121
   D85        1.00068  -0.00012  -0.00320   0.00171  -0.00149   0.99919
   D86        1.00956   0.00010  -0.00442   0.00513   0.00072   1.01028
   D87       -1.06872   0.00010  -0.00387   0.00482   0.00095  -1.06777
   D88        3.09280   0.00010  -0.00439   0.00498   0.00059   3.09339
   D89       -0.01405  -0.00004  -0.00599  -0.00603  -0.01202  -0.02607
   D90        2.10285  -0.00017  -0.00567  -0.00776  -0.01344   2.08941
   D91       -2.12695  -0.00007  -0.00601  -0.00735  -0.01335  -2.14030
   D92        3.06423  -0.00010  -0.00217  -0.00544  -0.00760   3.05663
   D93       -0.03540  -0.00003   0.00107  -0.00370  -0.00262  -0.03803
   D94       -0.28134  -0.00018  -0.00268  -0.00973  -0.01240  -0.29374
   D95        2.90221  -0.00010   0.00056  -0.00799  -0.00742   2.89479
   D96       -0.11181  -0.00004  -0.00058  -0.00495  -0.00554  -0.11735
   D97       -1.84994  -0.00034   0.00226  -0.00618  -0.00392  -1.85386
   D98        1.78276   0.00002  -0.00063  -0.00369  -0.00432   1.77844
   D99       -3.06031   0.00003  -0.00007  -0.00087  -0.00095  -3.06126
   D100       1.48475  -0.00026   0.00278  -0.00211   0.00068   1.48542
   D101      -1.16574   0.00010  -0.00012   0.00039   0.00027  -1.16546
   D102      -1.74274  -0.00019   0.01331  -0.00656   0.00675  -1.73599
   D103       2.21008   0.00027   0.01105  -0.00028   0.01078   2.22086
   D104       0.22533  -0.00002   0.01096  -0.00461   0.00635   0.23168
   D105       1.35570  -0.00025   0.00995  -0.00834   0.00161   1.35731
   D106      -0.97467   0.00021   0.00769  -0.00206   0.00564  -0.96903
   D107      -2.95942  -0.00009   0.00760  -0.00639   0.00121  -2.95821
   D108       0.04145   0.00003  -0.00202   0.00232   0.00030   0.04175
   D109      -3.09483   0.00000  -0.00305   0.00184  -0.00121  -3.09604
   D110      -3.05493   0.00007   0.00153   0.00411   0.00564  -3.04928
   D111       0.09197   0.00004   0.00050   0.00363   0.00414   0.09611
   D112       1.75552   0.00015   0.00074  -0.00141  -0.00066   1.75486
   D113      -1.29524   0.00010   0.00163  -0.00329  -0.00166  -1.29690
   D114      -2.27954  -0.00013   0.00404  -0.00661  -0.00256  -2.28209
   D115       0.95289  -0.00018   0.00494  -0.00849  -0.00355   0.94934
   D116      -0.20427  -0.00004   0.00171  -0.00338  -0.00167  -0.20594
   D117       3.02815  -0.00010   0.00260  -0.00526  -0.00266   3.02548
   D118      -1.07933  -0.00031  -0.00761  -0.00438  -0.01198  -1.09131
   D119       2.08348  -0.00022  -0.00552  -0.00087  -0.00639   2.07709
   D120       2.97937  -0.00000  -0.00848   0.00106  -0.00742   2.97196
   D121      -0.14100   0.00009  -0.00639   0.00457  -0.00182  -0.14283
   D122       0.90122  -0.00004  -0.00615  -0.00121  -0.00736   0.89386
   D123      -2.21915   0.00005  -0.00406   0.00229  -0.00177  -2.22092
   D124      -3.09347   0.00002   0.00033  -0.00035  -0.00002  -3.09349
   D125      -0.01233   0.00004   0.00239   0.00006   0.00244  -0.00989
   D126      -0.03889   0.00006  -0.00057   0.00139   0.00082  -0.03807
   D127       3.04225   0.00008   0.00149   0.00180   0.00329   3.04554
   D128       3.09232   0.00002  -0.00077   0.00046  -0.00031   3.09201
   D129      -0.04271   0.00001  -0.00159   0.00042  -0.00118  -0.04389
   D130       0.04249  -0.00005   0.00021  -0.00153  -0.00132   0.04117
   D131      -3.09254  -0.00006  -0.00061  -0.00158  -0.00218  -3.09473
   D132       0.00916  -0.00003   0.00073  -0.00050   0.00024   0.00940
   D133       3.13919   0.00000   0.00108   0.00013   0.00121   3.14040
   D134      -3.07171  -0.00005  -0.00128  -0.00095  -0.00223  -3.07394
   D135       0.05832  -0.00002  -0.00093  -0.00032  -0.00125   0.05706
   D136       0.01758  -0.00001  -0.00055  -0.00026  -0.00081   0.01676
   D137      -3.13941   0.00002  -0.00027   0.00014  -0.00013  -3.13954
   D138      -3.11235  -0.00003  -0.00091  -0.00089  -0.00180  -3.11415
   D139       0.01385  -0.00001  -0.00062  -0.00049  -0.00111   0.01274
   D140      -0.01405   0.00001   0.00020   0.00011   0.00031  -0.01374
   D141       3.12218   0.00002   0.00012   0.00042   0.00053   3.12272
   D142      -3.14028  -0.00002  -0.00009  -0.00029  -0.00038  -3.14065
   D143      -0.00405  -0.00001  -0.00017   0.00001  -0.00015  -0.00420
   D144      -0.01625   0.00002  -0.00001   0.00079   0.00078  -0.01547
   D145       3.11885   0.00003   0.00079   0.00084   0.00163   3.12048
   D146       3.13067   0.00001   0.00007   0.00049   0.00056   3.13123
   D147      -0.01741   0.00002   0.00087   0.00054   0.00140  -0.01601
   D148       3.13438   0.00006   0.00191   0.00268   0.00459   3.13896
   D149      -0.05696  -0.00001  -0.00358   0.00469   0.00112  -0.05584
   D150      -0.02720  -0.00003  -0.00006  -0.00065  -0.00071  -0.02791
   D151       3.06465  -0.00011  -0.00554   0.00136  -0.00418   3.06047
   D152      -3.13614  -0.00006  -0.00103  -0.00354  -0.00456  -3.14071
   D153       0.03288  -0.00008  -0.00275  -0.00336  -0.00610   0.02678
   D154       0.02730   0.00003   0.00112   0.00005   0.00117   0.02847
   D155      -3.08686   0.00001  -0.00060   0.00023  -0.00037  -3.08722
   D156       0.00535   0.00000  -0.00073   0.00057  -0.00016   0.00519
   D157       3.13173   0.00000  -0.00215   0.00156  -0.00060   3.13114
   D158      -3.08582   0.00007   0.00486  -0.00151   0.00336  -3.08246
   D159       0.04056   0.00006   0.00344  -0.00052   0.00293   0.04349
   D160       0.01652   0.00003   0.00045   0.00014   0.00059   0.01710
   D161       3.14083   0.00001  -0.00039   0.00012  -0.00027   3.14056
   D162      -3.10977   0.00003   0.00187  -0.00086   0.00102  -3.10876
   D163       0.01454   0.00001   0.00104  -0.00087   0.00017   0.01470
   D164      -0.01642  -0.00004   0.00062  -0.00075  -0.00013  -0.01655
   D165       3.11700  -0.00002   0.00011  -0.00025  -0.00015   3.11685
   D166      -3.14074  -0.00001   0.00146  -0.00073   0.00073  -3.14001
   D167      -0.00732   0.00001   0.00094  -0.00024   0.00071  -0.00661
   D168      -0.00562   0.00000  -0.00142   0.00066  -0.00076  -0.00638
   D169       3.10876   0.00002   0.00027   0.00047   0.00075   3.10951
   D170      -3.13910  -0.00002  -0.00090   0.00017  -0.00074  -3.13984
   D171      -0.02472   0.00000   0.00078  -0.00002   0.00077  -0.02395
         Item               Value     Threshold  Converged?
 Maximum Force            0.000997     0.000450     NO 
 RMS     Force            0.000174     0.000300     YES
 Maximum Displacement     0.103906     0.001800     NO 
 RMS     Displacement     0.018048     0.001200     NO 
 Predicted change in Energy=-4.878528D-05
 GradGradGradGradGradGradGradGradGradGradGradGradGradGradGradGradGradGrad

 Stoichiometry    C26H28F2N2NiO2(3)
 Framework group  C1[X(C26H28F2N2NiO2)]
 Deg. of freedom   177
 Full point group                 C1      NOp   1
 Largest Abelian subgroup         C1      NOp   1
 Largest concise Abelian subgroup C1      NOp   1
                         Standard orientation:                         
 ---------------------------------------------------------------------
 Center     Atomic      Atomic             Coordinates (Angstroms)
 Number     Number       Type             X           Y           Z
 ---------------------------------------------------------------------
      1          6           0        1.015048    5.168759    1.548733
      2          8           0        1.773608    4.002102    1.239154
      3          6           0        1.114686    2.899420    0.835324
      4          6           0       -0.283117    2.813414    0.705875
      5          6           0       -0.801040    1.611935    0.248905
      6          6           0       -2.226986    1.375733   -0.010366
      7          7           0       -2.625827    0.305717   -0.594087
      8          6           0       -4.093637    0.335882   -0.684839
      9          6           0       -4.756884   -0.919975   -0.057254
     10          6           0       -4.256150   -1.138666    1.380522
     11          6           0       -4.393331   -2.155925   -0.902804
     12          6           0       -6.282214   -0.718005   -0.090556
     13          6           0       -4.438416    1.696146   -0.007378
     14          8           0       -3.146904    2.276301    0.361757
     15          7           0       -0.044061    0.536798   -0.039872
     16          6           0        1.285129    0.600857    0.115757
     17          6           0        2.044326   -0.694395   -0.124363
     18          6           0        2.339503   -1.325785    1.230211
     19          6           0        1.517872   -2.377335    1.656217
     20          6           0        1.706890   -2.953941    2.912782
     21          6           0        2.707811   -2.482741    3.762355
     22          6           0        3.509368   -1.414497    3.356191
     23          6           0        3.320004   -0.834411    2.102433
     24          6           0        3.175970   -0.495856   -1.127440
     25          6           0        2.793390   -0.107310   -2.422578
     26          6           0        3.756654    0.100962   -3.405457
     27          6           0        5.111886   -0.080380   -3.115020
     28          6           0        5.491914   -0.491326   -1.839539
     29          6           0        4.527934   -0.702475   -0.848966
     30          6           0        1.897015    1.781048    0.529804
     31          1           0        1.744478    5.922320    1.845695
     32          1           0        0.457854    5.521089    0.672678
     33          1           0        0.321724    4.981161    2.377025
     34          1           0       -0.947645    3.638125    0.924308
     35          1           0       -4.363174    0.360804   -1.747323
     36          1           0       -4.813428   -1.960554    1.843819
     37          1           0       -4.399796   -0.252589    2.012590
     38          1           0       -3.196839   -1.412650    1.371099
     39          1           0       -4.999195   -3.011613   -0.583002
     40          1           0       -3.344391   -2.428542   -0.761685
     41          1           0       -4.591958   -1.985646   -1.968502
     42          1           0       -6.783566   -1.616105    0.284695
     43          1           0       -6.638814   -0.541258   -1.113289
     44          1           0       -6.612125    0.121051    0.534041
     45          1           0       -5.015497    1.594961    0.912581
     46          1           0       -4.934473    2.401338   -0.676262
     47          1           0        1.328837   -1.360912   -0.615213
     48          1           0        0.696170   -2.706543    1.024273
     49          1           0        1.060305   -3.767901    3.228423
     50          1           0        2.854962   -2.934076    4.739761
     51          1           0        4.280629   -1.027593    4.016783
     52          1           0        3.938569    0.008351    1.809646
     53          1           0        1.733756   -0.020545   -2.659403
     54          1           0        3.447618    0.391725   -4.405822
     55          1           0        5.862759    0.081655   -3.883635
     56          1           0        6.540884   -0.657682   -1.609205
     57          1           0        4.836412   -1.050848    0.129514
     58          1           0        2.974864    1.844819    0.615065
     59         28           0       -1.072697   -0.951288   -1.014723
     60          9           0       -1.371691   -2.337496    0.172604
     61          9           0       -0.453818   -0.614494   -2.702302
 ---------------------------------------------------------------------
 Rotational constants (GHZ):           0.1636321           0.0857885           0.0804146
 Basis read from rwf:  (6D, 7F)
 Pseudo-potential data read from rwf file.
 There are   613 symmetry adapted cartesian basis functions of A   symmetry.
 There are   610 symmetry adapted basis functions of A   symmetry.
   610 basis functions,  1162 primitive gaussians,   613 cartesian basis functions
   126 alpha electrons      124 beta electrons
       nuclear repulsion energy      3836.6765309014 Hartrees.
 NAtoms=   61 NActive=   61 NUniq=   61 SFac= 1.00D+00 NAtFMM=   60 NAOKFM=T Big=T
 Integral buffers will be    131072 words long.
 Raffenetti 2 integral format.
 Two-electron integral symmetry is turned on.
 Nuclear repulsion after empirical dispersion term =     3836.5258064391 Hartrees.
 One-electron integrals computed using PRISM.
 PrsmSu:  requested number of processors reduced to:  12 ShMem   1 Linda.
   1 Symmetry operations used in ECPInt.
 ECPInt:  NShTT=   21115 NPrTT=  128985 LenC2=   17085 LenP2D=   55961.
 LDataN:  DoStor=T MaxTD1= 6 Len=  172
 Number of processors reduced to  12 by ecpmxn.
 NBasis=   610 RedAO= T EigKep=  6.98D-06  NBF=   610
 NBsUse=   609 1.00D-06 EigRej=  9.90D-07 NBFU=   609
 Initial guess from the checkpoint file:  "Lig2126_xyz_2.chk"
 B after Tr=    -0.000000   -0.000000   -0.000000
         Rot=    0.999967    0.007983    0.001146    0.000695 Ang=   0.93 deg.
 Initial guess <Sx>= 0.0000 <Sy>= 0.0000 <Sz>= 1.0000 <S**2>= 2.0060 S= 1.0020
 ExpMin= 2.40D-02 ExpMax= 7.14D+04 ExpMxC= 1.07D+04 IAcc=3 IRadAn=         5 AccDes= 0.00D+00
 Harris functional with IExCor=  402 and IRadAn=       5 diagonalized for initial guess.
 HarFok:  IExCor=  402 AccDes= 0.00D+00 IRadAn=         5 IDoV= 1 UseB2=F ITyADJ=14
 ICtDFT=  3500011 ScaDFX=  1.000000  1.000000  1.000000  1.000000
 FoFCou: FMM=F IPFlag=           0 FMFlag=      100000 FMFlg1=        2001
         NFxFlg=           0 DoJE=T BraDBF=F KetDBF=T FulRan=T
         wScrn=  0.000000 ICntrl=       500 IOpCl=  0 I1Cent=   200000004 NGrid=           0
         NMat0=    1 NMatS0=      1 NMatT0=    0 NMatD0=    1 NMtDS0=    0 NMtDT0=    0
 Petite list used in FoFCou.
 Requested convergence on RMS density matrix=1.00D-08 within 128 cycles.
 Requested convergence on MAX density matrix=1.00D-06.
 Requested convergence on             energy=1.00D-06.
 No special actions if energy rises.
 Restarting incremental Fock formation.
 SCF Done:  E(UB3LYP) =  -1636.88159237     A.U. after   23 cycles
            NFock= 23  Conv=0.60D-08     -V/T= 2.0484
 <Sx>= 0.0000 <Sy>= 0.0000 <Sz>= 1.0000 <S**2>= 2.0060 S= 1.0020
 <L.S>=  0.00000000000    
 Annihilation of the first spin contaminant:
 S**2 before annihilation     2.0060,   after     2.0000
 PrsmSu:  requested number of processors reduced to:  12 ShMem   1 Linda.
   1 Symmetry operations used in ECPInt.
 ECPInt:  NShTT=   21115 NPrTT=  128985 LenC2=   17085 LenP2D=   55961.
 LDataN:  DoStor=T MaxTD1= 7 Len=  274
 Number of processors reduced to  13 by ecpmxn.
 Calling FoFJK, ICntrl=      2127 FMM=T ISym2X=0 I1Cent= 0 IOpClX= 1 NMat=1 NMatS=1 NMatT=0.
 ***** Axes restored to original set *****
 -------------------------------------------------------------------
 Center     Atomic                   Forces (Hartrees/Bohr)
 Number     Number              X              Y              Z
 -------------------------------------------------------------------
      1        6           0.000062667   -0.000208640   -0.000146439
      2        8           0.000018264   -0.000270531   -0.000137108
      3        6          -0.000120684    0.000248343    0.000088950
      4        6           0.000065185   -0.000013700    0.000151354
      5        6          -0.000051434    0.000343733   -0.000466759
      6        6           0.000133712    0.000688193    0.000036048
      7        7           0.000055841   -0.000539300    0.000689422
      8        6          -0.000265233   -0.000307496   -0.000059790
      9        6           0.000073518   -0.000077066   -0.000142300
     10        6           0.000121613    0.000150807    0.000203627
     11        6          -0.000035313   -0.000122030   -0.000019299
     12        6           0.000080794   -0.000183535    0.000021201
     13        6           0.000241908    0.000279524    0.000395279
     14        8           0.000133605    0.000064412   -0.000315141
     15        7           0.000222594   -0.000182217    0.000686183
     16        6          -0.000029001    0.000208034   -0.000110288
     17        6          -0.000088469    0.000249920    0.000060247
     18        6          -0.000065128   -0.000176669   -0.000040560
     19        6          -0.000101710    0.000094166    0.000035509
     20        6          -0.000012906   -0.000084827   -0.000010992
     21        6           0.000032454    0.000048322    0.000029168
     22        6           0.000008915   -0.000016280    0.000002670
     23        6          -0.000054587   -0.000110230   -0.000079133
     24        6           0.000101934   -0.000107568   -0.000296079
     25        6          -0.000126441    0.000183740    0.000093578
     26        6           0.000004289   -0.000001398   -0.000083692
     27        6           0.000040863   -0.000032444    0.000007390
     28        6          -0.000018989    0.000026132    0.000015200
     29        6           0.000082189   -0.000057808   -0.000070727
     30        6          -0.000001155    0.000093701   -0.000085663
     31        1           0.000044269   -0.000056517    0.000079758
     32        1          -0.000048035   -0.000057450   -0.000020967
     33        1           0.000009582   -0.000045135   -0.000050251
     34        1          -0.000060102    0.000155653   -0.000044777
     35        1           0.000079793   -0.000025517   -0.000173742
     36        1          -0.000030515   -0.000022507   -0.000109908
     37        1          -0.000110445    0.000059546   -0.000007132
     38        1          -0.000039458   -0.000065874   -0.000014718
     39        1           0.000022840    0.000028180   -0.000021754
     40        1           0.000011367    0.000107262   -0.000186606
     41        1          -0.000048457   -0.000012367   -0.000019963
     42        1          -0.000012590    0.000002784    0.000008764
     43        1          -0.000038190   -0.000001275   -0.000013779
     44        1           0.000027613   -0.000034939   -0.000069481
     45        1          -0.000097623    0.000043298    0.000018340
     46        1          -0.000103097   -0.000096232    0.000039992
     47        1           0.000060246   -0.000032507   -0.000025936
     48        1          -0.000118313    0.000009969    0.000017451
     49        1           0.000016979   -0.000011041   -0.000000672
     50        1           0.000030004    0.000035606   -0.000022355
     51        1          -0.000006025    0.000039016    0.000021857
     52        1          -0.000230662   -0.000081706    0.000240630
     53        1           0.000230153   -0.000131028    0.000062533
     54        1          -0.000005785   -0.000039052    0.000035514
     55        1          -0.000012152   -0.000041756    0.000030386
     56        1          -0.000008105    0.000003950    0.000034747
     57        1           0.000079285    0.000177434   -0.000164184
     58        1           0.000099337   -0.000044076    0.000063217
     59       28          -0.000459515   -0.000651397    0.000269964
     60        9           0.000439527    0.000575727   -0.000281946
     61        9          -0.000231215    0.000024663   -0.000146835
 -------------------------------------------------------------------
 Cartesian Forces:  Max     0.000689422 RMS     0.000173665

 GradGradGradGradGradGradGradGradGradGradGradGradGradGradGradGradGradGrad
 Berny optimization.
 Using GEDIIS/GDIIS optimizer.
 FormGI is forming the generalized inverse of G from B-inverse, IUseBI=4.
 Internal  Forces:  Max     0.000738745 RMS     0.000157459
 Search for a local minimum.
 Step number  14 out of a maximum of  362
 All quantities printed in internal units (Hartrees-Bohrs-Radians)
 Mixed Optimization -- En-DIIS/RFO-DIIS
 Swapping is turned off.
 Update second derivatives using D2CorX and points   10    9   11   12   13
                                                     14
 DE= -1.16D-05 DEPred=-4.88D-05 R= 2.38D-01
 Trust test= 2.38D-01 RLast= 7.75D-02 DXMaxT set to 1.01D+00
 ITU=  0  1  1  1 -1  0  1 -1  1  0  1  1  1  0
     Eigenvalues ---    0.00154   0.00233   0.00238   0.00283   0.00373
     Eigenvalues ---    0.00680   0.01033   0.01090   0.01378   0.01454
     Eigenvalues ---    0.01522   0.01574   0.01816   0.01916   0.01975
     Eigenvalues ---    0.02028   0.02055   0.02062   0.02086   0.02099
     Eigenvalues ---    0.02102   0.02124   0.02128   0.02155   0.02169
     Eigenvalues ---    0.02178   0.02189   0.02190   0.02191   0.02191
     Eigenvalues ---    0.02192   0.02193   0.02194   0.02205   0.02285
     Eigenvalues ---    0.02290   0.02358   0.02494   0.03148   0.03427
     Eigenvalues ---    0.04221   0.04420   0.04525   0.04756   0.04999
     Eigenvalues ---    0.05210   0.05230   0.05233   0.05312   0.05346
     Eigenvalues ---    0.05535   0.05642   0.05716   0.05966   0.06211
     Eigenvalues ---    0.06597   0.06712   0.07117   0.08789   0.10107
     Eigenvalues ---    0.10208   0.10689   0.10770   0.11420   0.13577
     Eigenvalues ---    0.13903   0.14345   0.15116   0.15854   0.15923
     Eigenvalues ---    0.15976   0.15992   0.15993   0.15997   0.15998
     Eigenvalues ---    0.15998   0.15999   0.15999   0.16000   0.16000
     Eigenvalues ---    0.16000   0.16000   0.16000   0.16004   0.16011
     Eigenvalues ---    0.16015   0.16055   0.16069   0.16078   0.16185
     Eigenvalues ---    0.16326   0.16476   0.18458   0.19793   0.20067
     Eigenvalues ---    0.20320   0.21421   0.21603   0.21751   0.22000
     Eigenvalues ---    0.22029   0.22074   0.22113   0.23423   0.23566
     Eigenvalues ---    0.23593   0.23812   0.24191   0.24637   0.24879
     Eigenvalues ---    0.25030   0.25823   0.26391   0.27004   0.27238
     Eigenvalues ---    0.27737   0.27836   0.27945   0.28450   0.28997
     Eigenvalues ---    0.29388   0.30096   0.34172   0.34496   0.34623
     Eigenvalues ---    0.34660   0.34676   0.34683   0.34692   0.34705
     Eigenvalues ---    0.34728   0.34743   0.34804   0.34830   0.34855
     Eigenvalues ---    0.34908   0.34986   0.35083   0.35296   0.35520
     Eigenvalues ---    0.35866   0.35912   0.35947   0.35952   0.35955
     Eigenvalues ---    0.35960   0.35967   0.36000   0.36076   0.36287
     Eigenvalues ---    0.36831   0.37651   0.39742   0.40130   0.41513
     Eigenvalues ---    0.41932   0.42114   0.42216   0.42290   0.42913
     Eigenvalues ---    0.44096   0.44945   0.45543   0.45682   0.46095
     Eigenvalues ---    0.46264   0.46279   0.46519   0.46897   0.46942
     Eigenvalues ---    0.46996   0.47080   0.48859   0.50047   0.51324
     Eigenvalues ---    0.58920   0.69630
 En-DIIS/RFO-DIIS/Sim-DIIS IScMMF=       -3 using points:    14   13   12   11
 RFO step:  Lambda=-1.10871051D-04.
 DidBck=F Rises=F RFO-DIIS coefs:    1.56133   -0.02042   -0.20846   -0.33244
 Iteration  1 RMS(Cart)=  0.02788879 RMS(Int)=  0.00017846
 Iteration  2 RMS(Cart)=  0.00031758 RMS(Int)=  0.00002474
 Iteration  3 RMS(Cart)=  0.00000003 RMS(Int)=  0.00002474
 Variable       Old X    -DE/DX   Delta X   Delta X   Delta X     New X
                                 (Linear)    (Quad)   (Total)
    R1        2.69400   0.00024  -0.00055   0.00076   0.00021   2.69421
    R2        2.05981  -0.00001   0.00008  -0.00009  -0.00001   2.05980
    R3        2.07188  -0.00006   0.00014  -0.00022  -0.00008   2.07180
    R4        2.07178  -0.00004   0.00017  -0.00022  -0.00005   2.07173
    R5        2.54459   0.00069  -0.00189   0.00201   0.00012   2.54471
    R6        2.65774   0.00015  -0.00054   0.00065   0.00011   2.65786
    R7        2.64301   0.00002   0.00031   0.00004   0.00036   2.64336
    R8        2.61890   0.00012  -0.00042   0.00046   0.00003   2.61894
    R9        2.04358  -0.00016   0.00061  -0.00060   0.00001   2.04358
   R10        2.77496   0.00012   0.00026   0.00001   0.00026   2.77522
   R11        2.54400  -0.00038   0.00057  -0.00112  -0.00054   2.54346
   R12        2.42353  -0.00056   0.00071  -0.00102  -0.00029   2.42323
   R13        2.53234   0.00003  -0.00014   0.00009  -0.00001   2.53233
   R14        2.77964  -0.00048   0.00187  -0.00108   0.00076   2.78040
   R15        3.85857   0.00025   0.00527  -0.00033   0.00494   3.86350
   R16        2.93421  -0.00029  -0.00016  -0.00050  -0.00066   2.93355
   R17        2.94467  -0.00022   0.00059  -0.00114  -0.00059   2.94408
   R18        2.07194   0.00004   0.00023  -0.00001   0.00023   2.07217
   R19        2.90659  -0.00001   0.00061   0.00018   0.00079   2.90738
   R20        2.91208   0.00007  -0.00050   0.00063   0.00013   2.91220
   R21        2.90830  -0.00003   0.00075  -0.00047   0.00028   2.90858
   R22        2.07070  -0.00006   0.00023  -0.00013   0.00009   2.07079
   R23        2.07464  -0.00007  -0.00001  -0.00013  -0.00014   2.07449
   R24        2.06776   0.00002   0.00004  -0.00011  -0.00007   2.06768
   R25        2.07142  -0.00001   0.00012  -0.00016  -0.00004   2.07139
   R26        2.06535   0.00016  -0.00036   0.00007  -0.00029   2.06506
   R27        2.07368  -0.00005   0.00008  -0.00023  -0.00015   2.07352
   R28        2.06901   0.00002  -0.00004   0.00002  -0.00002   2.06899
   R29        2.07387  -0.00004   0.00021  -0.00017   0.00003   2.07391
   R30        2.07266   0.00001   0.00008  -0.00001   0.00007   2.07273
   R31        2.76498   0.00022  -0.00028   0.00038   0.00010   2.76507
   R32        2.06109   0.00004   0.00014   0.00015   0.00029   2.06138
   R33        2.06212  -0.00008  -0.00003  -0.00022  -0.00024   2.06188
   R34        2.53186   0.00032   0.00013   0.00026   0.00039   2.53225
   R35        3.88329  -0.00015  -0.00416  -0.00212  -0.00626   3.87703
   R36        2.87320   0.00009  -0.00028  -0.00014  -0.00042   2.87278
   R37        2.63120   0.00011  -0.00052   0.00041  -0.00011   2.63109
   R38        2.87875   0.00058  -0.00092   0.00210   0.00118   2.87993
   R39        2.88219   0.00042  -0.00126  -0.00000  -0.00126   2.88092
   R40        2.06759  -0.00004   0.00051  -0.00023   0.00028   2.06787
   R41        2.64718   0.00025  -0.00027   0.00046   0.00019   2.64737
   R42        2.64805   0.00022  -0.00038   0.00035  -0.00003   2.64802
   R43        2.63693  -0.00002   0.00014  -0.00010   0.00004   2.63698
   R44        2.05531  -0.00004   0.00086  -0.00052   0.00034   2.05565
   R45        2.63591  -0.00015   0.00027  -0.00028  -0.00000   2.63591
   R46        2.05297  -0.00002   0.00012  -0.00013  -0.00000   2.05296
   R47        2.63792  -0.00010   0.00043  -0.00038   0.00004   2.63796
   R48        2.05336  -0.00004   0.00013  -0.00016  -0.00003   2.05333
   R49        2.63498  -0.00003  -0.00001  -0.00004  -0.00004   2.63494
   R50        2.05357  -0.00003   0.00011  -0.00014  -0.00004   2.05353
   R51        2.05154  -0.00026   0.00073  -0.00068   0.00005   2.05160
   R52        2.65553   0.00013  -0.00034   0.00005  -0.00029   2.65524
   R53        2.63754   0.00013   0.00020   0.00014   0.00035   2.63788
   R54        2.63025  -0.00001   0.00004   0.00001   0.00005   2.63030
   R55        2.05836   0.00014  -0.00021   0.00013  -0.00007   2.05829
   R56        2.64149  -0.00007   0.00002  -0.00011  -0.00009   2.64140
   R57        2.05344  -0.00002   0.00011  -0.00015  -0.00004   2.05340
   R58        2.63218  -0.00005   0.00024  -0.00002   0.00022   2.63240
   R59        2.05349  -0.00005   0.00013  -0.00016  -0.00003   2.05346
   R60        2.64229  -0.00006  -0.00006  -0.00027  -0.00033   2.64196
   R61        2.05370  -0.00003   0.00008  -0.00013  -0.00005   2.05365
   R62        2.04749  -0.00013  -0.00001   0.00014   0.00013   2.04763
   R63        2.04675  -0.00008   0.00038  -0.00028   0.00011   2.04686
   R64        3.49508  -0.00041   0.00384  -0.00318   0.00066   3.49574
   R65        3.45586  -0.00008   0.00086  -0.00117  -0.00031   3.45555
    A1        1.84299   0.00014  -0.00043   0.00062   0.00019   1.84318
    A2        1.93894   0.00002  -0.00037   0.00026  -0.00011   1.93883
    A3        1.93963   0.00002  -0.00036   0.00041   0.00005   1.93968
    A4        1.91306  -0.00008   0.00068  -0.00064   0.00004   1.91310
    A5        1.91311  -0.00009   0.00052  -0.00071  -0.00020   1.91291
    A6        1.91482  -0.00001  -0.00002   0.00004   0.00002   1.91484
    A7        2.06565   0.00074  -0.00377   0.00435   0.00058   2.06623
    A8        2.17005   0.00041  -0.00249   0.00243  -0.00006   2.17000
    A9        2.03377  -0.00019   0.00085  -0.00116  -0.00031   2.03346
   A10        2.07936  -0.00022   0.00165  -0.00128   0.00037   2.07973
   A11        2.04294   0.00007  -0.00056   0.00054  -0.00003   2.04291
   A12        2.14779   0.00003  -0.00070   0.00016  -0.00054   2.14725
   A13        2.09222  -0.00010   0.00133  -0.00076   0.00057   2.09279
   A14        2.16587  -0.00013   0.00195   0.00011   0.00208   2.16795
   A15        2.15672   0.00014  -0.00086   0.00019  -0.00066   2.15605
   A16        1.96025  -0.00001  -0.00108  -0.00032  -0.00143   1.95883
   A17        2.11362   0.00010  -0.00070  -0.00032  -0.00104   2.11259
   A18        2.10538  -0.00006   0.00026   0.00046   0.00080   2.10618
   A19        2.06418  -0.00004   0.00044  -0.00014   0.00023   2.06441
   A20        1.89791   0.00010  -0.00043  -0.00003  -0.00058   1.89733
   A21        1.95071  -0.00008  -0.00052   0.00004  -0.00048   1.95023
   A22        2.43249  -0.00001   0.00075   0.00041   0.00127   2.43376
   A23        1.96571  -0.00031   0.00094  -0.00011   0.00089   1.96660
   A24        1.78428   0.00024  -0.00046   0.00079   0.00018   1.78446
   A25        1.88133  -0.00002  -0.00056  -0.00132  -0.00185   1.87948
   A26        2.02174   0.00005   0.00107  -0.00096   0.00018   2.02192
   A27        1.88079   0.00013  -0.00101   0.00136   0.00031   1.88110
   A28        1.92524  -0.00009  -0.00002   0.00010   0.00010   1.92534
   A29        1.93238   0.00018  -0.00078   0.00090   0.00011   1.93249
   A30        1.90303  -0.00011  -0.00085   0.00024  -0.00061   1.90241
   A31        1.88438  -0.00011   0.00152  -0.00180  -0.00028   1.88409
   A32        1.89871  -0.00010  -0.00047   0.00126   0.00078   1.89949
   A33        1.94072  -0.00008   0.00179  -0.00159   0.00019   1.94092
   A34        1.90414   0.00023  -0.00125   0.00102  -0.00023   1.90392
   A35        1.91379   0.00008  -0.00005   0.00038   0.00034   1.91412
   A36        1.96149   0.00011  -0.00092   0.00001  -0.00091   1.96057
   A37        1.92061   0.00005  -0.00143   0.00099  -0.00044   1.92017
   A38        1.87068  -0.00008  -0.00027  -0.00049  -0.00076   1.86991
   A39        1.88408  -0.00008   0.00233  -0.00038   0.00195   1.88603
   A40        1.91105  -0.00009   0.00052  -0.00057  -0.00006   1.91099
   A41        1.91306   0.00004   0.00023   0.00008   0.00031   1.91337
   A42        1.93439   0.00013  -0.00246   0.00206  -0.00039   1.93399
   A43        1.94520  -0.00002   0.00007  -0.00019  -0.00012   1.94508
   A44        1.87348  -0.00003   0.00015  -0.00034  -0.00019   1.87329
   A45        1.88013  -0.00002   0.00052  -0.00039   0.00013   1.88026
   A46        1.91540  -0.00009   0.00157  -0.00130   0.00027   1.91567
   A47        1.91641   0.00002  -0.00071   0.00048  -0.00024   1.91618
   A48        1.94266  -0.00001   0.00012   0.00006   0.00017   1.94283
   A49        1.96730  -0.00009   0.00162  -0.00118   0.00044   1.96774
   A50        1.87834   0.00000  -0.00035   0.00020  -0.00015   1.87819
   A51        1.86983   0.00005  -0.00051   0.00035  -0.00016   1.86967
   A52        1.88573   0.00004  -0.00026   0.00016  -0.00010   1.88563
   A53        1.83435  -0.00033   0.00055  -0.00069  -0.00035   1.83399
   A54        1.98536   0.00001  -0.00108  -0.00017  -0.00121   1.98415
   A55        1.98037   0.00013   0.00065   0.00046   0.00116   1.98153
   A56        1.86609   0.00013  -0.00011  -0.00016  -0.00018   1.86591
   A57        1.87513   0.00009   0.00043   0.00028   0.00078   1.87592
   A58        1.91394  -0.00004  -0.00035   0.00022  -0.00016   1.91378
   A59        1.84359   0.00002  -0.00009   0.00005  -0.00021   1.84337
   A60        2.08833  -0.00007   0.00124  -0.00016   0.00107   2.08940
   A61        1.98081   0.00004   0.00228   0.00038   0.00264   1.98344
   A62        2.19731   0.00002  -0.00424  -0.00085  -0.00509   2.19223
   A63        2.02228   0.00037  -0.00077   0.00028  -0.00052   2.02176
   A64        2.10720  -0.00008  -0.00041  -0.00023  -0.00065   2.10654
   A65        2.15269  -0.00029   0.00089   0.00027   0.00113   2.15383
   A66        1.88537  -0.00001  -0.00599   0.00370  -0.00229   1.88308
   A67        1.94277  -0.00054   0.00540  -0.00290   0.00249   1.94527
   A68        1.83721   0.00011   0.00226  -0.00151   0.00073   1.83794
   A69        2.08861   0.00065   0.00037  -0.00193  -0.00155   2.08706
   A70        1.84745  -0.00012  -0.00144   0.00148   0.00004   1.84749
   A71        1.84362  -0.00011  -0.00037   0.00126   0.00087   1.84449
   A72        2.05770  -0.00011  -0.00021   0.00102   0.00080   2.05850
   A73        2.14566   0.00037  -0.00141   0.00020  -0.00121   2.14445
   A74        2.07641  -0.00027   0.00151  -0.00100   0.00051   2.07692
   A75        2.09970   0.00008  -0.00098   0.00047  -0.00051   2.09919
   A76        2.08707   0.00008  -0.00026   0.00079   0.00052   2.08759
   A77        2.09495  -0.00016   0.00143  -0.00136   0.00006   2.09502
   A78        2.10143   0.00005   0.00001   0.00010   0.00011   2.10154
   A79        2.08359  -0.00002   0.00016   0.00002   0.00018   2.08377
   A80        2.09812  -0.00002  -0.00016  -0.00012  -0.00028   2.09784
   A81        2.08672   0.00000   0.00039  -0.00013   0.00026   2.08698
   A82        2.09987   0.00000  -0.00030   0.00007  -0.00023   2.09964
   A83        2.09651  -0.00000  -0.00008   0.00005  -0.00003   2.09648
   A84        2.09671   0.00005  -0.00025   0.00006  -0.00020   2.09652
   A85        2.09800  -0.00004   0.00010  -0.00017  -0.00007   2.09793
   A86        2.08846  -0.00001   0.00015   0.00011   0.00026   2.08873
   A87        2.10461   0.00008  -0.00066   0.00054  -0.00012   2.10449
   A88        2.09789   0.00013  -0.00125   0.00062  -0.00063   2.09726
   A89        2.08067  -0.00021   0.00192  -0.00116   0.00076   2.08143
   A90        2.02654  -0.00050   0.00075   0.00042   0.00115   2.02770
   A91        2.17513   0.00060  -0.00084  -0.00074  -0.00159   2.17354
   A92        2.08120  -0.00011   0.00000   0.00033   0.00034   2.08154
   A93        2.09877   0.00002   0.00020  -0.00036  -0.00017   2.09860
   A94        2.07975   0.00009  -0.00143   0.00102  -0.00044   2.07931
   A95        2.10343  -0.00011   0.00090  -0.00029   0.00058   2.10401
   A96        2.10000   0.00002  -0.00015   0.00001  -0.00014   2.09986
   A97        2.08669  -0.00005   0.00036  -0.00011   0.00024   2.08693
   A98        2.09639   0.00003  -0.00023   0.00013  -0.00011   2.09629
   A99        2.08640  -0.00000   0.00003   0.00027   0.00030   2.08670
   A100       2.09859   0.00001  -0.00014  -0.00005  -0.00020   2.09839
   A101       2.09805  -0.00001   0.00010  -0.00021  -0.00011   2.09794
   A102       2.10039   0.00005  -0.00002  -0.00015  -0.00017   2.10022
   A103       2.09738   0.00000  -0.00018   0.00004  -0.00014   2.09724
   A104       2.08539  -0.00005   0.00020   0.00011   0.00031   2.08570
   A105       2.09914   0.00001  -0.00006  -0.00011  -0.00018   2.09896
   A106       2.09851   0.00018  -0.00080   0.00029  -0.00051   2.09800
   A107       2.08524  -0.00020   0.00093  -0.00021   0.00071   2.08596
   A108       2.09084   0.00015  -0.00101   0.00074  -0.00027   2.09058
   A109       2.08561  -0.00016   0.00112  -0.00109   0.00002   2.08563
   A110       2.10673   0.00001  -0.00010   0.00035   0.00025   2.10698
   A111       1.40730  -0.00005  -0.00096  -0.00031  -0.00130   1.40600
   A112       1.77847   0.00034  -0.00653   0.00612  -0.00039   1.77808
   A113       1.91149   0.00015  -0.00144   0.00325   0.00178   1.91327
   A114       1.89560   0.00051   0.01053   0.00428   0.01481   1.91041
   A115       1.70622  -0.00014  -0.01050   0.00335  -0.00714   1.69907
   A116       2.47373  -0.00057   0.00653  -0.01140  -0.00489   2.46884
    D1       -3.14017   0.00002   0.00155   0.00122   0.00277  -3.13739
    D2       -1.06742   0.00001   0.00192   0.00096   0.00288  -1.06454
    D3        1.06984   0.00003   0.00138   0.00149   0.00287   1.07272
    D4       -0.00891   0.00001  -0.00158   0.00073  -0.00085  -0.00976
    D5        3.13156  -0.00002   0.00042  -0.00116  -0.00074   3.13082
    D6        3.11735  -0.00002   0.00022  -0.00312  -0.00291   3.11445
    D7       -0.00063  -0.00001  -0.00316  -0.00012  -0.00328  -0.00391
    D8       -0.02309   0.00002  -0.00183  -0.00118  -0.00302  -0.02611
    D9       -3.14107   0.00003  -0.00521   0.00181  -0.00339   3.13872
   D10        3.13258   0.00001   0.00167  -0.00046   0.00120   3.13378
   D11       -0.01277  -0.00003   0.00398  -0.00200   0.00199  -0.01078
   D12       -0.01007  -0.00002   0.00354  -0.00224   0.00131  -0.00877
   D13        3.12777  -0.00006   0.00586  -0.00378   0.00209   3.12986
   D14       -3.08324  -0.00001  -0.00142   0.00283   0.00142  -3.08182
   D15        0.02803   0.00001  -0.00097   0.00203   0.00107   0.02909
   D16        0.03553  -0.00002   0.00181  -0.00005   0.00177   0.03730
   D17       -3.13639  -0.00000   0.00226  -0.00085   0.00141  -3.13497
   D18        2.98210  -0.00000  -0.00751   0.00047  -0.00703   2.97508
   D19       -0.16198   0.00001  -0.00910   0.00143  -0.00766  -0.16964
   D20       -0.13218  -0.00002  -0.00791   0.00118  -0.00671  -0.13889
   D21        3.00693  -0.00001  -0.00950   0.00215  -0.00734   2.99959
   D22        0.00254  -0.00003   0.00201   0.00075   0.00276   0.00531
   D23       -2.95494   0.00004   0.00642   0.00425   0.01072  -2.94422
   D24        3.11699  -0.00002   0.00246   0.00005   0.00250   3.11949
   D25        0.15951   0.00005   0.00688   0.00354   0.01045   0.16996
   D26        3.11803   0.00003   0.00214   0.00055   0.00270   3.12073
   D27        0.03185  -0.00003   0.00494  -0.00514  -0.00019   0.03166
   D28       -0.02113   0.00002   0.00370  -0.00038   0.00332  -0.01781
   D29       -3.10731  -0.00005   0.00650  -0.00608   0.00042  -3.10689
   D30       -3.10805   0.00003   0.01222  -0.00038   0.01182  -3.09623
   D31        0.03112   0.00004   0.01067   0.00055   0.01120   0.04233
   D32       -2.17989  -0.00011  -0.01673   0.00075  -0.01598  -2.19587
   D33        0.00166  -0.00007  -0.01521   0.00004  -0.01515  -0.01349
   D34        2.03088  -0.00007  -0.01568  -0.00001  -0.01570   2.01519
   D35        0.88263  -0.00001  -0.02081   0.00884  -0.01197   0.87066
   D36        3.06418   0.00003  -0.01929   0.00814  -0.01114   3.05303
   D37       -1.18979   0.00002  -0.01975   0.00809  -0.01168  -1.20147
   D38        0.04429   0.00004  -0.00076   0.00522   0.00446   0.04875
   D39        1.91535   0.00053   0.01060   0.00890   0.01950   1.93485
   D40       -1.61331   0.00023   0.01062   0.00218   0.01279  -1.60052
   D41       -3.01667  -0.00006   0.00339  -0.00304   0.00037  -3.01630
   D42       -1.14560   0.00042   0.01475   0.00065   0.01540  -1.13020
   D43        1.60892   0.00013   0.01477  -0.00608   0.00870   1.61762
   D44        0.92215   0.00005  -0.00829   0.00238  -0.00596   0.91619
   D45       -1.16618   0.00014  -0.00669   0.00013  -0.00661  -1.17279
   D46        3.05038  -0.00001  -0.00559  -0.00020  -0.00584   3.04454
   D47       -1.12310  -0.00006  -0.00916   0.00211  -0.00700  -1.13010
   D48        3.07175   0.00002  -0.00755  -0.00014  -0.00764   3.06410
   D49        1.00512  -0.00012  -0.00645  -0.00047  -0.00688   0.99825
   D50        2.99489  -0.00008  -0.00909   0.00157  -0.00752   2.98737
   D51        0.90655   0.00001  -0.00748  -0.00068  -0.00816   0.89839
   D52       -1.16007  -0.00013  -0.00638  -0.00101  -0.00739  -1.16746
   D53        0.01507   0.00009   0.02052   0.00025   0.02076   0.03584
   D54       -2.02032   0.00012   0.02087   0.00096   0.02184  -1.99848
   D55        2.05881   0.00006   0.02173   0.00041   0.02210   2.08091
   D56        2.15911  -0.00010   0.02197   0.00013   0.02211   2.18122
   D57        0.12371  -0.00007   0.02232   0.00084   0.02318   0.14690
   D58       -2.08034  -0.00013   0.02318   0.00028   0.02344  -2.05690
   D59       -1.98214   0.00003   0.02140   0.00132   0.02274  -1.95940
   D60        2.26565   0.00007   0.02175   0.00203   0.02382   2.28947
   D61        0.06159   0.00001   0.02261   0.00147   0.02408   0.08567
   D62        3.03455   0.00005  -0.00467   0.00880   0.00413   3.03868
   D63        0.95589   0.00002  -0.00372   0.00916   0.00544   0.96133
   D64       -1.17875   0.00003  -0.00272   0.00918   0.00646  -1.17229
   D65       -1.15771  -0.00005  -0.00650   0.01044   0.00394  -1.15377
   D66        3.04681  -0.00007  -0.00555   0.01079   0.00525   3.05206
   D67        0.91217  -0.00007  -0.00454   0.01081   0.00627   0.91844
   D68        0.93972   0.00012  -0.00725   0.01153   0.00428   0.94400
   D69       -1.13895   0.00010  -0.00629   0.01189   0.00560  -1.13335
   D70        3.00959   0.00010  -0.00529   0.01190   0.00662   3.01621
   D71       -2.96057   0.00006  -0.00247  -0.00262  -0.00509  -2.96566
   D72        1.25784   0.00001  -0.00130  -0.00351  -0.00481   1.25302
   D73       -0.88087   0.00005  -0.00163  -0.00317  -0.00480  -0.88567
   D74        1.21355  -0.00002  -0.00072  -0.00462  -0.00533   1.20821
   D75       -0.85124  -0.00008   0.00046  -0.00551  -0.00505  -0.85629
   D76       -2.98994  -0.00004   0.00013  -0.00517  -0.00504  -2.99498
   D77       -0.90637  -0.00001  -0.00185  -0.00407  -0.00591  -0.91229
   D78       -2.97116  -0.00007  -0.00067  -0.00496  -0.00563  -2.97679
   D79        1.17332  -0.00003  -0.00100  -0.00462  -0.00562   1.16770
   D80        3.07619  -0.00004  -0.00420   0.00626   0.00206   3.07824
   D81        0.99814  -0.00005  -0.00338   0.00567   0.00229   1.00043
   D82       -1.12388  -0.00003  -0.00428   0.00626   0.00198  -1.12190
   D83       -1.08393   0.00006  -0.00308   0.00520   0.00213  -1.08180
   D84        3.12121   0.00004  -0.00226   0.00461   0.00236   3.12357
   D85        0.99919   0.00007  -0.00316   0.00521   0.00205   1.00124
   D86        1.01028   0.00003  -0.00336   0.00643   0.00307   1.01335
   D87       -1.06777   0.00002  -0.00254   0.00584   0.00330  -1.06447
   D88        3.09339   0.00004  -0.00344   0.00644   0.00300   3.09639
   D89       -0.02607  -0.00007  -0.01905  -0.00045  -0.01949  -0.04556
   D90        2.08941  -0.00017  -0.02007  -0.00108  -0.02117   2.06824
   D91       -2.14030  -0.00010  -0.02032  -0.00076  -0.02105  -2.16135
   D92        3.05663   0.00008  -0.00828   0.00296  -0.00532   3.05131
   D93       -0.03803   0.00003  -0.00021  -0.00435  -0.00456  -0.04259
   D94       -0.29374  -0.00000  -0.01247  -0.00085  -0.01330  -0.30705
   D95        2.89479  -0.00005  -0.00440  -0.00816  -0.01255   2.88224
   D96       -0.11735  -0.00006  -0.00368  -0.00482  -0.00853  -0.12588
   D97       -1.85386  -0.00035   0.00467  -0.01075  -0.00605  -1.85991
   D98        1.77844   0.00011  -0.00394  -0.00197  -0.00589   1.77255
   D99       -3.06126   0.00003   0.00034  -0.00117  -0.00086  -3.06212
   D100       1.48542  -0.00026   0.00869  -0.00709   0.00161   1.48703
   D101      -1.16546   0.00020   0.00008   0.00169   0.00177  -1.16369
   D102      -1.73599   0.00019   0.02192  -0.01188   0.01004  -1.72595
   D103       2.22086  -0.00023   0.02205  -0.01003   0.01204   2.23290
   D104       0.23168   0.00010   0.01876  -0.00931   0.00944   0.24112
   D105       1.35731   0.00024   0.01359  -0.00438   0.00921   1.36652
   D106      -0.96903  -0.00018   0.01372  -0.00252   0.01121  -0.95782
   D107      -2.95821   0.00015   0.01042  -0.00181   0.00860  -2.94961
   D108       0.04175  -0.00000  -0.00259   0.00512   0.00253   0.04429
   D109      -3.09604   0.00004  -0.00494   0.00668   0.00174  -3.09430
   D110      -3.04928  -0.00007   0.00614  -0.00275   0.00340  -3.04588
   D111       0.09611  -0.00003   0.00378  -0.00119   0.00261   0.09872
   D112       1.75486   0.00019  -0.00962   0.00951  -0.00011   1.75475
   D113      -1.29690   0.00025  -0.00822   0.00667  -0.00155  -1.29845
   D114      -2.28209  -0.00004  -0.00743   0.00729  -0.00013  -2.28223
   D115       0.94934   0.00002  -0.00603   0.00445  -0.00157   0.94777
   D116      -0.20594   0.00013  -0.00885   0.00891   0.00005  -0.20589
   D117       3.02548   0.00019  -0.00745   0.00607  -0.00139   3.02410
   D118      -1.09131   0.00021  -0.00011   0.01946   0.01936  -1.07195
   D119       2.07709   0.00020   0.00439   0.01894   0.02333   2.10042
   D120       2.97196   0.00018   0.00293   0.01872   0.02165   2.99361
   D121      -0.14283   0.00017   0.00743   0.01820   0.02563  -0.11720
   D122       0.89386   0.00002   0.00489   0.01699   0.02189   0.91575
   D123      -2.22092   0.00000   0.00939   0.01647   0.02586  -2.19506
   D124      -3.09349   0.00002   0.00129  -0.00118   0.00012  -3.09337
   D125      -0.00989   0.00002   0.00490  -0.00314   0.00176  -0.00813
   D126      -0.03807  -0.00001  -0.00020   0.00160   0.00141  -0.03666
   D127       3.04554  -0.00001   0.00341  -0.00036   0.00305   3.04858
   D128       3.09201  -0.00003  -0.00199   0.00194  -0.00006   3.09195
   D129      -0.04389   0.00004  -0.00369   0.00297  -0.00073  -0.04461
   D130       0.04117   0.00002  -0.00049  -0.00103  -0.00152   0.03964
   D131      -3.09473   0.00009  -0.00219   0.00000  -0.00219  -3.09692
   D132       0.00940  -0.00001   0.00104  -0.00137  -0.00033   0.00907
   D133       3.14040  -0.00000   0.00201  -0.00149   0.00052   3.14092
   D134      -3.07394  -0.00002  -0.00252   0.00053  -0.00199  -3.07593
   D135       0.05706  -0.00001  -0.00155   0.00041  -0.00114   0.05592
   D136       0.01676   0.00003  -0.00122   0.00056  -0.00066   0.01610
   D137      -3.13954   0.00001  -0.00048   0.00038  -0.00011  -3.13964
   D138      -3.11415   0.00002  -0.00220   0.00068  -0.00152  -3.11567
   D139       0.01274   0.00000  -0.00146   0.00050  -0.00096   0.01178
   D140      -0.01374  -0.00001   0.00052   0.00002   0.00054  -0.01319
   D141       3.12272  -0.00003   0.00051  -0.00003   0.00048   3.12320
   D142      -3.14065  -0.00000  -0.00021   0.00020  -0.00001  -3.14066
   D143      -0.00420  -0.00002  -0.00022   0.00015  -0.00007  -0.00427
   D144      -0.01547  -0.00001   0.00036   0.00021   0.00056  -0.01491
   D145       3.12048  -0.00008   0.00203  -0.00081   0.00122   3.12170
   D146       3.13123   0.00000   0.00037   0.00026   0.00063   3.13186
   D147      -0.01601  -0.00007   0.00204  -0.00075   0.00129  -0.01472
   D148       3.13896  -0.00006   0.00457  -0.00115   0.00342  -3.14080
   D149      -0.05584   0.00008  -0.00385   0.00679   0.00296  -0.05289
   D150      -0.02791  -0.00003   0.00032  -0.00068  -0.00036  -0.02827
   D151       3.06047   0.00010  -0.00810   0.00727  -0.00083   3.05964
   D152      -3.14071   0.00001  -0.00370  -0.00024  -0.00393   3.13855
   D153       0.02678   0.00007  -0.00651   0.00150  -0.00500   0.02179
   D154       0.02847  -0.00000   0.00092  -0.00077   0.00015   0.02862
   D155      -3.08722   0.00006  -0.00189   0.00096  -0.00092  -3.08814
   D156       0.00519   0.00003  -0.00098   0.00130   0.00032   0.00552
   D157       3.13114   0.00006  -0.00288   0.00336   0.00047   3.13161
   D158      -3.08246  -0.00011   0.00761  -0.00680   0.00082  -3.08163
   D159       0.04349  -0.00008   0.00570  -0.00474   0.00097   0.04446
   D160       0.01710  -0.00000   0.00039  -0.00046  -0.00006   0.01704
   D161       3.14056   0.00000  -0.00067   0.00034  -0.00033   3.14023
   D162      -3.10876  -0.00003   0.00230  -0.00252  -0.00022  -3.10897
   D163       0.01470  -0.00002   0.00124  -0.00173  -0.00048   0.01422
   D164      -0.01655  -0.00003   0.00085  -0.00100  -0.00015  -0.01670
   D165       3.11685  -0.00002   0.00047  -0.00027   0.00020   3.11706
   D166      -3.14001  -0.00003   0.00192  -0.00180   0.00012  -3.13990
   D167      -0.00661  -0.00002   0.00153  -0.00107   0.00047  -0.00614
   D168      -0.00638   0.00003  -0.00152   0.00163   0.00011  -0.00627
   D169       3.10951  -0.00003   0.00124  -0.00009   0.00116   3.11067
   D170      -3.13984   0.00002  -0.00113   0.00090  -0.00024  -3.14007
   D171      -0.02395  -0.00004   0.00162  -0.00082   0.00081  -0.02314
         Item               Value     Threshold  Converged?
 Maximum Force            0.000739     0.000450     NO 
 RMS     Force            0.000157     0.000300     YES
 Maximum Displacement     0.131197     0.001800     NO 
 RMS     Displacement     0.027871     0.001200     NO 
 Predicted change in Energy=-4.652923D-05
 GradGradGradGradGradGradGradGradGradGradGradGradGradGradGradGradGradGrad

 Stoichiometry    C26H28F2N2NiO2(3)
 Framework group  C1[X(C26H28F2N2NiO2)]
 Deg. of freedom   177
 Full point group                 C1      NOp   1
 Largest Abelian subgroup         C1      NOp   1
 Largest concise Abelian subgroup C1      NOp   1
                         Standard orientation:                         
 ---------------------------------------------------------------------
 Center     Atomic      Atomic             Coordinates (Angstroms)
 Number     Number       Type             X           Y           Z
 ---------------------------------------------------------------------
      1          6           0        1.029711    5.181585    1.517019
      2          8           0        1.784197    4.011167    1.211186
      3          6           0        1.121437    2.906784    0.818226
      4          6           0       -0.277283    2.821906    0.697586
      5          6           0       -0.799282    1.619419    0.247912
      6          6           0       -2.226341    1.381531   -0.004368
      7          7           0       -2.625253    0.312094   -0.588761
      8          6           0       -4.093743    0.341232   -0.675241
      9          6           0       -4.754269   -0.925914   -0.068695
     10          6           0       -4.243772   -1.174536    1.361209
     11          6           0       -4.398695   -2.144316   -0.942747
     12          6           0       -6.279599   -0.720962   -0.087540
     13          6           0       -4.439266    1.688985    0.025723
     14          8           0       -3.146552    2.278654    0.375261
     15          7           0       -0.044769    0.542766   -0.040346
     16          6           0        1.285249    0.603965    0.111067
     17          6           0        2.039062   -0.695532   -0.121556
     18          6           0        2.321922   -1.322626    1.238335
     19          6           0        1.492417   -2.368052    1.664488
     20          6           0        1.671271   -2.938774    2.925246
     21          6           0        2.669569   -2.468068    3.778170
     22          6           0        3.479600   -1.406580    3.371034
     23          6           0        3.300679   -0.832322    2.113091
     24          6           0        3.179482   -0.508360   -1.115824
     25          6           0        2.813507   -0.097646   -2.408752
     26          6           0        3.787135    0.098074   -3.384006
     27          6           0        5.135897   -0.118444   -3.087829
     28          6           0        5.498946   -0.551662   -1.814649
     29          6           0        4.524651   -0.750044   -0.831804
     30          6           0        1.900947    1.785484    0.515377
     31          1           0        1.762359    5.936549    1.802248
     32          1           0        0.466331    5.527442    0.642394
     33          1           0        0.342541    5.001925    2.352135
     34          1           0       -0.939118    3.648343    0.917681
     35          1           0       -4.364140    0.384116   -1.737058
     36          1           0       -4.795994   -2.007655    1.810400
     37          1           0       -4.387093   -0.302743    2.012779
     38          1           0       -3.183345   -1.443252    1.338892
     39          1           0       -4.999458   -3.007350   -0.633293
     40          1           0       -3.347979   -2.417756   -0.818635
     41          1           0       -4.609566   -1.953069   -2.002436
     42          1           0       -6.779582   -1.625038    0.274932
     43          1           0       -6.643305   -0.525342   -1.104337
     44          1           0       -6.604156    0.107033    0.554444
     45          1           0       -4.995249    1.568846    0.956513
     46          1           0       -4.957849    2.396878   -0.622700
     47          1           0        1.323212   -1.360500   -0.614303
     48          1           0        0.673737   -2.697905    1.028659
     49          1           0        1.019401   -3.748316    3.241368
     50          1           0        2.808454   -2.914980    4.758794
     51          1           0        4.249126   -1.020567    4.034133
     52          1           0        3.926063    0.004652    1.818096
     53          1           0        1.757461    0.015815   -2.650098
     54          1           0        3.491148    0.406736   -4.382931
     55          1           0        5.894756    0.033549   -3.850608
     56          1           0        6.542415   -0.744989   -1.580535
     57          1           0        4.818533   -1.114842    0.145259
     58          1           0        2.979289    1.848067    0.595853
     59         28           0       -1.068343   -0.940671   -1.020614
     60          9           0       -1.377772   -2.346883    0.140779
     61          9           0       -0.442317   -0.585361   -2.701569
 ---------------------------------------------------------------------
 Rotational constants (GHZ):           0.1636776           0.0858988           0.0804071
 Basis read from rwf:  (6D, 7F)
 Pseudo-potential data read from rwf file.
 There are   613 symmetry adapted cartesian basis functions of A   symmetry.
 There are   610 symmetry adapted basis functions of A   symmetry.
   610 basis functions,  1162 primitive gaussians,   613 cartesian basis functions
   126 alpha electrons      124 beta electrons
       nuclear repulsion energy      3837.2354342714 Hartrees.
 NAtoms=   61 NActive=   61 NUniq=   61 SFac= 1.00D+00 NAtFMM=   60 NAOKFM=T Big=T
 Integral buffers will be    131072 words long.
 Raffenetti 2 integral format.
 Two-electron integral symmetry is turned on.
 Nuclear repulsion after empirical dispersion term =     3837.0846760857 Hartrees.
 One-electron integrals computed using PRISM.
 PrsmSu:  requested number of processors reduced to:  12 ShMem   1 Linda.
   1 Symmetry operations used in ECPInt.
 ECPInt:  NShTT=   21115 NPrTT=  128985 LenC2=   17080 LenP2D=   55968.
 LDataN:  DoStor=T MaxTD1= 6 Len=  172
 Number of processors reduced to  12 by ecpmxn.
 NBasis=   610 RedAO= T EigKep=  6.98D-06  NBF=   610
 NBsUse=   609 1.00D-06 EigRej=  9.91D-07 NBFU=   609
 Initial guess from the checkpoint file:  "Lig2126_xyz_2.chk"
 B after Tr=    -0.000000    0.000000    0.000000
         Rot=    0.999998    0.000848    0.001473    0.001069 Ang=   0.23 deg.
 Initial guess <Sx>= 0.0000 <Sy>= 0.0000 <Sz>= 1.0000 <S**2>= 2.0060 S= 1.0020
 ExpMin= 2.40D-02 ExpMax= 7.14D+04 ExpMxC= 1.07D+04 IAcc=3 IRadAn=         5 AccDes= 0.00D+00
 Harris functional with IExCor=  402 and IRadAn=       5 diagonalized for initial guess.
 HarFok:  IExCor=  402 AccDes= 0.00D+00 IRadAn=         5 IDoV= 1 UseB2=F ITyADJ=14
 ICtDFT=  3500011 ScaDFX=  1.000000  1.000000  1.000000  1.000000
 FoFCou: FMM=F IPFlag=           0 FMFlag=      100000 FMFlg1=        2001
         NFxFlg=           0 DoJE=T BraDBF=F KetDBF=T FulRan=T
         wScrn=  0.000000 ICntrl=       500 IOpCl=  0 I1Cent=   200000004 NGrid=           0
         NMat0=    1 NMatS0=      1 NMatT0=    0 NMatD0=    1 NMtDS0=    0 NMtDT0=    0
 Petite list used in FoFCou.
 Requested convergence on RMS density matrix=1.00D-08 within 128 cycles.
 Requested convergence on MAX density matrix=1.00D-06.
 Requested convergence on             energy=1.00D-06.
 No special actions if energy rises.
 Restarting incremental Fock formation.
 SCF Done:  E(UB3LYP) =  -1636.88162758     A.U. after   27 cycles
            NFock= 27  Conv=0.78D-08     -V/T= 2.0484
 <Sx>= 0.0000 <Sy>= 0.0000 <Sz>= 1.0000 <S**2>= 2.0060 S= 1.0020
 <L.S>=  0.00000000000    
 Annihilation of the first spin contaminant:
 S**2 before annihilation     2.0060,   after     2.0000
 PrsmSu:  requested number of processors reduced to:  12 ShMem   1 Linda.
   1 Symmetry operations used in ECPInt.
 ECPInt:  NShTT=   21115 NPrTT=  128985 LenC2=   17080 LenP2D=   55968.
 LDataN:  DoStor=T MaxTD1= 7 Len=  274
 Number of processors reduced to  13 by ecpmxn.
 Calling FoFJK, ICntrl=      2127 FMM=T ISym2X=0 I1Cent= 0 IOpClX= 1 NMat=1 NMatS=1 NMatT=0.
 ***** Axes restored to original set *****
 -------------------------------------------------------------------
 Center     Atomic                   Forces (Hartrees/Bohr)
 Number     Number              X              Y              Z
 -------------------------------------------------------------------
      1        6           0.000026994   -0.000108061   -0.000125621
      2        8          -0.000018220   -0.000297156   -0.000133457
      3        6          -0.000077773    0.000226080    0.000100025
      4        6           0.000041310   -0.000116358    0.000153363
      5        6          -0.000024654    0.000339628   -0.000490404
      6        6           0.000190828    0.000573589   -0.000080402
      7        7          -0.000035998   -0.000303111    0.000804724
      8        6          -0.000289908   -0.000247860   -0.000304810
      9        6           0.000034990   -0.000073730   -0.000040568
     10        6           0.000497046    0.000108131    0.000259911
     11        6          -0.000125054   -0.000274019    0.000013645
     12        6           0.000025366   -0.000129696    0.000049286
     13        6           0.000248006    0.000331675    0.000371096
     14        8           0.000145803   -0.000063274   -0.000335167
     15        7          -0.000234901   -0.000211949    0.000294095
     16        6           0.000344846    0.000103608   -0.000041178
     17        6          -0.000458677    0.000104208    0.000227459
     18        6           0.000036554    0.000056764   -0.000006357
     19        6           0.000000360    0.000085145   -0.000006456
     20        6          -0.000045476   -0.000077476   -0.000029089
     21        6           0.000010637    0.000045402    0.000042403
     22        6           0.000035577   -0.000015554    0.000032925
     23        6           0.000021401   -0.000078468   -0.000016141
     24        6           0.000023175   -0.000196221   -0.000521232
     25        6          -0.000082206    0.000155022    0.000091646
     26        6           0.000000054    0.000002218   -0.000037806
     27        6          -0.000012699   -0.000016678   -0.000042401
     28        6           0.000108999    0.000057074   -0.000034122
     29        6           0.000169270   -0.000086188    0.000107035
     30        6          -0.000119018    0.000066597   -0.000068977
     31        1           0.000029782   -0.000035864    0.000053758
     32        1          -0.000024645   -0.000056254   -0.000016770
     33        1          -0.000000974   -0.000044278   -0.000027325
     34        1          -0.000008711    0.000195916   -0.000023232
     35        1           0.000097083   -0.000036079   -0.000060514
     36        1          -0.000019648    0.000054200   -0.000209050
     37        1          -0.000084049   -0.000055080    0.000001772
     38        1          -0.000233230    0.000064324    0.000115975
     39        1           0.000021454   -0.000002809   -0.000018294
     40        1          -0.000062348    0.000144017   -0.000168565
     41        1          -0.000019675   -0.000003224   -0.000054579
     42        1          -0.000024935    0.000026220    0.000027738
     43        1          -0.000031949    0.000003973   -0.000028159
     44        1          -0.000015881   -0.000031676   -0.000128006
     45        1          -0.000115072    0.000038854    0.000015746
     46        1          -0.000100633   -0.000099100   -0.000006444
     47        1           0.000066869   -0.000025092   -0.000044412
     48        1          -0.000121164   -0.000063438   -0.000019683
     49        1           0.000037617   -0.000008148    0.000021619
     50        1           0.000015622    0.000026939   -0.000030631
     51        1          -0.000003281    0.000041507   -0.000004222
     52        1          -0.000207513   -0.000089039    0.000165767
     53        1           0.000181222   -0.000033213   -0.000002725
     54        1          -0.000001918   -0.000024127    0.000047567
     55        1          -0.000004146   -0.000054036    0.000018844
     56        1          -0.000024357   -0.000000226    0.000030644
     57        1           0.000075255    0.000142598   -0.000150524
     58        1           0.000086185   -0.000033290    0.000078342
     59       28          -0.000371650   -0.000368749    0.000847929
     60        9           0.000612039    0.000384790   -0.000489680
     61        9          -0.000183981   -0.000018958   -0.000176307
 -------------------------------------------------------------------
 Cartesian Forces:  Max     0.000847929 RMS     0.000184810

 GradGradGradGradGradGradGradGradGradGradGradGradGradGradGradGradGradGrad
 Berny optimization.
 Using GEDIIS/GDIIS optimizer.
 FormGI is forming the generalized inverse of G from B-inverse, IUseBI=4.
 Internal  Forces:  Max     0.000676099 RMS     0.000158869
 Search for a local minimum.
 Step number  15 out of a maximum of  362
 All quantities printed in internal units (Hartrees-Bohrs-Radians)
 Mixed Optimization -- En-DIIS/RFO-DIIS
 Swapping is turned off.
 Update second derivatives using D2CorX and points   10    9   11   12   13
                                                     14   15
 DE= -3.52D-05 DEPred=-4.65D-05 R= 7.57D-01
 TightC=F SS=  1.41D+00  RLast= 1.21D-01 DXNew= 1.6971D+00 3.6365D-01
 Trust test= 7.57D-01 RLast= 1.21D-01 DXMaxT set to 1.01D+00
 ITU=  1  0  1  1  1 -1  0  1 -1  1  0  1  1  1  0
     Eigenvalues ---    0.00203   0.00232   0.00238   0.00270   0.00365
     Eigenvalues ---    0.00704   0.01078   0.01144   0.01376   0.01455
     Eigenvalues ---    0.01526   0.01569   0.01815   0.01927   0.01974
     Eigenvalues ---    0.02041   0.02053   0.02067   0.02088   0.02097
     Eigenvalues ---    0.02102   0.02129   0.02133   0.02164   0.02169
     Eigenvalues ---    0.02187   0.02190   0.02190   0.02191   0.02192
     Eigenvalues ---    0.02193   0.02194   0.02197   0.02214   0.02283
     Eigenvalues ---    0.02326   0.02363   0.02450   0.03052   0.03422
     Eigenvalues ---    0.04284   0.04409   0.04524   0.04762   0.05027
     Eigenvalues ---    0.05200   0.05229   0.05231   0.05314   0.05384
     Eigenvalues ---    0.05536   0.05647   0.05791   0.05959   0.06183
     Eigenvalues ---    0.06467   0.06687   0.07071   0.08801   0.10107
     Eigenvalues ---    0.10151   0.10688   0.10781   0.11417   0.13545
     Eigenvalues ---    0.13924   0.14360   0.15141   0.15859   0.15922
     Eigenvalues ---    0.15977   0.15992   0.15997   0.15998   0.15998
     Eigenvalues ---    0.15999   0.15999   0.16000   0.16000   0.16000
     Eigenvalues ---    0.16000   0.16000   0.16003   0.16009   0.16013
     Eigenvalues ---    0.16026   0.16059   0.16073   0.16107   0.16185
     Eigenvalues ---    0.16408   0.16456   0.18704   0.19725   0.20129
     Eigenvalues ---    0.20340   0.21426   0.21647   0.21959   0.22000
     Eigenvalues ---    0.22072   0.22100   0.22236   0.23425   0.23557
     Eigenvalues ---    0.23597   0.23795   0.24519   0.24623   0.24912
     Eigenvalues ---    0.25030   0.25942   0.26458   0.27006   0.27417
     Eigenvalues ---    0.27706   0.27857   0.28134   0.28432   0.29421
     Eigenvalues ---    0.29546   0.30134   0.34387   0.34501   0.34627
     Eigenvalues ---    0.34656   0.34671   0.34683   0.34691   0.34708
     Eigenvalues ---    0.34733   0.34746   0.34805   0.34831   0.34886
     Eigenvalues ---    0.34916   0.35009   0.35153   0.35255   0.35580
     Eigenvalues ---    0.35868   0.35935   0.35949   0.35953   0.35955
     Eigenvalues ---    0.35967   0.35970   0.36001   0.36107   0.36256
     Eigenvalues ---    0.37067   0.37638   0.39743   0.40148   0.41494
     Eigenvalues ---    0.41935   0.42120   0.42211   0.42299   0.42888
     Eigenvalues ---    0.43652   0.45045   0.45508   0.45770   0.46059
     Eigenvalues ---    0.46239   0.46278   0.46413   0.46914   0.46953
     Eigenvalues ---    0.46988   0.47076   0.48595   0.50052   0.50783
     Eigenvalues ---    0.58131   0.68796
 En-DIIS/RFO-DIIS/Sim-DIIS IScMMF=       -3 using points:    15   14   13   12   11
 RFO step:  Lambda=-5.22764178D-05.
 DidBck=F Rises=F RFO-DIIS coefs:    1.22791    0.21362   -0.41992    0.01366   -0.03526
 Iteration  1 RMS(Cart)=  0.01262959 RMS(Int)=  0.00003426
 Iteration  2 RMS(Cart)=  0.00005433 RMS(Int)=  0.00001268
 Iteration  3 RMS(Cart)=  0.00000000 RMS(Int)=  0.00001268
 Variable       Old X    -DE/DX   Delta X   Delta X   Delta X     New X
                                 (Linear)    (Quad)   (Total)
    R1        2.69421   0.00014   0.00004   0.00017   0.00021   2.69442
    R2        2.05980  -0.00001   0.00001  -0.00002  -0.00001   2.05979
    R3        2.07180  -0.00004  -0.00001  -0.00007  -0.00008   2.07172
    R4        2.07173  -0.00002   0.00000  -0.00002  -0.00002   2.07171
    R5        2.54471   0.00058  -0.00018   0.00062   0.00044   2.54514
    R6        2.65786   0.00004  -0.00004  -0.00005  -0.00009   2.65777
    R7        2.64336  -0.00005   0.00017   0.00003   0.00020   2.64357
    R8        2.61894   0.00009  -0.00007   0.00023   0.00016   2.61910
    R9        2.04358  -0.00015   0.00007  -0.00022  -0.00015   2.04343
   R10        2.77522   0.00011   0.00015   0.00025   0.00040   2.77562
   R11        2.54346  -0.00024  -0.00012  -0.00051  -0.00062   2.54284
   R12        2.42323  -0.00038   0.00001  -0.00042  -0.00040   2.42283
   R13        2.53233   0.00002  -0.00005   0.00003   0.00001   2.53234
   R14        2.78040  -0.00046   0.00092  -0.00108  -0.00018   2.78022
   R15        3.86350   0.00011   0.00319   0.00017   0.00336   3.86686
   R16        2.93355  -0.00014  -0.00031  -0.00020  -0.00051   2.93304
   R17        2.94408  -0.00019  -0.00028  -0.00040  -0.00071   2.94337
   R18        2.07217   0.00005   0.00012   0.00007   0.00019   2.07236
   R19        2.90738  -0.00023   0.00057  -0.00076  -0.00019   2.90719
   R20        2.91220  -0.00005   0.00016  -0.00048  -0.00032   2.91189
   R21        2.90858  -0.00009   0.00011  -0.00008   0.00002   2.90860
   R22        2.07079  -0.00011   0.00011  -0.00027  -0.00016   2.07063
   R23        2.07449   0.00005  -0.00003   0.00002  -0.00001   2.07449
   R24        2.06768  -0.00001  -0.00003   0.00000  -0.00002   2.06766
   R25        2.07139  -0.00002  -0.00001   0.00000  -0.00001   2.07138
   R26        2.06506   0.00019  -0.00032   0.00051   0.00019   2.06525
   R27        2.07352  -0.00002  -0.00005  -0.00003  -0.00009   2.07344
   R28        2.06899   0.00005  -0.00003   0.00011   0.00008   2.06907
   R29        2.07391  -0.00003   0.00007  -0.00010  -0.00004   2.07387
   R30        2.07273  -0.00001   0.00008  -0.00005   0.00003   2.07275
   R31        2.76507   0.00022  -0.00002   0.00078   0.00075   2.76583
   R32        2.06138   0.00006   0.00019   0.00000   0.00020   2.06157
   R33        2.06188  -0.00009  -0.00010  -0.00015  -0.00025   2.06162
   R34        2.53225   0.00030   0.00034   0.00027   0.00061   2.53286
   R35        3.87703   0.00014  -0.00334   0.00016  -0.00317   3.87386
   R36        2.87278   0.00013  -0.00023  -0.00002  -0.00025   2.87254
   R37        2.63109   0.00008  -0.00014   0.00008  -0.00007   2.63102
   R38        2.87993   0.00026   0.00032   0.00044   0.00077   2.88070
   R39        2.88092   0.00057  -0.00064   0.00087   0.00023   2.88115
   R40        2.06787  -0.00004   0.00021  -0.00011   0.00009   2.06796
   R41        2.64737   0.00011   0.00005   0.00012   0.00017   2.64755
   R42        2.64802   0.00015  -0.00006   0.00010   0.00004   2.64806
   R43        2.63698  -0.00000   0.00008  -0.00008  -0.00000   2.63698
   R44        2.05565  -0.00011   0.00035  -0.00034   0.00001   2.05566
   R45        2.63591  -0.00013   0.00007  -0.00020  -0.00013   2.63578
   R46        2.05296  -0.00001   0.00002  -0.00002   0.00000   2.05296
   R47        2.63796  -0.00008   0.00008  -0.00011  -0.00003   2.63793
   R48        2.05333  -0.00002   0.00002  -0.00005  -0.00003   2.05330
   R49        2.63494  -0.00003  -0.00001  -0.00002  -0.00003   2.63490
   R50        2.05353  -0.00002   0.00001  -0.00004  -0.00004   2.05349
   R51        2.05160  -0.00019   0.00018  -0.00033  -0.00015   2.05144
   R52        2.65524   0.00017  -0.00016   0.00008  -0.00008   2.65516
   R53        2.63788  -0.00003   0.00022  -0.00014   0.00008   2.63796
   R54        2.63030  -0.00002   0.00005   0.00003   0.00008   2.63038
   R55        2.05829   0.00008  -0.00014   0.00017   0.00003   2.05831
   R56        2.64140  -0.00006  -0.00006  -0.00007  -0.00013   2.64127
   R57        2.05340  -0.00001   0.00000  -0.00002  -0.00002   2.05339
   R58        2.63240  -0.00010   0.00012  -0.00003   0.00008   2.63249
   R59        2.05346  -0.00004   0.00002  -0.00007  -0.00005   2.05342
   R60        2.64196   0.00005  -0.00017   0.00002  -0.00015   2.64181
   R61        2.05365  -0.00001  -0.00000  -0.00003  -0.00003   2.05362
   R62        2.04763  -0.00011   0.00005  -0.00003   0.00002   2.04765
   R63        2.04686  -0.00009   0.00011  -0.00016  -0.00005   2.04681
   R64        3.49574  -0.00067   0.00117  -0.00284  -0.00167   3.49407
   R65        3.45555  -0.00004  -0.00010   0.00005  -0.00005   3.45549
    A1        1.84318   0.00008  -0.00006   0.00020   0.00014   1.84332
    A2        1.93883   0.00004  -0.00008   0.00013   0.00005   1.93888
    A3        1.93968   0.00002  -0.00001   0.00008   0.00007   1.93975
    A4        1.91310  -0.00007   0.00012  -0.00022  -0.00010   1.91300
    A5        1.91291  -0.00007  -0.00001  -0.00024  -0.00025   1.91266
    A6        1.91484  -0.00001   0.00004   0.00005   0.00008   1.91492
    A7        2.06623   0.00058  -0.00008   0.00101   0.00093   2.06716
    A8        2.17000   0.00039  -0.00027   0.00086   0.00059   2.17059
    A9        2.03346  -0.00017  -0.00009  -0.00038  -0.00047   2.03299
   A10        2.07973  -0.00023   0.00036  -0.00048  -0.00012   2.07961
   A11        2.04291   0.00004  -0.00006  -0.00008  -0.00014   2.04277
   A12        2.14725   0.00009  -0.00035   0.00041   0.00006   2.14731
   A13        2.09279  -0.00013   0.00043  -0.00034   0.00009   2.09288
   A14        2.16795  -0.00036   0.00113  -0.00068   0.00046   2.16841
   A15        2.15605   0.00025  -0.00042   0.00068   0.00026   2.15631
   A16        1.95883   0.00011  -0.00071   0.00003  -0.00070   1.95813
   A17        2.11259   0.00022  -0.00057   0.00033  -0.00026   2.11233
   A18        2.10618  -0.00020   0.00030  -0.00020   0.00015   2.10633
   A19        2.06441  -0.00003   0.00027  -0.00013   0.00011   2.06452
   A20        1.89733   0.00011  -0.00040   0.00020  -0.00026   1.89706
   A21        1.95023  -0.00024  -0.00031  -0.00035  -0.00068   1.94955
   A22        2.43376   0.00013   0.00083   0.00047   0.00134   2.43510
   A23        1.96660  -0.00001   0.00148  -0.00073   0.00078   1.96737
   A24        1.78446   0.00017  -0.00005   0.00049   0.00037   1.78483
   A25        1.87948  -0.00009  -0.00075  -0.00055  -0.00128   1.87820
   A26        2.02192  -0.00014  -0.00053   0.00041  -0.00008   2.02183
   A27        1.88110   0.00011  -0.00005   0.00034   0.00027   1.88137
   A28        1.92534  -0.00004  -0.00012  -0.00006  -0.00017   1.92517
   A29        1.93249   0.00023  -0.00027   0.00112   0.00085   1.93334
   A30        1.90241  -0.00003   0.00016  -0.00032  -0.00016   1.90225
   A31        1.88409  -0.00016  -0.00045  -0.00013  -0.00057   1.88352
   A32        1.89949  -0.00016   0.00112  -0.00120  -0.00009   1.89940
   A33        1.94092  -0.00012   0.00002  -0.00072  -0.00070   1.94021
   A34        1.90392   0.00024  -0.00060   0.00128   0.00069   1.90460
   A35        1.91412  -0.00001   0.00017  -0.00030  -0.00013   1.91399
   A36        1.96057   0.00012  -0.00078   0.00114   0.00037   1.96094
   A37        1.92017   0.00020  -0.00024   0.00078   0.00054   1.92071
   A38        1.86991  -0.00002  -0.00047   0.00021  -0.00026   1.86965
   A39        1.88603  -0.00022   0.00149  -0.00194  -0.00045   1.88558
   A40        1.91099  -0.00009  -0.00008  -0.00003  -0.00012   1.91087
   A41        1.91337  -0.00002   0.00004  -0.00010  -0.00006   1.91331
   A42        1.93399   0.00018  -0.00003   0.00106   0.00103   1.93502
   A43        1.94508  -0.00001  -0.00003  -0.00040  -0.00043   1.94465
   A44        1.87329  -0.00006  -0.00018   0.00006  -0.00012   1.87317
   A45        1.88026   0.00000   0.00001  -0.00003  -0.00002   1.88025
   A46        1.91567  -0.00010   0.00018  -0.00060  -0.00042   1.91525
   A47        1.91618   0.00005  -0.00028   0.00038   0.00010   1.91628
   A48        1.94283  -0.00001   0.00013  -0.00017  -0.00004   1.94279
   A49        1.96774  -0.00018   0.00037  -0.00076  -0.00039   1.96735
   A50        1.87819   0.00000  -0.00009   0.00010   0.00002   1.87821
   A51        1.86967   0.00007  -0.00009   0.00029   0.00019   1.86987
   A52        1.88563   0.00008  -0.00006   0.00020   0.00014   1.88577
   A53        1.83399  -0.00021   0.00010  -0.00053  -0.00054   1.83345
   A54        1.98415  -0.00005  -0.00082  -0.00004  -0.00085   1.98330
   A55        1.98153   0.00015   0.00058   0.00070   0.00130   1.98283
   A56        1.86591   0.00012  -0.00013  -0.00014  -0.00023   1.86568
   A57        1.87592   0.00001   0.00043  -0.00030   0.00016   1.87608
   A58        1.91378  -0.00002  -0.00010   0.00020   0.00009   1.91387
   A59        1.84337  -0.00004  -0.00016  -0.00006  -0.00031   1.84306
   A60        2.08940  -0.00025   0.00067  -0.00051   0.00014   2.08955
   A61        1.98344  -0.00023   0.00149  -0.00031   0.00115   1.98459
   A62        2.19223   0.00046  -0.00284   0.00018  -0.00266   2.18956
   A63        2.02176   0.00066   0.00002   0.00098   0.00100   2.02276
   A64        2.10654  -0.00002  -0.00045  -0.00003  -0.00049   2.10606
   A65        2.15383  -0.00064   0.00032  -0.00080  -0.00049   2.15334
   A66        1.88308   0.00007  -0.00215   0.00175  -0.00040   1.88268
   A67        1.94527  -0.00068   0.00192  -0.00293  -0.00102   1.94424
   A68        1.83794   0.00018   0.00117  -0.00010   0.00106   1.83900
   A69        2.08706   0.00062  -0.00129   0.00101  -0.00028   2.08678
   A70        1.84749  -0.00015  -0.00015   0.00033   0.00018   1.84768
   A71        1.84449  -0.00005   0.00086  -0.00008   0.00078   1.84527
   A72        2.05850  -0.00007   0.00044  -0.00027   0.00017   2.05867
   A73        2.14445   0.00028  -0.00089   0.00076  -0.00013   2.14432
   A74        2.07692  -0.00021   0.00050  -0.00050  -0.00000   2.07692
   A75        2.09919   0.00009  -0.00045   0.00037  -0.00008   2.09911
   A76        2.08759   0.00005   0.00019   0.00002   0.00021   2.08780
   A77        2.09502  -0.00014   0.00034  -0.00045  -0.00011   2.09491
   A78        2.10154   0.00003   0.00009  -0.00003   0.00007   2.10161
   A79        2.08377  -0.00004   0.00009  -0.00007   0.00002   2.08379
   A80        2.09784   0.00001  -0.00018   0.00010  -0.00008   2.09775
   A81        2.08698  -0.00003   0.00017  -0.00015   0.00002   2.08700
   A82        2.09964   0.00003  -0.00014   0.00011  -0.00003   2.09961
   A83        2.09648   0.00000  -0.00003   0.00004   0.00001   2.09649
   A84        2.09652   0.00006  -0.00014   0.00016   0.00002   2.09653
   A85        2.09793  -0.00003  -0.00001  -0.00007  -0.00008   2.09785
   A86        2.08873  -0.00003   0.00016  -0.00010   0.00006   2.08879
   A87        2.10449   0.00005  -0.00014   0.00013  -0.00002   2.10447
   A88        2.09726   0.00015  -0.00049   0.00065   0.00016   2.09742
   A89        2.08143  -0.00020   0.00063  -0.00078  -0.00015   2.08128
   A90        2.02770  -0.00045   0.00106  -0.00083   0.00023   2.02793
   A91        2.17354   0.00061  -0.00119   0.00093  -0.00026   2.17328
   A92        2.08154  -0.00016   0.00005  -0.00005  -0.00001   2.08154
   A93        2.09860   0.00007  -0.00003   0.00003  -0.00000   2.09860
   A94        2.07931   0.00010  -0.00031   0.00055   0.00024   2.07955
   A95        2.10401  -0.00016   0.00024  -0.00044  -0.00020   2.10381
   A96        2.09986   0.00003  -0.00004   0.00003  -0.00001   2.09985
   A97        2.08693  -0.00006   0.00017  -0.00025  -0.00008   2.08685
   A98        2.09629   0.00004  -0.00013   0.00023   0.00010   2.09639
   A99        2.08670  -0.00005   0.00011  -0.00011   0.00000   2.08670
   A100       2.09839   0.00004  -0.00009   0.00010   0.00000   2.09840
   A101       2.09794   0.00002  -0.00003   0.00002  -0.00001   2.09794
   A102       2.10022   0.00007  -0.00010   0.00012   0.00002   2.10024
   A103       2.09724   0.00000  -0.00011   0.00009  -0.00002   2.09723
   A104       2.08570  -0.00007   0.00021  -0.00021   0.00000   2.08570
   A105       2.09896   0.00005  -0.00000  -0.00002  -0.00002   2.09895
   A106       2.09800   0.00015  -0.00043   0.00044   0.00001   2.09801
   A107       2.08596  -0.00019   0.00046  -0.00043   0.00002   2.08598
   A108       2.09058   0.00021  -0.00015   0.00050   0.00035   2.09093
   A109       2.08563  -0.00017   0.00011  -0.00063  -0.00053   2.08510
   A110       2.10698  -0.00003   0.00005   0.00013   0.00017   2.10715
   A111       1.40600   0.00013  -0.00072   0.00002  -0.00073   1.40527
   A112       1.77808   0.00040  -0.00037   0.00476   0.00438   1.78246
   A113       1.91327   0.00009   0.00067   0.00236   0.00303   1.91630
   A114       1.91041   0.00031   0.00815   0.00175   0.00990   1.92031
   A115       1.69907  -0.00022  -0.00408   0.00117  -0.00290   1.69617
   A116       2.46884  -0.00045  -0.00225  -0.00703  -0.00929   2.45955
    D1       -3.13739   0.00001   0.00140   0.00096   0.00236  -3.13503
    D2       -1.06454  -0.00000   0.00147   0.00088   0.00235  -1.06219
    D3        1.07272   0.00003   0.00145   0.00108   0.00254   1.07525
    D4       -0.00976   0.00002  -0.00068   0.00046  -0.00022  -0.00998
    D5        3.13082  -0.00002  -0.00015  -0.00065  -0.00080   3.13002
    D6        3.11445   0.00004  -0.00109   0.00057  -0.00053   3.11392
    D7       -0.00391   0.00003  -0.00194   0.00098  -0.00095  -0.00486
    D8       -0.02611   0.00007  -0.00163   0.00171   0.00007  -0.02604
    D9        3.13872   0.00007  -0.00248   0.00212  -0.00035   3.13837
   D10        3.13378   0.00000   0.00086  -0.00049   0.00036   3.13415
   D11       -0.01078  -0.00005   0.00180  -0.00239  -0.00059  -0.01137
   D12       -0.00877  -0.00003   0.00136  -0.00154  -0.00019  -0.00895
   D13        3.12986  -0.00008   0.00229  -0.00344  -0.00114   3.12871
   D14       -3.08182  -0.00004   0.00038  -0.00077  -0.00037  -3.08219
   D15        0.02909  -0.00002   0.00007   0.00026   0.00034   0.02944
   D16        0.03730  -0.00003   0.00118  -0.00116   0.00003   0.03734
   D17       -3.13497  -0.00001   0.00088  -0.00012   0.00075  -3.13422
   D18        2.97508   0.00007  -0.00401   0.00333  -0.00068   2.97440
   D19       -0.16964   0.00005  -0.00415   0.00263  -0.00152  -0.17115
   D20       -0.13889   0.00005  -0.00374   0.00238  -0.00134  -0.14023
   D21        2.99959   0.00003  -0.00388   0.00169  -0.00217   2.99741
   D22        0.00531  -0.00007   0.00182  -0.00245  -0.00064   0.00467
   D23       -2.94422  -0.00003   0.00582   0.00088   0.00673  -2.93750
   D24        3.11949  -0.00007   0.00157  -0.00154   0.00002   3.11951
   D25        0.16996  -0.00002   0.00557   0.00179   0.00738   0.17735
   D26        3.12073  -0.00001   0.00180  -0.00086   0.00093   3.12167
   D27        0.03166  -0.00010   0.00013  -0.00525  -0.00511   0.02655
   D28       -0.01781   0.00001   0.00193  -0.00018   0.00175  -0.01606
   D29       -3.10689  -0.00008   0.00026  -0.00457  -0.00430  -3.11118
   D30       -3.09623   0.00001   0.00594   0.00124   0.00718  -3.08905
   D31        0.04233  -0.00000   0.00581   0.00057   0.00636   0.04869
   D32       -2.19587   0.00005  -0.00831  -0.00070  -0.00901  -2.20487
   D33       -0.01349  -0.00002  -0.00816  -0.00027  -0.00843  -0.02192
   D34        2.01519  -0.00002  -0.00863  -0.00033  -0.00897   2.00622
   D35        0.87066   0.00017  -0.00601   0.00553  -0.00048   0.87017
   D36        3.05303   0.00009  -0.00586   0.00595   0.00009   3.05313
   D37       -1.20147   0.00009  -0.00633   0.00589  -0.00044  -1.20191
   D38        0.04875   0.00007   0.00221   0.00459   0.00679   0.05553
   D39        1.93485   0.00037   0.01050   0.00589   0.01638   1.95123
   D40       -1.60052   0.00026   0.00691   0.00365   0.01057  -1.58995
   D41       -3.01630  -0.00006  -0.00014  -0.00178  -0.00192  -3.01822
   D42       -1.13020   0.00024   0.00815  -0.00048   0.00768  -1.12252
   D43        1.61762   0.00014   0.00457  -0.00271   0.00186   1.61949
   D44        0.91619   0.00011   0.00075   0.00148   0.00220   0.91839
   D45       -1.17279   0.00018  -0.00056   0.00248   0.00189  -1.17090
   D46        3.04454   0.00000   0.00031   0.00120   0.00149   3.04602
   D47       -1.13010  -0.00000   0.00007   0.00109   0.00119  -1.12892
   D48        3.06410   0.00007  -0.00124   0.00209   0.00088   3.06498
   D49        0.99825  -0.00011  -0.00036   0.00081   0.00047   0.99872
   D50        2.98737   0.00006   0.00066   0.00060   0.00125   2.98863
   D51        0.89839   0.00014  -0.00065   0.00160   0.00095   0.89934
   D52       -1.16746  -0.00004   0.00022   0.00032   0.00054  -1.16693
   D53        0.03584   0.00001   0.01106   0.00056   0.01162   0.04745
   D54       -1.99848   0.00003   0.01159   0.00108   0.01267  -1.98581
   D55        2.08091  -0.00003   0.01194   0.00024   0.01216   2.09307
   D56        2.18122   0.00003   0.01256   0.00024   0.01280   2.19402
   D57        0.14690   0.00005   0.01309   0.00075   0.01386   0.16075
   D58       -2.05690  -0.00001   0.01345  -0.00009   0.01335  -2.04355
   D59       -1.95940   0.00005   0.01199   0.00096   0.01296  -1.94643
   D60        2.28947   0.00006   0.01252   0.00148   0.01402   2.30349
   D61        0.08567   0.00000   0.01288   0.00063   0.01351   0.09918
   D62        3.03868   0.00002   0.00309  -0.00166   0.00142   3.04011
   D63        0.96133  -0.00002   0.00406  -0.00245   0.00161   0.96294
   D64       -1.17229  -0.00013   0.00487  -0.00376   0.00112  -1.17118
   D65       -1.15377   0.00002   0.00382  -0.00214   0.00169  -1.15208
   D66        3.05206  -0.00002   0.00479  -0.00292   0.00187   3.05393
   D67        0.91844  -0.00014   0.00561  -0.00423   0.00138   0.91982
   D68        0.94400   0.00014   0.00382  -0.00177   0.00204   0.94604
   D69       -1.13335   0.00010   0.00479  -0.00256   0.00223  -1.13113
   D70        3.01621  -0.00001   0.00560  -0.00387   0.00174   3.01794
   D71       -2.96566   0.00010  -0.00337   0.00330  -0.00007  -2.96572
   D72        1.25302   0.00008  -0.00316   0.00265  -0.00051   1.25251
   D73       -0.88567   0.00008  -0.00334   0.00295  -0.00039  -0.88606
   D74        1.20821  -0.00007  -0.00381   0.00287  -0.00095   1.20727
   D75       -0.85629  -0.00009  -0.00360   0.00221  -0.00139  -0.85768
   D76       -2.99498  -0.00008  -0.00378   0.00251  -0.00127  -2.99626
   D77       -0.91229   0.00003  -0.00415   0.00370  -0.00045  -0.91274
   D78       -2.97679   0.00000  -0.00395   0.00305  -0.00090  -2.97769
   D79        1.16770   0.00001  -0.00413   0.00335  -0.00078   1.16692
   D80        3.07824  -0.00002   0.00016   0.00259   0.00275   3.08100
   D81        1.00043  -0.00005   0.00037   0.00232   0.00269   1.00312
   D82       -1.12190  -0.00001   0.00009   0.00273   0.00282  -1.11909
   D83       -1.08180   0.00009  -0.00046   0.00345   0.00299  -1.07881
   D84        3.12357   0.00006  -0.00025   0.00318   0.00293   3.12650
   D85        1.00124   0.00009  -0.00053   0.00359   0.00306   1.00430
   D86        1.01335  -0.00002   0.00055   0.00234   0.00289   1.01624
   D87       -1.06447  -0.00005   0.00076   0.00206   0.00283  -1.06164
   D88        3.09639  -0.00002   0.00048   0.00247   0.00295   3.09934
   D89       -0.04556  -0.00000  -0.01030  -0.00066  -0.01094  -0.05650
   D90        2.06824  -0.00011  -0.01127  -0.00105  -0.01232   2.05592
   D91       -2.16135  -0.00007  -0.01124  -0.00104  -0.01226  -2.17360
   D92        3.05131   0.00013  -0.00477   0.00582   0.00105   3.05236
   D93       -0.04259   0.00012  -0.00209   0.00260   0.00051  -0.04208
   D94       -0.30705  -0.00002  -0.00875   0.00200  -0.00674  -0.31379
   D95        2.88224  -0.00002  -0.00607  -0.00122  -0.00728   2.87496
   D96       -0.12588  -0.00002  -0.00445  -0.00345  -0.00791  -0.13379
   D97       -1.85991  -0.00045  -0.00293  -0.00834  -0.01127  -1.87118
   D98        1.77255   0.00011  -0.00331  -0.00120  -0.00450   1.76805
   D99       -3.06212   0.00012  -0.00063   0.00020  -0.00045  -3.06258
   D100       1.48703  -0.00031   0.00089  -0.00469  -0.00381   1.48322
   D101      -1.16369   0.00025   0.00051   0.00245   0.00296  -1.16074
   D102      -1.72595   0.00016   0.00659   0.00158   0.00817  -1.71778
   D103       2.23290  -0.00018   0.00859   0.00112   0.00971   2.24261
   D104       0.24112   0.00010   0.00604   0.00266   0.00870   0.24982
   D105       1.36652   0.00018   0.00381   0.00492   0.00872   1.37524
   D106      -0.95782  -0.00016   0.00581   0.00446   0.01026  -0.94756
   D107      -2.94961   0.00012   0.00326   0.00600   0.00925  -2.94035
   D108       0.04429  -0.00007   0.00051  -0.00062  -0.00011   0.04418
   D109      -3.09430  -0.00001  -0.00044   0.00130   0.00086  -3.09344
   D110      -3.04588  -0.00011   0.00341  -0.00414  -0.00073  -3.04661
   D111       0.09872  -0.00005   0.00246  -0.00222   0.00024   0.09896
   D112       1.75475   0.00023  -0.00013   0.00657   0.00644   1.76119
   D113      -1.29845   0.00029  -0.00081   0.00679   0.00597  -1.29247
   D114      -2.28223  -0.00014  -0.00063   0.00495   0.00433  -2.27790
   D115       0.94777  -0.00007  -0.00131   0.00517   0.00386   0.95163
   D116      -0.20589   0.00006  -0.00044   0.00576   0.00532  -0.20057
   D117       3.02410   0.00013  -0.00112   0.00598   0.00485   3.02895
   D118      -1.07195   0.00007  -0.00183   0.00230   0.00047  -1.07148
   D119       2.10042   0.00006   0.00177   0.00020   0.00196   2.10238
   D120       2.99361   0.00008   0.00060   0.00174   0.00235   2.99596
   D121      -0.11720   0.00007   0.00420  -0.00036   0.00384  -0.11336
   D122       0.91575  -0.00007   0.00093   0.00073   0.00166   0.91741
   D123      -2.19506  -0.00008   0.00453  -0.00138   0.00315  -2.19191
   D124      -3.09337   0.00003   0.00004  -0.00001   0.00003  -3.09334
   D125      -0.00813   0.00001   0.00171  -0.00135   0.00036  -0.00777
   D126      -0.03666  -0.00001   0.00063  -0.00016   0.00047  -0.03619
   D127       3.04858  -0.00003   0.00230  -0.00150   0.00080   3.04938
   D128       3.09195  -0.00003  -0.00022   0.00055   0.00033   3.09228
   D129      -0.04461   0.00001  -0.00083   0.00126   0.00042  -0.04419
   D130       0.03964   0.00003  -0.00091   0.00076  -0.00015   0.03949
   D131      -3.09692   0.00007  -0.00152   0.00147  -0.00006  -3.09697
   D132       0.00907  -0.00002   0.00010  -0.00064  -0.00054   0.00853
   D133       3.14092  -0.00002   0.00076  -0.00089  -0.00013   3.14079
   D134      -3.07593  -0.00000  -0.00157   0.00068  -0.00089  -3.07682
   D135       0.05592  -0.00000  -0.00091   0.00044  -0.00047   0.05544
   D136       0.01610   0.00003  -0.00057   0.00086   0.00029   0.01639
   D137      -3.13964   0.00002  -0.00011   0.00057   0.00046  -3.13918
   D138      -3.11567   0.00003  -0.00123   0.00110  -0.00013  -3.11579
   D139       0.01178   0.00002  -0.00077   0.00082   0.00005   0.01182
   D140      -0.01319  -0.00001   0.00028  -0.00025   0.00003  -0.01317
   D141       3.12320  -0.00002   0.00036  -0.00031   0.00004   3.12324
   D142      -3.14066  -0.00000  -0.00018   0.00003  -0.00015  -3.14081
   D143      -0.00427  -0.00001  -0.00010  -0.00003  -0.00013  -0.00440
   D144      -0.01491  -0.00002   0.00047  -0.00057  -0.00010  -0.01500
   D145       3.12170  -0.00006   0.00108  -0.00126  -0.00019   3.12151
   D146       3.13186  -0.00001   0.00040  -0.00051  -0.00011   3.13175
   D147      -0.01472  -0.00006   0.00100  -0.00120  -0.00020  -0.01493
   D148      -3.14080  -0.00005   0.00300  -0.00228   0.00072  -3.14008
   D149      -0.05289   0.00002   0.00081   0.00078   0.00159  -0.05129
   D150      -0.02827  -0.00003  -0.00041  -0.00028  -0.00069  -0.02896
   D151       3.05964   0.00005  -0.00260   0.00278   0.00018   3.05982
   D152       3.13855   0.00002  -0.00301   0.00203  -0.00098   3.13757
   D153       0.02179   0.00006  -0.00411   0.00261  -0.00150   0.02029
   D154       0.02862   0.00001   0.00068  -0.00012   0.00055   0.02917
   D155      -3.08814   0.00005  -0.00042   0.00045   0.00003  -3.08811
   D156       0.00552   0.00002  -0.00007   0.00033   0.00026   0.00577
   D157       3.13161   0.00004  -0.00037   0.00105   0.00067   3.13228
   D158      -3.08163  -0.00007   0.00217  -0.00281  -0.00064  -3.08227
   D159       0.04446  -0.00004   0.00186  -0.00209  -0.00022   0.04423
   D160       0.01704   0.00001   0.00029   0.00002   0.00032   0.01735
   D161       3.14023   0.00001  -0.00023   0.00048   0.00025   3.14048
   D162      -3.10897  -0.00001   0.00060  -0.00070  -0.00010  -3.10907
   D163       0.01422  -0.00001   0.00007  -0.00024  -0.00017   0.01405
   D164      -0.01670  -0.00003  -0.00003  -0.00042  -0.00045  -0.01715
   D165       3.11706  -0.00002  -0.00001  -0.00016  -0.00017   3.11689
   D166      -3.13990  -0.00003   0.00050  -0.00088  -0.00038  -3.14028
   D167      -0.00614  -0.00003   0.00051  -0.00062  -0.00010  -0.00624
   D168      -0.00627   0.00001  -0.00046   0.00047   0.00002  -0.00625
   D169       3.11067  -0.00002   0.00062  -0.00008   0.00053   3.11120
   D170      -3.14007   0.00001  -0.00047   0.00021  -0.00027  -3.14034
   D171      -0.02314  -0.00003   0.00060  -0.00035   0.00025  -0.02288
         Item               Value     Threshold  Converged?
 Maximum Force            0.000676     0.000450     NO 
 RMS     Force            0.000159     0.000300     YES
 Maximum Displacement     0.057362     0.001800     NO 
 RMS     Displacement     0.012626     0.001200     NO 
 Predicted change in Energy=-2.541697D-05
 GradGradGradGradGradGradGradGradGradGradGradGradGradGradGradGradGradGrad

 Stoichiometry    C26H28F2N2NiO2(3)
 Framework group  C1[X(C26H28F2N2NiO2)]
 Deg. of freedom   177
 Full point group                 C1      NOp   1
 Largest Abelian subgroup         C1      NOp   1
 Largest concise Abelian subgroup C1      NOp   1
                         Standard orientation:                         
 ---------------------------------------------------------------------
 Center     Atomic      Atomic             Coordinates (Angstroms)
 Number     Number       Type             X           Y           Z
 ---------------------------------------------------------------------
      1          6           0        1.044681    5.173114    1.544590
      2          8           0        1.794253    4.001210    1.231916
      3          6           0        1.127628    2.900504    0.834410
      4          6           0       -0.271388    2.819489    0.715074
      5          6           0       -0.796563    1.620496    0.259540
      6          6           0       -2.224557    1.386253    0.007913
      7          7           0       -2.625562    0.321088   -0.582353
      8          6           0       -4.093961    0.353552   -0.667586
      9          6           0       -4.756923   -0.920857   -0.079898
     10          6           0       -4.249843   -1.191038    1.347199
     11          6           0       -4.401715   -2.127068   -0.970552
     12          6           0       -6.281818   -0.712522   -0.097728
     13          6           0       -4.437643    1.691257    0.052438
     14          8           0       -3.143082    2.281842    0.395192
     15          7           0       -0.045237    0.543745   -0.035069
     16          6           0        1.285482    0.600863    0.114622
     17          6           0        2.037042   -0.698214   -0.126631
     18          6           0        2.310331   -1.339232    1.229174
     19          6           0        1.480498   -2.391720    1.637228
     20          6           0        1.650632   -2.975203    2.893340
     21          6           0        2.640633   -2.510999    3.759285
     22          6           0        3.450927   -1.442988    3.370182
     23          6           0        3.280560   -0.855660    2.117115
     24          6           0        3.184620   -0.502325   -1.111121
     25          6           0        2.828610   -0.075658   -2.401616
     26          6           0        3.809385    0.128052   -3.368094
     27          6           0        5.155340   -0.096518   -3.065547
     28          6           0        5.508419   -0.546134   -1.795203
     29          6           0        4.527032   -0.752424   -0.821195
     30          6           0        1.904103    1.778923    0.524403
     31          1           0        1.780707    5.924688    1.830047
     32          1           0        0.479481    5.524044    0.673219
     33          1           0        0.359889    4.992847    2.381510
     34          1           0       -0.931072    3.646026    0.940782
     35          1           0       -4.363517    0.412505   -1.728950
     36          1           0       -4.803327   -2.030617    1.782387
     37          1           0       -4.394491   -0.329366    2.011804
     38          1           0       -3.189518   -1.460020    1.323871
     39          1           0       -5.003981   -2.993609   -0.674108
     40          1           0       -3.351427   -2.404128   -0.850003
     41          1           0       -4.611380   -1.920262   -2.027508
     42          1           0       -6.784121   -1.619640    0.253911
     43          1           0       -6.644148   -0.504439   -1.112520
     44          1           0       -6.604830    0.108853    0.553497
     45          1           0       -4.982525    1.556959    0.987966
     46          1           0       -4.966314    2.405069   -0.580951
     47          1           0        1.323146   -1.356979   -0.630530
     48          1           0        0.668356   -2.717642    0.991065
     49          1           0        0.998644   -3.789967    3.195492
     50          1           0        2.772944   -2.968181    4.736057
     51          1           0        4.213967   -1.062140    4.043648
     52          1           0        3.905864   -0.013810    1.836475
     53          1           0        1.774649    0.044857   -2.648653
     54          1           0        3.521034    0.449695   -4.365144
     55          1           0        5.919777    0.061940   -3.821373
     56          1           0        6.549622   -0.745900   -1.556530
     57          1           0        4.813195   -1.129381    0.153556
     58          1           0        2.982683    1.839341    0.602962
     59         28           0       -1.067554   -0.926788   -1.032429
     60          9           0       -1.378233   -2.358503    0.095582
     61          9           0       -0.435618   -0.549562   -2.706352
 ---------------------------------------------------------------------
 Rotational constants (GHZ):           0.1637259           0.0859535           0.0803240
 Basis read from rwf:  (6D, 7F)
 Pseudo-potential data read from rwf file.
 There are   613 symmetry adapted cartesian basis functions of A   symmetry.
 There are   610 symmetry adapted basis functions of A   symmetry.
   610 basis functions,  1162 primitive gaussians,   613 cartesian basis functions
   126 alpha electrons      124 beta electrons
       nuclear repulsion energy      3836.9332175123 Hartrees.
 NAtoms=   61 NActive=   61 NUniq=   61 SFac= 1.00D+00 NAtFMM=   60 NAOKFM=T Big=T
 Integral buffers will be    131072 words long.
 Raffenetti 2 integral format.
 Two-electron integral symmetry is turned on.
 Nuclear repulsion after empirical dispersion term =     3836.7824954476 Hartrees.
 One-electron integrals computed using PRISM.
 PrsmSu:  requested number of processors reduced to:  12 ShMem   1 Linda.
   1 Symmetry operations used in ECPInt.
 ECPInt:  NShTT=   21115 NPrTT=  128985 LenC2=   17085 LenP2D=   55969.
 LDataN:  DoStor=T MaxTD1= 6 Len=  172
 Number of processors reduced to  12 by ecpmxn.
 NBasis=   610 RedAO= T EigKep=  6.98D-06  NBF=   610
 NBsUse=   609 1.00D-06 EigRej=  9.91D-07 NBFU=   609
 Initial guess from the checkpoint file:  "Lig2126_xyz_2.chk"
 B after Tr=    -0.000000    0.000000    0.000000
         Rot=    0.999989   -0.004489    0.001157    0.000915 Ang=  -0.54 deg.
 Initial guess <Sx>= 0.0000 <Sy>= 0.0000 <Sz>= 1.0000 <S**2>= 2.0060 S= 1.0020
 ExpMin= 2.40D-02 ExpMax= 7.14D+04 ExpMxC= 1.07D+04 IAcc=3 IRadAn=         5 AccDes= 0.00D+00
 Harris functional with IExCor=  402 and IRadAn=       5 diagonalized for initial guess.
 HarFok:  IExCor=  402 AccDes= 0.00D+00 IRadAn=         5 IDoV= 1 UseB2=F ITyADJ=14
 ICtDFT=  3500011 ScaDFX=  1.000000  1.000000  1.000000  1.000000
 FoFCou: FMM=F IPFlag=           0 FMFlag=      100000 FMFlg1=        2001
         NFxFlg=           0 DoJE=T BraDBF=F KetDBF=T FulRan=T
         wScrn=  0.000000 ICntrl=       500 IOpCl=  0 I1Cent=   200000004 NGrid=           0
         NMat0=    1 NMatS0=      1 NMatT0=    0 NMatD0=    1 NMtDS0=    0 NMtDT0=    0
 Petite list used in FoFCou.
 Requested convergence on RMS density matrix=1.00D-08 within 128 cycles.
 Requested convergence on MAX density matrix=1.00D-06.
 Requested convergence on             energy=1.00D-06.
 No special actions if energy rises.
 Restarting incremental Fock formation.
 SCF Done:  E(UB3LYP) =  -1636.88167417     A.U. after   23 cycles
            NFock= 23  Conv=0.71D-08     -V/T= 2.0484
 <Sx>= 0.0000 <Sy>= 0.0000 <Sz>= 1.0000 <S**2>= 2.0060 S= 1.0020
 <L.S>=  0.00000000000    
 Annihilation of the first spin contaminant:
 S**2 before annihilation     2.0060,   after     2.0000
 PrsmSu:  requested number of processors reduced to:  12 ShMem   1 Linda.
   1 Symmetry operations used in ECPInt.
 ECPInt:  NShTT=   21115 NPrTT=  128985 LenC2=   17085 LenP2D=   55969.
 LDataN:  DoStor=T MaxTD1= 7 Len=  274
 Number of processors reduced to  13 by ecpmxn.
 Calling FoFJK, ICntrl=      2127 FMM=T ISym2X=0 I1Cent= 0 IOpClX= 1 NMat=1 NMatS=1 NMatT=0.
 ***** Axes restored to original set *****
 -------------------------------------------------------------------
 Center     Atomic                   Forces (Hartrees/Bohr)
 Number     Number              X              Y              Z
 -------------------------------------------------------------------
      1        6          -0.000021148    0.000015685   -0.000070110
      2        8          -0.000045369   -0.000210435   -0.000067724
      3        6          -0.000015783    0.000125817    0.000046860
      4        6          -0.000022264   -0.000161876    0.000104325
      5        6           0.000043540    0.000231716   -0.000253349
      6        6           0.000154144    0.000261875   -0.000249590
      7        7          -0.000231985    0.000010258    0.000705426
      8        6          -0.000187101   -0.000139862   -0.000349810
      9        6           0.000060725   -0.000053717   -0.000049376
     10        6           0.000473585    0.000052743    0.000174594
     11        6          -0.000161696   -0.000174277    0.000044095
     12        6          -0.000001619   -0.000071993    0.000060355
     13        6           0.000198263    0.000209277    0.000192960
     14        8           0.000142237   -0.000080228   -0.000172421
     15        7          -0.000418175   -0.000062865   -0.000250799
     16        6           0.000493519   -0.000095072    0.000105421
     17        6          -0.000503724   -0.000076279    0.000202914
     18        6           0.000107807    0.000207108    0.000062492
     19        6           0.000061146    0.000079413   -0.000055659
     20        6          -0.000056067   -0.000019164   -0.000020553
     21        6          -0.000003296    0.000010835    0.000027225
     22        6           0.000040644   -0.000011305    0.000032674
     23        6           0.000027713   -0.000011831    0.000020150
     24        6          -0.000152441    0.000005570   -0.000431215
     25        6          -0.000014782    0.000155135    0.000074736
     26        6           0.000018585   -0.000028874    0.000023407
     27        6          -0.000064025   -0.000002179   -0.000064595
     28        6           0.000166320    0.000039952   -0.000082369
     29        6           0.000184305   -0.000151548    0.000188681
     30        6          -0.000111396    0.000008264   -0.000061146
     31        1           0.000015583   -0.000017879    0.000024541
     32        1          -0.000006993   -0.000039921   -0.000007592
     33        1          -0.000007889   -0.000014510    0.000004638
     34        1           0.000047358    0.000146828    0.000005274
     35        1           0.000071533   -0.000006565    0.000040856
     36        1          -0.000039399    0.000083059   -0.000171844
     37        1          -0.000097383   -0.000056362   -0.000036409
     38        1          -0.000189340    0.000054729    0.000070379
     39        1           0.000034623    0.000006514    0.000010824
     40        1          -0.000026464    0.000086009   -0.000118271
     41        1           0.000005000    0.000040892   -0.000044954
     42        1          -0.000012969    0.000017638    0.000014038
     43        1          -0.000023853   -0.000006395   -0.000024030
     44        1          -0.000019058   -0.000037917   -0.000111346
     45        1          -0.000091782    0.000031831    0.000032005
     46        1          -0.000071747   -0.000062601   -0.000019006
     47        1           0.000103011   -0.000047572   -0.000089024
     48        1          -0.000087513   -0.000120098   -0.000021087
     49        1           0.000046591   -0.000001577    0.000025970
     50        1           0.000007925    0.000012377   -0.000022824
     51        1          -0.000000306    0.000029608   -0.000018411
     52        1          -0.000124336   -0.000072032    0.000064259
     53        1           0.000104327   -0.000055843    0.000026817
     54        1          -0.000000924   -0.000009893    0.000038031
     55        1          -0.000002026   -0.000041282    0.000006440
     56        1          -0.000026610   -0.000001160    0.000019840
     57        1           0.000036791    0.000093589   -0.000099783
     58        1           0.000054216    0.000005342    0.000048265
     59       28          -0.000328813   -0.000130594    0.001050470
     60        9           0.000536671    0.000105264   -0.000353460
     61        9          -0.000067887   -0.000053623   -0.000232206
 -------------------------------------------------------------------
 Cartesian Forces:  Max     0.001050470 RMS     0.000164144

 GradGradGradGradGradGradGradGradGradGradGradGradGradGradGradGradGradGrad
 Berny optimization.
 Using GEDIIS/GDIIS optimizer.
 FormGI is forming the generalized inverse of G from B-inverse, IUseBI=4.
 Internal  Forces:  Max     0.000595255 RMS     0.000115827
 Search for a local minimum.
 Step number  16 out of a maximum of  362
 All quantities printed in internal units (Hartrees-Bohrs-Radians)
 Mixed Optimization -- En-DIIS/RFO-DIIS
 Swapping is turned off.
 Update second derivatives using D2CorX and points   10   11   12   13   14
                                                     15   16
 DE= -4.66D-05 DEPred=-2.54D-05 R= 1.83D+00
 TightC=F SS=  1.41D+00  RLast= 6.63D-02 DXNew= 1.6971D+00 1.9889D-01
 Trust test= 1.83D+00 RLast= 6.63D-02 DXMaxT set to 1.01D+00
 ITU=  1  1  0  1  1  1 -1  0  1 -1  1  0  1  1  1  0
     Eigenvalues ---    0.00219   0.00233   0.00239   0.00280   0.00341
     Eigenvalues ---    0.00790   0.01069   0.01095   0.01381   0.01455
     Eigenvalues ---    0.01537   0.01570   0.01802   0.01960   0.01977
     Eigenvalues ---    0.02049   0.02060   0.02078   0.02081   0.02091
     Eigenvalues ---    0.02100   0.02129   0.02136   0.02163   0.02170
     Eigenvalues ---    0.02185   0.02189   0.02190   0.02191   0.02192
     Eigenvalues ---    0.02192   0.02193   0.02194   0.02217   0.02285
     Eigenvalues ---    0.02297   0.02446   0.02527   0.02878   0.03419
     Eigenvalues ---    0.04288   0.04393   0.04516   0.04764   0.05038
     Eigenvalues ---    0.05219   0.05228   0.05243   0.05313   0.05383
     Eigenvalues ---    0.05536   0.05644   0.05809   0.05984   0.06275
     Eigenvalues ---    0.06432   0.06703   0.07159   0.08771   0.09887
     Eigenvalues ---    0.10106   0.10688   0.10763   0.11422   0.13529
     Eigenvalues ---    0.13902   0.14377   0.15136   0.15866   0.15893
     Eigenvalues ---    0.15967   0.15993   0.15997   0.15998   0.15998
     Eigenvalues ---    0.15999   0.15999   0.16000   0.16000   0.16000
     Eigenvalues ---    0.16000   0.16000   0.16002   0.16011   0.16031
     Eigenvalues ---    0.16040   0.16053   0.16073   0.16110   0.16142
     Eigenvalues ---    0.16369   0.16446   0.18610   0.19472   0.19957
     Eigenvalues ---    0.20639   0.21381   0.21586   0.22000   0.22016
     Eigenvalues ---    0.22054   0.22111   0.22378   0.23461   0.23548
     Eigenvalues ---    0.23611   0.23818   0.24569   0.24748   0.24902
     Eigenvalues ---    0.25083   0.25865   0.26333   0.27010   0.27173
     Eigenvalues ---    0.27733   0.27873   0.28057   0.28777   0.29247
     Eigenvalues ---    0.29779   0.30089   0.33686   0.34497   0.34613
     Eigenvalues ---    0.34642   0.34669   0.34683   0.34690   0.34708
     Eigenvalues ---    0.34734   0.34745   0.34764   0.34808   0.34870
     Eigenvalues ---    0.34886   0.34942   0.35032   0.35313   0.35483
     Eigenvalues ---    0.35861   0.35939   0.35948   0.35953   0.35956
     Eigenvalues ---    0.35967   0.35975   0.35996   0.36096   0.36247
     Eigenvalues ---    0.36604   0.37625   0.38291   0.40270   0.41441
     Eigenvalues ---    0.41836   0.42092   0.42174   0.42413   0.42493
     Eigenvalues ---    0.42922   0.45078   0.45469   0.45757   0.46046
     Eigenvalues ---    0.46227   0.46278   0.46427   0.46931   0.46950
     Eigenvalues ---    0.47000   0.47094   0.48373   0.50055   0.50511
     Eigenvalues ---    0.57674   0.68916
 En-DIIS/RFO-DIIS/Sim-DIIS IScMMF=       -3 using points:    16   15   14   13   12   11
 RFO step:  Lambda=-3.94988110D-05.
 DidBck=F Rises=F RFO-DIIS coefs:    1.71157   -0.73441    0.26478   -0.26056    0.04600
                  RFO-DIIS coefs:   -0.02737
 Iteration  1 RMS(Cart)=  0.01126880 RMS(Int)=  0.00002311
 Iteration  2 RMS(Cart)=  0.00003866 RMS(Int)=  0.00000923
 Iteration  3 RMS(Cart)=  0.00000000 RMS(Int)=  0.00000923
 Variable       Old X    -DE/DX   Delta X   Delta X   Delta X     New X
                                 (Linear)    (Quad)   (Total)
    R1        2.69442   0.00001   0.00014  -0.00000   0.00014   2.69456
    R2        2.05979  -0.00000  -0.00000  -0.00001  -0.00001   2.05977
    R3        2.07172  -0.00001  -0.00005  -0.00005  -0.00010   2.07162
    R4        2.07171   0.00001  -0.00001  -0.00000  -0.00001   2.07170
    R5        2.54514   0.00027   0.00020   0.00039   0.00058   2.54573
    R6        2.65777  -0.00000  -0.00010   0.00003  -0.00007   2.65770
    R7        2.64357  -0.00005   0.00019  -0.00007   0.00012   2.64368
    R8        2.61910   0.00005   0.00008   0.00016   0.00024   2.61933
    R9        2.04343  -0.00007  -0.00007  -0.00013  -0.00021   2.04323
   R10        2.77562   0.00004   0.00033   0.00008   0.00040   2.77602
   R11        2.54284  -0.00007  -0.00042  -0.00019  -0.00061   2.54223
   R12        2.42283  -0.00008  -0.00021  -0.00027  -0.00047   2.42236
   R13        2.53234   0.00004  -0.00001   0.00012   0.00013   2.53247
   R14        2.78022  -0.00041   0.00025  -0.00112  -0.00087   2.77935
   R15        3.86686  -0.00014   0.00332  -0.00108   0.00224   3.86909
   R16        2.93304  -0.00013  -0.00042  -0.00036  -0.00078   2.93227
   R17        2.94337  -0.00010  -0.00057  -0.00029  -0.00088   2.94249
   R18        2.07236   0.00006   0.00016   0.00010   0.00026   2.07262
   R19        2.90719  -0.00020   0.00005  -0.00035  -0.00030   2.90689
   R20        2.91189   0.00001  -0.00016   0.00019   0.00003   2.91191
   R21        2.90860  -0.00007   0.00003  -0.00015  -0.00012   2.90848
   R22        2.07063  -0.00006  -0.00006  -0.00007  -0.00013   2.07050
   R23        2.07449   0.00004   0.00000   0.00006   0.00006   2.07454
   R24        2.06766   0.00001  -0.00001   0.00003   0.00002   2.06768
   R25        2.07138  -0.00001   0.00000  -0.00001  -0.00001   2.07137
   R26        2.06525   0.00012   0.00002   0.00025   0.00026   2.06552
   R27        2.07344   0.00002  -0.00007   0.00006  -0.00001   2.07343
   R28        2.06907   0.00002   0.00005   0.00001   0.00007   2.06914
   R29        2.07387  -0.00003   0.00000  -0.00006  -0.00006   2.07381
   R30        2.07275  -0.00000   0.00005  -0.00006  -0.00000   2.07275
   R31        2.76583   0.00012   0.00052   0.00041   0.00093   2.76675
   R32        2.06157   0.00006   0.00019   0.00010   0.00029   2.06186
   R33        2.06162  -0.00007  -0.00019  -0.00015  -0.00034   2.06128
   R34        2.53286   0.00004   0.00053  -0.00006   0.00047   2.53333
   R35        3.87386   0.00027  -0.00313   0.00141  -0.00172   3.87214
   R36        2.87254   0.00010  -0.00027   0.00024  -0.00002   2.87251
   R37        2.63102   0.00004  -0.00012   0.00008  -0.00004   2.63099
   R38        2.88070  -0.00002   0.00054  -0.00017   0.00037   2.88107
   R39        2.88115   0.00035  -0.00000   0.00074   0.00073   2.88189
   R40        2.06796  -0.00008   0.00014  -0.00029  -0.00015   2.06782
   R41        2.64755  -0.00001   0.00012   0.00001   0.00013   2.64767
   R42        2.64806   0.00007  -0.00000   0.00014   0.00014   2.64821
   R43        2.63698   0.00000   0.00002  -0.00001   0.00001   2.63699
   R44        2.05566  -0.00013   0.00014  -0.00030  -0.00017   2.05549
   R45        2.63578  -0.00006  -0.00006  -0.00010  -0.00015   2.63562
   R46        2.05296  -0.00001   0.00001  -0.00003  -0.00002   2.05294
   R47        2.63793  -0.00004   0.00001  -0.00007  -0.00006   2.63786
   R48        2.05330  -0.00001  -0.00001  -0.00004  -0.00005   2.05325
   R49        2.63490  -0.00003  -0.00002  -0.00006  -0.00007   2.63483
   R50        2.05349  -0.00001  -0.00002  -0.00003  -0.00005   2.05344
   R51        2.05144  -0.00008  -0.00003  -0.00015  -0.00018   2.05126
   R52        2.65516   0.00012  -0.00012   0.00018   0.00007   2.65523
   R53        2.63796  -0.00012   0.00012  -0.00024  -0.00012   2.63784
   R54        2.63038  -0.00004   0.00008  -0.00006   0.00002   2.63040
   R55        2.05831   0.00006  -0.00005   0.00018   0.00013   2.05844
   R56        2.64127   0.00001  -0.00012   0.00006  -0.00006   2.64121
   R57        2.05339  -0.00001  -0.00000  -0.00003  -0.00003   2.05336
   R58        2.63249  -0.00009   0.00010  -0.00014  -0.00005   2.63244
   R59        2.05342  -0.00002  -0.00002  -0.00005  -0.00007   2.05334
   R60        2.64181   0.00010  -0.00015   0.00019   0.00004   2.64185
   R61        2.05362  -0.00000  -0.00002  -0.00002  -0.00003   2.05358
   R62        2.04765  -0.00006   0.00004  -0.00013  -0.00010   2.04756
   R63        2.04681  -0.00006   0.00000  -0.00012  -0.00012   2.04669
   R64        3.49407  -0.00060  -0.00066  -0.00230  -0.00296   3.49112
   R65        3.45549   0.00006  -0.00001   0.00038   0.00037   3.45586
    A1        1.84332   0.00004   0.00003   0.00024   0.00027   1.84359
    A2        1.93888   0.00003   0.00001   0.00015   0.00016   1.93903
    A3        1.93975   0.00000   0.00004  -0.00006  -0.00002   1.93973
    A4        1.91300  -0.00004  -0.00001  -0.00022  -0.00022   1.91278
    A5        1.91266  -0.00002  -0.00015  -0.00007  -0.00022   1.91244
    A6        1.91492  -0.00001   0.00008  -0.00004   0.00003   1.91496
    A7        2.06716   0.00018   0.00055   0.00023   0.00078   2.06794
    A8        2.17059   0.00019   0.00031   0.00042   0.00073   2.17132
    A9        2.03299  -0.00005  -0.00035  -0.00005  -0.00040   2.03259
   A10        2.07961  -0.00014   0.00005  -0.00037  -0.00033   2.07928
   A11        2.04277   0.00001  -0.00013   0.00001  -0.00012   2.04265
   A12        2.14731   0.00010  -0.00006   0.00045   0.00039   2.14770
   A13        2.09288  -0.00010   0.00020  -0.00046  -0.00026   2.09262
   A14        2.16841  -0.00031   0.00063  -0.00094  -0.00030   2.16811
   A15        2.15631   0.00019   0.00006   0.00054   0.00061   2.15692
   A16        1.95813   0.00012  -0.00068   0.00043  -0.00027   1.95786
   A17        2.11233   0.00022  -0.00036   0.00071   0.00033   2.11266
   A18        2.10633  -0.00016   0.00017  -0.00035  -0.00015   2.10618
   A19        2.06452  -0.00006   0.00019  -0.00036  -0.00019   2.06433
   A20        1.89706   0.00010  -0.00033   0.00043   0.00005   1.89711
   A21        1.94955  -0.00024  -0.00054  -0.00051  -0.00107   1.94848
   A22        2.43510   0.00014   0.00121   0.00016   0.00139   2.43649
   A23        1.96737  -0.00007   0.00117  -0.00128  -0.00009   1.96728
   A24        1.78483   0.00009   0.00021   0.00021   0.00037   1.78519
   A25        1.87820   0.00002  -0.00103   0.00081  -0.00022   1.87798
   A26        2.02183  -0.00004  -0.00032   0.00007  -0.00023   2.02160
   A27        1.88137   0.00005   0.00011   0.00032   0.00042   1.88179
   A28        1.92517  -0.00005  -0.00021  -0.00008  -0.00028   1.92488
   A29        1.93334   0.00012   0.00046  -0.00004   0.00042   1.93376
   A30        1.90225   0.00003   0.00003   0.00022   0.00025   1.90251
   A31        1.88352  -0.00012  -0.00057  -0.00007  -0.00064   1.88289
   A32        1.89940  -0.00014   0.00047  -0.00070  -0.00023   1.89918
   A33        1.94021  -0.00004  -0.00056  -0.00030  -0.00086   1.93936
   A34        1.90460   0.00015   0.00017   0.00091   0.00108   1.90568
   A35        1.91399  -0.00003  -0.00002  -0.00013  -0.00015   1.91384
   A36        1.96094   0.00016  -0.00001   0.00111   0.00109   1.96204
   A37        1.92071   0.00014   0.00035   0.00040   0.00074   1.92145
   A38        1.86965  -0.00001  -0.00033   0.00029  -0.00004   1.86961
   A39        1.88558  -0.00018   0.00020  -0.00142  -0.00122   1.88436
   A40        1.91087  -0.00010  -0.00018  -0.00036  -0.00055   1.91033
   A41        1.91331  -0.00002  -0.00007   0.00011   0.00004   1.91335
   A42        1.93502   0.00010   0.00088   0.00020   0.00108   1.93610
   A43        1.94465   0.00004  -0.00035   0.00030  -0.00004   1.94461
   A44        1.87317  -0.00002  -0.00010   0.00009  -0.00001   1.87316
   A45        1.88025  -0.00002  -0.00004  -0.00031  -0.00034   1.87990
   A46        1.91525  -0.00008  -0.00034  -0.00043  -0.00077   1.91448
   A47        1.91628   0.00004  -0.00004   0.00026   0.00021   1.91649
   A48        1.94279  -0.00000   0.00001   0.00003   0.00004   1.94283
   A49        1.96735  -0.00017  -0.00015  -0.00078  -0.00093   1.96642
   A50        1.87821   0.00000  -0.00001   0.00014   0.00013   1.87834
   A51        1.86987   0.00007   0.00012   0.00025   0.00036   1.87023
   A52        1.88577   0.00007   0.00009   0.00016   0.00024   1.88601
   A53        1.83345  -0.00008  -0.00028  -0.00029  -0.00065   1.83280
   A54        1.98330  -0.00005  -0.00082  -0.00028  -0.00109   1.98221
   A55        1.98283   0.00008   0.00104   0.00044   0.00149   1.98432
   A56        1.86568   0.00005  -0.00020  -0.00004  -0.00021   1.86546
   A57        1.87608  -0.00000   0.00019  -0.00004   0.00018   1.87627
   A58        1.91387   0.00000   0.00003   0.00018   0.00020   1.91407
   A59        1.84306  -0.00006  -0.00029  -0.00005  -0.00041   1.84265
   A60        2.08955  -0.00023   0.00030  -0.00064  -0.00036   2.08918
   A61        1.98459  -0.00031   0.00125  -0.00112   0.00010   1.98469
   A62        2.18956   0.00053  -0.00268   0.00144  -0.00125   2.18831
   A63        2.02276   0.00033   0.00072   0.00047   0.00118   2.02394
   A64        2.10606   0.00008  -0.00048   0.00039  -0.00009   2.10597
   A65        2.15334  -0.00041  -0.00027  -0.00075  -0.00102   2.15232
   A66        1.88268   0.00018  -0.00095   0.00173   0.00078   1.88346
   A67        1.94424  -0.00057  -0.00009  -0.00240  -0.00249   1.94175
   A68        1.83900   0.00010   0.00126  -0.00084   0.00041   1.83941
   A69        2.08678   0.00043  -0.00071   0.00231   0.00160   2.08838
   A70        1.84768  -0.00012   0.00001   0.00010   0.00011   1.84779
   A71        1.84527  -0.00004   0.00086  -0.00127  -0.00041   1.84486
   A72        2.05867  -0.00004   0.00020  -0.00027  -0.00008   2.05860
   A73        2.14432   0.00015  -0.00034   0.00057   0.00023   2.14455
   A74        2.07692  -0.00012   0.00018  -0.00041  -0.00023   2.07669
   A75        2.09911   0.00008  -0.00021   0.00029   0.00008   2.09920
   A76        2.08780   0.00002   0.00016   0.00002   0.00018   2.08798
   A77        2.09491  -0.00010   0.00010  -0.00040  -0.00031   2.09460
   A78        2.10161   0.00001   0.00008  -0.00002   0.00005   2.10166
   A79        2.08379  -0.00004   0.00004  -0.00020  -0.00016   2.08363
   A80        2.09775   0.00004  -0.00011   0.00021   0.00010   2.09785
   A81        2.08700  -0.00004   0.00007  -0.00014  -0.00008   2.08692
   A82        2.09961   0.00003  -0.00006   0.00013   0.00007   2.09968
   A83        2.09649   0.00000   0.00000   0.00001   0.00001   2.09650
   A84        2.09653   0.00004  -0.00003   0.00013   0.00010   2.09663
   A85        2.09785  -0.00001  -0.00006  -0.00002  -0.00008   2.09777
   A86        2.08879  -0.00003   0.00009  -0.00011  -0.00002   2.08877
   A87        2.10447   0.00003  -0.00007   0.00012   0.00005   2.10452
   A88        2.09742   0.00011  -0.00003   0.00064   0.00060   2.09803
   A89        2.08128  -0.00014   0.00011  -0.00076  -0.00065   2.08063
   A90        2.02793  -0.00045   0.00058  -0.00158  -0.00101   2.02691
   A91        2.17328   0.00052  -0.00061   0.00175   0.00113   2.17441
   A92        2.08154  -0.00007  -0.00002  -0.00004  -0.00007   2.08147
   A93        2.09860   0.00004   0.00001   0.00006   0.00006   2.09866
   A94        2.07955   0.00003   0.00008   0.00017   0.00024   2.07979
   A95        2.10381  -0.00007  -0.00011  -0.00007  -0.00018   2.10363
   A96        2.09985   0.00001  -0.00002   0.00001  -0.00001   2.09984
   A97        2.08685  -0.00004  -0.00001  -0.00019  -0.00020   2.08666
   A98        2.09639   0.00004   0.00002   0.00019   0.00021   2.09660
   A99        2.08670  -0.00004   0.00001  -0.00010  -0.00008   2.08662
   A100       2.09840   0.00003  -0.00002   0.00012   0.00010   2.09850
   A101       2.09794   0.00001   0.00000  -0.00001  -0.00001   2.09793
   A102       2.10024   0.00005  -0.00002   0.00013   0.00011   2.10035
   A103       2.09723   0.00001  -0.00005   0.00011   0.00006   2.09729
   A104       2.08570  -0.00006   0.00007  -0.00024  -0.00017   2.08553
   A105       2.09895   0.00002   0.00001  -0.00003  -0.00002   2.09893
   A106       2.09801   0.00010  -0.00016   0.00058   0.00042   2.09842
   A107       2.08598  -0.00012   0.00017  -0.00057  -0.00040   2.08558
   A108       2.09093   0.00010   0.00021   0.00021   0.00041   2.09134
   A109       2.08510  -0.00007  -0.00033  -0.00019  -0.00051   2.08459
   A110       2.10715  -0.00003   0.00012  -0.00002   0.00009   2.10724
   A111       1.40527   0.00021  -0.00073   0.00062  -0.00014   1.40514
   A112       1.78246   0.00020   0.00342   0.00111   0.00451   1.78697
   A113       1.91630   0.00007   0.00242   0.00102   0.00344   1.91974
   A114       1.92031   0.00012   0.00916  -0.00034   0.00882   1.92913
   A115       1.69617  -0.00026  -0.00280  -0.00127  -0.00406   1.69211
   A116       2.45955  -0.00017  -0.00774  -0.00078  -0.00851   2.45103
    D1       -3.13503  -0.00000   0.00202  -0.00058   0.00144  -3.13360
    D2       -1.06219  -0.00001   0.00203  -0.00062   0.00141  -1.06078
    D3        1.07525   0.00000   0.00216  -0.00061   0.00155   1.07680
    D4       -0.00998   0.00001  -0.00037   0.00035  -0.00002  -0.01000
    D5        3.13002  -0.00001  -0.00053  -0.00004  -0.00057   3.12945
    D6        3.11392   0.00007  -0.00053   0.00233   0.00180   3.11572
    D7       -0.00486   0.00005  -0.00118   0.00256   0.00137  -0.00349
    D8       -0.02604   0.00008  -0.00036   0.00273   0.00237  -0.02367
    D9        3.13837   0.00007  -0.00102   0.00296   0.00194   3.14031
   D10        3.13415  -0.00002   0.00051  -0.00174  -0.00123   3.13292
   D11       -0.01137  -0.00007   0.00019  -0.00304  -0.00285  -0.01422
   D12       -0.00895  -0.00003   0.00036  -0.00210  -0.00175  -0.01070
   D13        3.12871  -0.00008   0.00004  -0.00341  -0.00337   3.12534
   D14       -3.08219  -0.00006  -0.00025  -0.00143  -0.00167  -3.08386
   D15        0.02944  -0.00002   0.00014   0.00013   0.00027   0.02971
   D16        0.03734  -0.00004   0.00038  -0.00164  -0.00125   0.03609
   D17       -3.13422  -0.00001   0.00077  -0.00008   0.00069  -3.13353
   D18        2.97440   0.00009  -0.00135   0.00376   0.00242   2.97681
   D19       -0.17115   0.00007  -0.00187   0.00250   0.00064  -0.17051
   D20       -0.14023   0.00006  -0.00170   0.00235   0.00066  -0.13957
   D21        2.99741   0.00003  -0.00223   0.00109  -0.00112   2.99629
   D22        0.00467  -0.00008   0.00011  -0.00372  -0.00362   0.00105
   D23       -2.93750  -0.00009   0.00627  -0.00227   0.00402  -2.93347
   D24        3.11951  -0.00006   0.00047  -0.00235  -0.00189   3.11762
   D25        0.17735  -0.00006   0.00663  -0.00090   0.00575   0.18310
   D26        3.12167  -0.00001   0.00125  -0.00156  -0.00032   3.12135
   D27        0.02655  -0.00008  -0.00385  -0.00270  -0.00654   0.02001
   D28       -0.01606   0.00002   0.00176  -0.00033   0.00142  -0.01464
   D29       -3.11118  -0.00005  -0.00334  -0.00147  -0.00480  -3.11598
   D30       -3.08905   0.00002   0.00617   0.00224   0.00841  -3.08064
   D31        0.04869   0.00000   0.00567   0.00102   0.00668   0.05537
   D32       -2.20487  -0.00000  -0.00819   0.00002  -0.00818  -2.21305
   D33       -0.02192  -0.00003  -0.00779  -0.00048  -0.00827  -0.03019
   D34        2.00622  -0.00004  -0.00834  -0.00015  -0.00850   1.99772
   D35        0.87017   0.00008  -0.00102   0.00164   0.00062   0.87079
   D36        3.05313   0.00005  -0.00062   0.00114   0.00052   3.05365
   D37       -1.20191   0.00005  -0.00117   0.00147   0.00029  -1.20162
   D38        0.05553   0.00004   0.00555   0.00163   0.00718   0.06271
   D39        1.95123   0.00018   0.01448   0.00128   0.01576   1.96699
   D40       -1.58995   0.00025   0.00914   0.00292   0.01206  -1.57788
   D41       -3.01822  -0.00005  -0.00177  -0.00004  -0.00182  -3.02003
   D42       -1.12252   0.00008   0.00716  -0.00040   0.00677  -1.11575
   D43        1.61949   0.00016   0.00182   0.00125   0.00307   1.62256
   D44        0.91839  -0.00001   0.00305  -0.00281   0.00022   0.91861
   D45       -1.17090   0.00007   0.00216  -0.00207   0.00007  -1.17083
   D46        3.04602  -0.00006   0.00227  -0.00324  -0.00099   3.04503
   D47       -1.12892  -0.00006   0.00211  -0.00216  -0.00003  -1.12895
   D48        3.06498   0.00003   0.00122  -0.00141  -0.00017   3.06481
   D49        0.99872  -0.00010   0.00133  -0.00259  -0.00124   0.99748
   D50        2.98863   0.00000   0.00253  -0.00236   0.00017   2.98880
   D51        0.89934   0.00008   0.00165  -0.00162   0.00003   0.89936
   D52       -1.16693  -0.00005   0.00175  -0.00280  -0.00104  -1.16797
   D53        0.04745   0.00003   0.01062   0.00101   0.01162   0.05908
   D54       -1.98581   0.00004   0.01145   0.00139   0.01285  -1.97296
   D55        2.09307   0.00002   0.01122   0.00101   0.01222   2.10529
   D56        2.19402  -0.00001   0.01205  -0.00041   0.01164   2.20566
   D57        0.16075  -0.00000   0.01288  -0.00003   0.01286   0.17362
   D58       -2.04355  -0.00003   0.01265  -0.00041   0.01224  -2.03131
   D59       -1.94643  -0.00002   0.01178   0.00002   0.01180  -1.93463
   D60        2.30349  -0.00000   0.01261   0.00040   0.01302   2.31651
   D61        0.09918  -0.00003   0.01238   0.00002   0.01240   0.11158
   D62        3.04011   0.00003   0.00334   0.00147   0.00481   3.04491
   D63        0.96294  -0.00003   0.00378   0.00048   0.00426   0.96720
   D64       -1.17118  -0.00012   0.00378  -0.00011   0.00367  -1.16751
   D65       -1.15208   0.00006   0.00396   0.00128   0.00523  -1.14685
   D66        3.05393  -0.00001   0.00440   0.00029   0.00469   3.05862
   D67        0.91982  -0.00009   0.00440  -0.00030   0.00410   0.92391
   D68        0.94604   0.00013   0.00412   0.00177   0.00589   0.95194
   D69       -1.13113   0.00006   0.00456   0.00078   0.00535  -1.12578
   D70        3.01794  -0.00003   0.00456   0.00019   0.00475   3.02270
   D71       -2.96572   0.00006  -0.00164   0.00090  -0.00073  -2.96646
   D72        1.25251   0.00004  -0.00200   0.00059  -0.00141   1.25110
   D73       -0.88606   0.00004  -0.00194   0.00078  -0.00116  -0.88722
   D74        1.20727  -0.00002  -0.00250   0.00123  -0.00127   1.20600
   D75       -0.85768  -0.00004  -0.00287   0.00093  -0.00194  -0.85962
   D76       -2.99626  -0.00003  -0.00281   0.00112  -0.00169  -2.99795
   D77       -0.91274   0.00002  -0.00221   0.00147  -0.00074  -0.91348
   D78       -2.97769  -0.00000  -0.00257   0.00116  -0.00141  -2.97910
   D79        1.16692   0.00001  -0.00252   0.00135  -0.00117   1.16576
   D80        3.08100   0.00001   0.00154   0.00113   0.00267   3.08367
   D81        1.00312  -0.00001   0.00157   0.00078   0.00235   1.00547
   D82       -1.11909   0.00002   0.00156   0.00112   0.00267  -1.11641
   D83       -1.07881   0.00006   0.00139   0.00086   0.00225  -1.07655
   D84        3.12650   0.00003   0.00142   0.00051   0.00193   3.12843
   D85        1.00430   0.00006   0.00141   0.00084   0.00225   1.00655
   D86        1.01624  -0.00004   0.00173   0.00040   0.00213   1.01837
   D87       -1.06164  -0.00007   0.00176   0.00005   0.00181  -1.05983
   D88        3.09934  -0.00004   0.00175   0.00038   0.00214   3.10148
   D89       -0.05650  -0.00002  -0.00993  -0.00119  -0.01111  -0.06761
   D90        2.05592  -0.00009  -0.01112  -0.00169  -0.01281   2.04311
   D91       -2.17360  -0.00006  -0.01109  -0.00152  -0.01260  -2.18620
   D92        3.05236   0.00015  -0.00091   0.00687   0.00596   3.05831
   D93       -0.04208   0.00013  -0.00011   0.00434   0.00423  -0.03784
   D94       -0.31379   0.00003  -0.00735   0.00488  -0.00246  -0.31625
   D95        2.87496   0.00002  -0.00654   0.00235  -0.00418   2.87078
   D96       -0.13379   0.00002  -0.00682  -0.00032  -0.00715  -0.14094
   D97       -1.87118  -0.00026  -0.00923  -0.00175  -0.01099  -1.88216
   D98        1.76805   0.00014  -0.00405   0.00093  -0.00312   1.76493
   D99       -3.06258   0.00012  -0.00065   0.00153   0.00087  -3.06171
   D100       1.48322  -0.00015  -0.00306   0.00010  -0.00297   1.48025
   D101      -1.16074   0.00024   0.00211   0.00278   0.00490  -1.15584
   D102      -1.71778   0.00010   0.00765   0.00010   0.00775  -1.71002
   D103       2.24261  -0.00018   0.00948  -0.00253   0.00696   2.24957
   D104       0.24982   0.00009   0.00784   0.00057   0.00841   0.25823
   D105       1.37524   0.00013   0.00682   0.00274   0.00956   1.38480
   D106      -0.94756  -0.00015   0.00865   0.00012   0.00877  -0.93879
   D107      -2.94035   0.00012   0.00701   0.00321   0.01022  -2.93014
   D108       0.04418  -0.00007  -0.00013  -0.00146  -0.00158   0.04259
   D109      -3.09344  -0.00002   0.00019  -0.00013   0.00006  -3.09338
   D110      -3.04661  -0.00011   0.00071  -0.00422  -0.00351  -3.05012
   D111       0.09896  -0.00006   0.00103  -0.00290  -0.00186   0.09710
   D112       1.76119   0.00013   0.00573  -0.00483   0.00090   1.76208
   D113      -1.29247   0.00018   0.00513  -0.00328   0.00185  -1.29062
   D114      -2.27790  -0.00013   0.00404  -0.00458  -0.00054  -2.27844
   D115       0.95163  -0.00009   0.00343  -0.00302   0.00041   0.95204
   D116      -0.20057  -0.00000   0.00472  -0.00468   0.00003  -0.20054
   D117       3.02895   0.00004   0.00412  -0.00313   0.00099   3.02994
   D118      -1.07148   0.00009  -0.00538   0.00140  -0.00399  -1.07547
   D119       2.10238   0.00005  -0.00280  -0.00310  -0.00591   2.09647
   D120       2.99596  -0.00000  -0.00323  -0.00086  -0.00409   2.99187
   D121      -0.11336  -0.00005  -0.00065  -0.00536  -0.00601  -0.11938
   D122       0.91741  -0.00009  -0.00348  -0.00145  -0.00493   0.91248
   D123      -2.19191  -0.00013  -0.00090  -0.00595  -0.00685  -2.19877
   D124      -3.09334   0.00002  -0.00009   0.00087   0.00078  -3.09256
   D125      -0.00777  -0.00002   0.00085  -0.00100  -0.00015  -0.00792
   D126      -0.03619  -0.00001   0.00046  -0.00057  -0.00011  -0.03630
   D127       3.04938  -0.00005   0.00140  -0.00245  -0.00104   3.04834
   D128       3.09228  -0.00002   0.00023  -0.00066  -0.00043   3.09185
   D129      -0.04419  -0.00000   0.00009  -0.00002   0.00007  -0.04412
   D130       0.03949   0.00002  -0.00038   0.00091   0.00053   0.04002
   D131      -3.09697   0.00004  -0.00052   0.00155   0.00103  -3.09595
   D132       0.00853  -0.00001  -0.00028  -0.00017  -0.00045   0.00808
   D133       3.14079  -0.00002   0.00025  -0.00086  -0.00062   3.14017
   D134      -3.07682   0.00002  -0.00123   0.00170   0.00047  -3.07635
   D135       0.05544   0.00001  -0.00070   0.00100   0.00030   0.05575
   D136       0.01639   0.00002   0.00001   0.00060   0.00061   0.01700
   D137      -3.13918   0.00001   0.00030   0.00023   0.00052  -3.13865
   D138      -3.11579   0.00003  -0.00053   0.00130   0.00077  -3.11502
   D139       0.01182   0.00002  -0.00024   0.00093   0.00069   0.01251
   D140      -0.01317  -0.00001   0.00008  -0.00026  -0.00019  -0.01335
   D141       3.12324  -0.00000   0.00015  -0.00023  -0.00008   3.12316
   D142      -3.14081   0.00000  -0.00021   0.00011  -0.00010  -3.14091
   D143      -0.00440   0.00000  -0.00014   0.00014  -0.00000  -0.00440
   D144      -0.01500  -0.00001   0.00011  -0.00050  -0.00039  -0.01539
   D145       3.12151  -0.00003   0.00025  -0.00113  -0.00088   3.12063
   D146       3.13175  -0.00002   0.00005  -0.00054  -0.00049   3.13126
   D147      -0.01493  -0.00004   0.00019  -0.00116  -0.00098  -0.01590
   D148      -3.14008  -0.00007   0.00168  -0.00371  -0.00202   3.14108
   D149      -0.05129  -0.00000   0.00117  -0.00042   0.00076  -0.05054
   D150      -0.02896  -0.00001  -0.00076   0.00057  -0.00018  -0.02915
   D151       3.05982   0.00005  -0.00127   0.00387   0.00260   3.06242
   D152       3.13757   0.00005  -0.00178   0.00364   0.00187   3.13944
   D153       0.02029   0.00007  -0.00260   0.00451   0.00191   0.02220
   D154       0.02917   0.00000   0.00087  -0.00096  -0.00010   0.02908
   D155      -3.08811   0.00002   0.00004  -0.00010  -0.00005  -3.08816
   D156       0.00577   0.00001   0.00010   0.00016   0.00026   0.00603
   D157       3.13228   0.00002   0.00020   0.00081   0.00101   3.13329
   D158      -3.08227  -0.00006   0.00061  -0.00319  -0.00258  -3.08485
   D159       0.04423  -0.00004   0.00072  -0.00254  -0.00182   0.04241
   D160       0.01735  -0.00000   0.00045  -0.00050  -0.00005   0.01730
   D161       3.14048   0.00001   0.00010   0.00042   0.00052   3.14100
   D162      -3.10907  -0.00001   0.00035  -0.00115  -0.00081  -3.10988
   D163       0.01405  -0.00000  -0.00000  -0.00024  -0.00024   0.01382
   D164      -0.01715  -0.00001  -0.00034   0.00011  -0.00023  -0.01738
   D165       3.11689  -0.00001  -0.00021   0.00018  -0.00003   3.11686
   D166      -3.14028  -0.00002   0.00001  -0.00081  -0.00080  -3.14108
   D167      -0.00624  -0.00002   0.00014  -0.00074  -0.00060  -0.00684
   D168      -0.00625   0.00000  -0.00033   0.00063   0.00030  -0.00595
   D169       3.11120  -0.00001   0.00049  -0.00022   0.00027   3.11147
   D170      -3.14034   0.00001  -0.00045   0.00055   0.00010  -3.14024
   D171      -0.02288  -0.00001   0.00036  -0.00029   0.00007  -0.02282
         Item               Value     Threshold  Converged?
 Maximum Force            0.000595     0.000450     NO 
 RMS     Force            0.000116     0.000300     YES
 Maximum Displacement     0.051743     0.001800     NO 
 RMS     Displacement     0.011269     0.001200     NO 
 Predicted change in Energy=-1.948661D-05
 GradGradGradGradGradGradGradGradGradGradGradGradGradGradGradGradGradGrad

 Stoichiometry    C26H28F2N2NiO2(3)
 Framework group  C1[X(C26H28F2N2NiO2)]
 Deg. of freedom   177
 Full point group                 C1      NOp   1
 Largest Abelian subgroup         C1      NOp   1
 Largest concise Abelian subgroup C1      NOp   1
                         Standard orientation:                         
 ---------------------------------------------------------------------
 Center     Atomic      Atomic             Coordinates (Angstroms)
 Number     Number       Type             X           Y           Z
 ---------------------------------------------------------------------
      1          6           0        1.061374    5.152339    1.605339
      2          8           0        1.805854    3.980497    1.280185
      3          6           0        1.135331    2.886851    0.868940
      4          6           0       -0.263684    2.811848    0.746166
      5          6           0       -0.792005    1.618953    0.278052
      6          6           0       -2.220806    1.391671    0.023400
      7          7           0       -2.625360    0.332974   -0.575475
      8          6           0       -4.093135    0.371388   -0.661009
      9          6           0       -4.760131   -0.910025   -0.094586
     10          6           0       -4.255393   -1.205183    1.328219
     11          6           0       -4.408162   -2.102973   -1.004212
     12          6           0       -6.284121   -0.695349   -0.108909
     13          6           0       -4.433574    1.697748    0.080228
     14          8           0       -3.136588    2.286557    0.418944
     15          7           0       -0.044577    0.542316   -0.025290
     16          6           0        1.286661    0.594510    0.123806
     17          6           0        2.036660   -0.702017   -0.135281
     18          6           0        2.301054   -1.367813    1.210527
     19          6           0        1.467222   -2.426228    1.594627
     20          6           0        1.628324   -3.031987    2.841359
     21          6           0        2.613461   -2.584919    3.721620
     22          6           0        3.427513   -1.511255    3.356798
     23          6           0        3.265923   -0.901330    2.113444
     24          6           0        3.189196   -0.488497   -1.110876
     25          6           0        2.837559   -0.042931   -2.396211
     26          6           0        3.822049    0.180428   -3.354550
     27          6           0        5.167471   -0.043290   -3.049147
     28          6           0        5.516301   -0.511711   -1.784463
     29          6           0        4.531220   -0.737466   -0.818505
     30          6           0        1.908369    1.766245    0.546772
     31          1           0        1.800439    5.897721    1.899036
     32          1           0        0.497908    5.515249    0.737830
     33          1           0        0.375702    4.966130    2.440231
     34          1           0       -0.921242    3.638017    0.978802
     35          1           0       -4.361624    0.448738   -1.721606
     36          1           0       -4.808600   -2.053158    1.746993
     37          1           0       -4.401457   -0.356234    2.008747
     38          1           0       -3.194945   -1.473521    1.302723
     39          1           0       -5.012772   -2.972474   -0.721542
     40          1           0       -3.358473   -2.385220   -0.889343
     41          1           0       -4.617639   -1.879022   -2.057700
     42          1           0       -6.790174   -1.605192    0.230201
     43          1           0       -6.645934   -0.471337   -1.120456
     44          1           0       -6.602640    0.118299    0.554117
     45          1           0       -4.968491    1.547878    1.019313
     46          1           0       -4.970350    2.419432   -0.536903
     47          1           0        1.324830   -1.350375   -0.655181
     48          1           0        0.658390   -2.739190    0.938138
     49          1           0        0.972868   -3.850637    3.124894
     50          1           0        2.739072   -3.059715    4.690817
     51          1           0        4.186770   -1.143666    4.041768
     52          1           0        3.893798   -0.055063    1.852925
     53          1           0        1.784374    0.079469   -2.645915
     54          1           0        3.536925    0.517510   -4.347403
     55          1           0        5.934911    0.130944   -3.798374
     56          1           0        6.557139   -0.710959   -1.543859
     57          1           0        4.814803   -1.128546    0.151367
     58          1           0        2.987093    1.823363    0.624998
     59         28           0       -1.068169   -0.910760   -1.044813
     60          9           0       -1.382528   -2.368284    0.045948
     61          9           0       -0.425759   -0.507788   -2.708931
 ---------------------------------------------------------------------
 Rotational constants (GHZ):           0.1637775           0.0860304           0.0802480
 Basis read from rwf:  (6D, 7F)
 Pseudo-potential data read from rwf file.
 There are   613 symmetry adapted cartesian basis functions of A   symmetry.
 There are   610 symmetry adapted basis functions of A   symmetry.
   610 basis functions,  1162 primitive gaussians,   613 cartesian basis functions
   126 alpha electrons      124 beta electrons
       nuclear repulsion energy      3836.8860787151 Hartrees.
 NAtoms=   61 NActive=   61 NUniq=   61 SFac= 1.00D+00 NAtFMM=   60 NAOKFM=T Big=T
 Integral buffers will be    131072 words long.
 Raffenetti 2 integral format.
 Two-electron integral symmetry is turned on.
 Nuclear repulsion after empirical dispersion term =     3836.7353737935 Hartrees.
 One-electron integrals computed using PRISM.
 PrsmSu:  requested number of processors reduced to:  12 ShMem   1 Linda.
   1 Symmetry operations used in ECPInt.
 ECPInt:  NShTT=   21115 NPrTT=  128985 LenC2=   17085 LenP2D=   55953.
 LDataN:  DoStor=T MaxTD1= 6 Len=  172
 Number of processors reduced to  12 by ecpmxn.
 NBasis=   610 RedAO= T EigKep=  6.98D-06  NBF=   610
 NBsUse=   609 1.00D-06 EigRej=  9.92D-07 NBFU=   609
 Initial guess from the checkpoint file:  "Lig2126_xyz_2.chk"
 B after Tr=     0.000000    0.000000   -0.000000
         Rot=    0.999970   -0.007601    0.000887    0.001056 Ang=  -0.89 deg.
 Initial guess <Sx>= 0.0000 <Sy>= 0.0000 <Sz>= 1.0000 <S**2>= 2.0060 S= 1.0020
 ExpMin= 2.40D-02 ExpMax= 7.14D+04 ExpMxC= 1.07D+04 IAcc=3 IRadAn=         5 AccDes= 0.00D+00
 Harris functional with IExCor=  402 and IRadAn=       5 diagonalized for initial guess.
 HarFok:  IExCor=  402 AccDes= 0.00D+00 IRadAn=         5 IDoV= 1 UseB2=F ITyADJ=14
 ICtDFT=  3500011 ScaDFX=  1.000000  1.000000  1.000000  1.000000
 FoFCou: FMM=F IPFlag=           0 FMFlag=      100000 FMFlg1=        2001
         NFxFlg=           0 DoJE=T BraDBF=F KetDBF=T FulRan=T
         wScrn=  0.000000 ICntrl=       500 IOpCl=  0 I1Cent=   200000004 NGrid=           0
         NMat0=    1 NMatS0=      1 NMatT0=    0 NMatD0=    1 NMtDS0=    0 NMtDT0=    0
 Petite list used in FoFCou.
 Requested convergence on RMS density matrix=1.00D-08 within 128 cycles.
 Requested convergence on MAX density matrix=1.00D-06.
 Requested convergence on             energy=1.00D-06.
 No special actions if energy rises.
