 Entering Gaussian System, Link 0=g16
 Input=Lig2120_xyz_3.com
 Output=Lig2120_xyz_3.log
 Initial command:
 /uufs/chpc.utah.edu/sys/installdir/gaussian16/C01/AVX/g16/l1.exe "/scratch/general/vast/u1365460/GAUSSSCRDIR/11267743-notchpeak.peaks/Gau-774737.inp" -scrdir="/scratch/general/vast/u1365460/GAUSSSCRDIR/11267743-notchpeak.peaks/"
 Entering Link 1 = /uufs/chpc.utah.edu/sys/installdir/gaussian16/C01/AVX/g16/l1.exe PID=    774740.
  
 Copyright (c) 1988-2019, Gaussian, Inc.  All Rights Reserved.
  
 This is part of the Gaussian(R) 16 program.  It is based on
 the Gaussian(R) 09 system (copyright 2009, Gaussian, Inc.),
 the Gaussian(R) 03 system (copyright 2003, Gaussian, Inc.),
 the Gaussian(R) 98 system (copyright 1998, Gaussian, Inc.),
 the Gaussian(R) 94 system (copyright 1995, Gaussian, Inc.),
 the Gaussian 92(TM) system (copyright 1992, Gaussian, Inc.),
 the Gaussian 90(TM) system (copyright 1990, Gaussian, Inc.),
 the Gaussian 88(TM) system (copyright 1988, Gaussian, Inc.),
 the Gaussian 86(TM) system (copyright 1986, Carnegie Mellon
 University), and the Gaussian 82(TM) system (copyright 1983,
 Carnegie Mellon University). Gaussian is a federally registered
 trademark of Gaussian, Inc.
  
 This software contains proprietary and confidential information,
 including trade secrets, belonging to Gaussian, Inc.
  
 This software is provided under written license and may be
 used, copied, transmitted, or stored only in accord with that
 written license.
  
 The following legend is applicable only to US Government
 contracts under FAR:
  
                    RESTRICTED RIGHTS LEGEND
  
 Use, reproduction and disclosure by the US Government is
 subject to restrictions as set forth in subparagraphs (a)
 and (c) of the Commercial Computer Software - Restricted
 Rights clause in FAR 52.227-19.
  
 Gaussian, Inc.
 340 Quinnipiac St., Bldg. 40, Wallingford CT 06492
  
  
 ---------------------------------------------------------------
 Warning -- This program may not be used in any manner that
 competes with the business of Gaussian, Inc. or will provide
 assistance to any competitor of Gaussian, Inc.  The licensee
 of this program is prohibited from giving any competitor of
 Gaussian, Inc. access to this program.  By using this program,
 the user acknowledges that Gaussian, Inc. is engaged in the
 business of creating and licensing software in the field of
 computational chemistry and represents and warrants to the
 licensee that it is not a competitor of Gaussian, Inc. and that
 it will not use this program in any manner prohibited above.
 ---------------------------------------------------------------
  

 Cite this work as:
 Gaussian 16, Revision C.01,
 M. J. Frisch, G. W. Trucks, H. B. Schlegel, G. E. Scuseria, 
 M. A. Robb, J. R. Cheeseman, G. Scalmani, V. Barone, 
 G. A. Petersson, H. Nakatsuji, X. Li, M. Caricato, A. V. Marenich, 
 J. Bloino, B. G. Janesko, R. Gomperts, B. Mennucci, H. P. Hratchian, 
 J. V. Ortiz, A. F. Izmaylov, J. L. Sonnenberg, D. Williams-Young, 
 F. Ding, F. Lipparini, F. Egidi, J. Goings, B. Peng, A. Petrone, 
 T. Henderson, D. Ranasinghe, V. G. Zakrzewski, J. Gao, N. Rega, 
 G. Zheng, W. Liang, M. Hada, M. Ehara, K. Toyota, R. Fukuda, 
 J. Hasegawa, M. Ishida, T. Nakajima, Y. Honda, O. Kitao, H. Nakai, 
 T. Vreven, K. Throssell, J. A. Montgomery, Jr., J. E. Peralta, 
 F. Ogliaro, M. J. Bearpark, J. J. Heyd, E. N. Brothers, K. N. Kudin, 
 V. N. Staroverov, T. A. Keith, R. Kobayashi, J. Normand, 
 K. Raghavachari, A. P. Rendell, J. C. Burant, S. S. Iyengar, 
 J. Tomasi, M. Cossi, J. M. Millam, M. Klene, C. Adamo, R. Cammi, 
 J. W. Ochterski, R. L. Martin, K. Morokuma, O. Farkas, 
 J. B. Foresman, and D. J. Fox, Gaussian, Inc., Wallingford CT, 2019.
 
 ******************************************
 Gaussian 16:  ES64L-G16RevC.01  3-Jul-2019
                 6-Mar-2026 
 ******************************************
 %NProcShared=16
 Will use up to   16 processors via shared memory.
 %chk=Lig2120_xyz_3.chk
 ----------------------------------------------------------------------
 # B3LYP gen 6D pseudo=read int=(grid=fine) empiricaldispersion=GD3BJ o
 pt freq=noraman
 ----------------------------------------------------------------------
 1/18=20,19=15,26=3,38=1/1,3;
 2/9=110,12=2,17=6,18=5,40=1/2;
 3/5=7,8=2,11=2,16=1,17=8,25=1,30=1,71=1,74=-5,75=-4,124=41/1,2,3;
 4//1;
 5/5=2,38=5/2;
 6/7=2,8=2,9=2,10=2,28=1/1;
 7//1,2,3,16;
 1/18=20,19=15,26=3/3(2);
 2/9=110/2;
 99//99;
 2/9=110/2;
 3/5=7,6=1,8=2,11=2,16=1,17=8,25=1,30=1,71=1,74=-5,75=-4,82=7,124=41/1,2,3;
 4/5=5,16=3,69=1/1;
 5/5=2,38=5/2;
 7//1,2,3,16;
 1/18=20,19=15,26=3/3(-5);
 2/9=110/2;
 6/7=2,8=2,9=2,10=2,19=2,28=1/1;
 99/9=1/99;
 -----------
 Lig2120.xyz
 -----------
 Symbolic Z-matrix:
 Charge =  0 Multiplicity = 3
 C                    -3.66165  -3.25788  -1.45696 
 C                    -2.44511  -3.33723  -0.78012 
 C                    -1.59241  -2.23421  -0.71008 
 C                    -1.9612   -1.03765  -1.33395 
 C                    -1.10255   0.20152  -1.23293 
 N                     0.29294  -0.07116  -0.88091 
 C                     0.68156   0.82247  -0.04769 
 C                     2.05067   0.82437   0.47695 
 C                     2.56085   1.7618    1.36622 
 C                     3.87642   1.58994   1.79327 
 C                     4.62908   0.49482   1.36277 
 C                     4.02204  -0.41866   0.47708 
 N                     2.77567  -0.2208    0.03861 
 C                     4.70879  -1.66084  -0.03181 
 C                     6.00804  -1.97418   0.71806 
 C                     6.82561  -0.69828   0.94549 
 C                     6.04846   0.27647   1.83865 
 O                    -0.21208   1.72016   0.37887 
 C                    -1.53948   1.2394   -0.11444 
 C                    -2.23258   0.53717   1.04404 
 C                    -1.50455  -0.05098   2.08239 
 C                    -2.15497  -0.79533   3.06657 
 C                    -3.53765  -0.96385   3.02178 
 C                    -4.27001  -0.37524   1.98991 
 C                    -3.62252   0.3736    1.01121 
 C                    -2.28924   2.47318  -0.57954 
 C                    -2.58557   3.44698   0.38666 
 C                    -3.25866   4.61328   0.0398 
 C                    -3.66418   4.82129  -1.28124 
 C                    -3.38206   3.85791  -2.2458 
 C                    -2.69228   2.69325  -1.89825 
 C                    -3.17242  -0.9653   -2.03095 
 C                    -4.02321  -2.06691  -2.08875 
 H                    -4.3204   -4.12079  -1.5025 
 H                    -2.1459   -4.26523  -0.30127 
 H                    -0.63596  -2.33354  -0.20117 
 H                    -1.07981   0.6998   -2.20713 
 H                     1.94696   2.58969   1.70134 
 H                     4.32258   2.30866   2.47581 
 H                     4.90374  -1.52082  -1.10428 
 H                     3.9887   -2.48523   0.04429 
 H                     6.58664  -2.71312   0.15455 
 H                     5.77345  -2.42945   1.68981 
 H                     7.03984  -0.22219  -0.02105 
 H                     7.79068  -0.92965   1.40903 
 H                     6.01619  -0.12269   2.8632 
 H                     6.56248   1.24308   1.90503 
 H                    -0.42819   0.06054   2.13175 
 H                    -1.57382  -1.24904   3.86398 
 H                    -4.04191  -1.54964   3.78487 
 H                    -5.3479   -0.50002   1.94392 
 H                    -4.19661   0.82097   0.20753 
 H                    -2.28568   3.27709   1.41586 
 H                    -3.47397   5.35793   0.80067 
 H                    -4.19768   5.72748  -1.55311 
 H                    -3.69335   4.00656  -3.27557 
 H                    -2.48199   1.96719  -2.67408 
 H                    -3.46184  -0.03971  -2.52136 
 H                    -4.96253  -1.99627  -2.63024 
 Ni                    1.73135  -1.47514  -1.22465 
 F                     1.36198  -2.74295   0.07094 
 F                     2.35498  -1.31203  -2.9169 
 

 GradGradGradGradGradGradGradGradGradGradGradGradGradGradGradGradGradGrad
 Berny optimization.
 Initialization pass.
                           ----------------------------
                           !    Initial Parameters    !
                           ! (Angstroms and Degrees)  !
 --------------------------                            --------------------------
 ! Name  Definition              Value          Derivative Info.                !
 --------------------------------------------------------------------------------
 ! R1    R(1,2)                  1.3944         estimate D2E/DX2                !
 ! R2    R(1,33)                 1.3958         estimate D2E/DX2                !
 ! R3    R(1,34)                 1.0866         estimate D2E/DX2                !
 ! R4    R(2,3)                  1.3959         estimate D2E/DX2                !
 ! R5    R(2,35)                 1.0863         estimate D2E/DX2                !
 ! R6    R(3,4)                  1.3989         estimate D2E/DX2                !
 ! R7    R(3,36)                 1.088          estimate D2E/DX2                !
 ! R8    R(4,5)                  1.511          estimate D2E/DX2                !
 ! R9    R(4,32)                 1.3993         estimate D2E/DX2                !
 ! R10   R(5,6)                  1.4648         estimate D2E/DX2                !
 ! R11   R(5,19)                 1.5872         estimate D2E/DX2                !
 ! R12   R(5,37)                 1.0945         estimate D2E/DX2                !
 ! R13   R(6,7)                  1.2821         estimate D2E/DX2                !
 ! R14   R(6,60)                 2.0392         estimate D2E/DX2                !
 ! R15   R(7,8)                  1.4662         estimate D2E/DX2                !
 ! R16   R(7,18)                 1.3366         estimate D2E/DX2                !
 ! R17   R(8,9)                  1.3892         estimate D2E/DX2                !
 ! R18   R(8,13)                 1.3454         estimate D2E/DX2                !
 ! R19   R(9,10)                 1.3938         estimate D2E/DX2                !
 ! R20   R(9,38)                 1.0838         estimate D2E/DX2                !
 ! R21   R(10,11)                1.3968         estimate D2E/DX2                !
 ! R22   R(10,39)                1.087          estimate D2E/DX2                !
 ! R23   R(11,12)                1.4097         estimate D2E/DX2                !
 ! R24   R(11,17)                1.5129         estimate D2E/DX2                !
 ! R25   R(12,13)                1.336          estimate D2E/DX2                !
 ! R26   R(12,14)                1.5079         estimate D2E/DX2                !
 ! R27   R(13,60)                2.0639         estimate D2E/DX2                !
 ! R28   R(14,15)                1.5325         estimate D2E/DX2                !
 ! R29   R(14,40)                1.099          estimate D2E/DX2                !
 ! R30   R(14,41)                1.0972         estimate D2E/DX2                !
 ! R31   R(15,16)                1.5323         estimate D2E/DX2                !
 ! R32   R(15,42)                1.0947         estimate D2E/DX2                !
 ! R33   R(15,43)                1.0985         estimate D2E/DX2                !
 ! R34   R(16,17)                1.5336         estimate D2E/DX2                !
 ! R35   R(16,44)                1.0985         estimate D2E/DX2                !
 ! R36   R(16,45)                1.0953         estimate D2E/DX2                !
 ! R37   R(17,46)                1.1            estimate D2E/DX2                !
 ! R38   R(17,47)                1.0968         estimate D2E/DX2                !
 ! R39   R(18,19)                1.4955         estimate D2E/DX2                !
 ! R40   R(19,20)                1.5217         estimate D2E/DX2                !
 ! R41   R(19,26)                1.5168         estimate D2E/DX2                !
 ! R42   R(20,21)                1.3979         estimate D2E/DX2                !
 ! R43   R(20,25)                1.3999         estimate D2E/DX2                !
 ! R44   R(21,22)                1.3949         estimate D2E/DX2                !
 ! R45   R(21,48)                1.0832         estimate D2E/DX2                !
 ! R46   R(22,23)                1.3936         estimate D2E/DX2                !
 ! R47   R(22,49)                1.086          estimate D2E/DX2                !
 ! R48   R(23,24)                1.3956         estimate D2E/DX2                !
 ! R49   R(23,50)                1.0862         estimate D2E/DX2                !
 ! R50   R(24,25)                1.3921         estimate D2E/DX2                !
 ! R51   R(24,51)                1.0861         estimate D2E/DX2                !
 ! R52   R(25,52)                1.0843         estimate D2E/DX2                !
 ! R53   R(26,27)                1.4034         estimate D2E/DX2                !
 ! R54   R(26,31)                1.3964         estimate D2E/DX2                !
 ! R55   R(27,28)                1.3906         estimate D2E/DX2                !
 ! R56   R(27,53)                1.0854         estimate D2E/DX2                !
 ! R57   R(28,29)                1.3974         estimate D2E/DX2                !
 ! R58   R(28,54)                1.0862         estimate D2E/DX2                !
 ! R59   R(29,30)                1.3921         estimate D2E/DX2                !
 ! R60   R(29,55)                1.0861         estimate D2E/DX2                !
 ! R61   R(30,31)                1.3975         estimate D2E/DX2                !
 ! R62   R(30,56)                1.086          estimate D2E/DX2                !
 ! R63   R(31,57)                1.0832         estimate D2E/DX2                !
 ! R64   R(32,33)                1.3931         estimate D2E/DX2                !
 ! R65   R(32,58)                1.0867         estimate D2E/DX2                !
 ! R66   R(33,59)                1.0865         estimate D2E/DX2                !
 ! R67   R(60,61)                1.85           estimate D2E/DX2                !
 ! R68   R(60,62)                1.8109         estimate D2E/DX2                !
 ! A1    A(2,1,33)             119.62           estimate D2E/DX2                !
 ! A2    A(2,1,34)             120.2703         estimate D2E/DX2                !
 ! A3    A(33,1,34)            120.1063         estimate D2E/DX2                !
 ! A4    A(1,2,3)              120.818          estimate D2E/DX2                !
 ! A5    A(1,2,35)             120.1915         estimate D2E/DX2                !
 ! A6    A(3,2,35)             118.9901         estimate D2E/DX2                !
 ! A7    A(2,3,4)              119.502          estimate D2E/DX2                !
 ! A8    A(2,3,36)             119.2313         estimate D2E/DX2                !
 ! A9    A(4,3,36)             121.2286         estimate D2E/DX2                !
 ! A10   A(3,4,5)              121.4566         estimate D2E/DX2                !
 ! A11   A(3,4,32)             119.6398         estimate D2E/DX2                !
 ! A12   A(5,4,32)             118.8679         estimate D2E/DX2                !
 ! A13   A(4,5,6)              113.8776         estimate D2E/DX2                !
 ! A14   A(4,5,19)             115.2745         estimate D2E/DX2                !
 ! A15   A(4,5,37)             109.0061         estimate D2E/DX2                !
 ! A16   A(6,5,19)             102.3942         estimate D2E/DX2                !
 ! A17   A(6,5,37)             106.1932         estimate D2E/DX2                !
 ! A18   A(19,5,37)            109.5895         estimate D2E/DX2                !
 ! A19   A(5,6,7)              108.3726         estimate D2E/DX2                !
 ! A20   A(5,6,60)             139.434          estimate D2E/DX2                !
 ! A21   A(7,6,60)             112.0618         estimate D2E/DX2                !
 ! A22   A(6,7,8)              121.097          estimate D2E/DX2                !
 ! A23   A(6,7,18)             118.2201         estimate D2E/DX2                !
 ! A24   A(8,7,18)             120.6156         estimate D2E/DX2                !
 ! A25   A(7,8,9)              124.9506         estimate D2E/DX2                !
 ! A26   A(7,8,13)             112.6811         estimate D2E/DX2                !
 ! A27   A(9,8,13)             122.3344         estimate D2E/DX2                !
 ! A28   A(8,9,10)             117.3598         estimate D2E/DX2                !
 ! A29   A(8,9,38)             120.357          estimate D2E/DX2                !
 ! A30   A(10,9,38)            122.2828         estimate D2E/DX2                !
 ! A31   A(9,10,11)            120.7196         estimate D2E/DX2                !
 ! A32   A(9,10,39)            119.8872         estimate D2E/DX2                !
 ! A33   A(11,10,39)           119.3908         estimate D2E/DX2                !
 ! A34   A(10,11,12)           118.0098         estimate D2E/DX2                !
 ! A35   A(10,11,17)           121.4497         estimate D2E/DX2                !
 ! A36   A(12,11,17)           120.5368         estimate D2E/DX2                !
 ! A37   A(11,12,13)           120.7938         estimate D2E/DX2                !
 ! A38   A(11,12,14)           123.3478         estimate D2E/DX2                !
 ! A39   A(13,12,14)           115.8583         estimate D2E/DX2                !
 ! A40   A(8,13,12)            120.7203         estimate D2E/DX2                !
 ! A41   A(8,13,60)            113.5074         estimate D2E/DX2                !
 ! A42   A(12,13,60)           125.6562         estimate D2E/DX2                !
 ! A43   A(12,14,15)           112.9192         estimate D2E/DX2                !
 ! A44   A(12,14,40)           107.7688         estimate D2E/DX2                !
 ! A45   A(12,14,41)           107.2559         estimate D2E/DX2                !
 ! A46   A(15,14,40)           110.6806         estimate D2E/DX2                !
 ! A47   A(15,14,41)           111.6442         estimate D2E/DX2                !
 ! A48   A(40,14,41)           106.2495         estimate D2E/DX2                !
 ! A49   A(14,15,16)           110.7764         estimate D2E/DX2                !
 ! A50   A(14,15,42)           109.5266         estimate D2E/DX2                !
 ! A51   A(14,15,43)           109.6673         estimate D2E/DX2                !
 ! A52   A(16,15,42)           110.8825         estimate D2E/DX2                !
 ! A53   A(16,15,43)           109.1318         estimate D2E/DX2                !
 ! A54   A(42,15,43)           106.7674         estimate D2E/DX2                !
 ! A55   A(15,16,17)           110.2002         estimate D2E/DX2                !
 ! A56   A(15,16,44)           109.5311         estimate D2E/DX2                !
 ! A57   A(15,16,45)           110.917          estimate D2E/DX2                !
 ! A58   A(17,16,44)           109.6209         estimate D2E/DX2                !
 ! A59   A(17,16,45)           109.5293         estimate D2E/DX2                !
 ! A60   A(44,16,45)           106.9818         estimate D2E/DX2                !
 ! A61   A(11,17,16)           112.5808         estimate D2E/DX2                !
 ! A62   A(11,17,46)           108.5313         estimate D2E/DX2                !
 ! A63   A(11,17,47)           109.362          estimate D2E/DX2                !
 ! A64   A(16,17,46)           109.0667         estimate D2E/DX2                !
 ! A65   A(16,17,47)           110.9723         estimate D2E/DX2                !
 ! A66   A(46,17,47)           106.0909         estimate D2E/DX2                !
 ! A67   A(7,18,19)            105.8            estimate D2E/DX2                !
 ! A68   A(5,19,18)            101.439          estimate D2E/DX2                !
 ! A69   A(5,19,20)            111.1076         estimate D2E/DX2                !
 ! A70   A(5,19,26)            116.865          estimate D2E/DX2                !
 ! A71   A(18,19,20)           107.5481         estimate D2E/DX2                !
 ! A72   A(18,19,26)           106.1649         estimate D2E/DX2                !
 ! A73   A(20,19,26)           112.5612         estimate D2E/DX2                !
 ! A74   A(19,20,21)           121.4962         estimate D2E/DX2                !
 ! A75   A(19,20,25)           119.2283         estimate D2E/DX2                !
 ! A76   A(21,20,25)           119.0356         estimate D2E/DX2                !
 ! A77   A(20,21,22)           120.382          estimate D2E/DX2                !
 ! A78   A(20,21,48)           120.5319         estimate D2E/DX2                !
 ! A79   A(22,21,48)           119.0854         estimate D2E/DX2                !
 ! A80   A(21,22,23)           120.2964         estimate D2E/DX2                !
 ! A81   A(21,22,49)           119.4376         estimate D2E/DX2                !
 ! A82   A(23,22,49)           120.2643         estimate D2E/DX2                !
 ! A83   A(22,23,24)           119.5657         estimate D2E/DX2                !
 ! A84   A(22,23,50)           120.2151         estimate D2E/DX2                !
 ! A85   A(24,23,50)           120.2191         estimate D2E/DX2                !
 ! A86   A(23,24,25)           120.1744         estimate D2E/DX2                !
 ! A87   A(23,24,51)           120.2442         estimate D2E/DX2                !
 ! A88   A(25,24,51)           119.5813         estimate D2E/DX2                !
 ! A89   A(20,25,24)           120.5423         estimate D2E/DX2                !
 ! A90   A(20,25,52)           119.662          estimate D2E/DX2                !
 ! A91   A(24,25,52)           119.7884         estimate D2E/DX2                !
 ! A92   A(19,26,27)           117.2365         estimate D2E/DX2                !
 ! A93   A(19,26,31)           124.0868         estimate D2E/DX2                !
 ! A94   A(27,26,31)           118.6764         estimate D2E/DX2                !
 ! A95   A(26,27,28)           120.8269         estimate D2E/DX2                !
 ! A96   A(26,27,53)           119.0699         estimate D2E/DX2                !
 ! A97   A(28,27,53)           120.1026         estimate D2E/DX2                !
 ! A98   A(27,28,29)           120.0735         estimate D2E/DX2                !
 ! A99   A(27,28,54)           119.7505         estimate D2E/DX2                !
 ! A100  A(29,28,54)           120.1746         estimate D2E/DX2                !
 ! A101  A(28,29,30)           119.5489         estimate D2E/DX2                !
 ! A102  A(28,29,55)           120.2214         estimate D2E/DX2                !
 ! A103  A(30,29,55)           120.2295         estimate D2E/DX2                !
 ! A104  A(29,30,31)           120.2929         estimate D2E/DX2                !
 ! A105  A(29,30,56)           120.2764         estimate D2E/DX2                !
 ! A106  A(31,30,56)           119.4304         estimate D2E/DX2                !
 ! A107  A(26,31,30)           120.5754         estimate D2E/DX2                !
 ! A108  A(26,31,57)           120.9793         estimate D2E/DX2                !
 ! A109  A(30,31,57)           118.4451         estimate D2E/DX2                !
 ! A110  A(4,32,33)            120.5574         estimate D2E/DX2                !
 ! A111  A(4,32,58)            119.9561         estimate D2E/DX2                !
 ! A112  A(33,32,58)           119.4813         estimate D2E/DX2                !
 ! A113  A(1,33,32)            119.8509         estimate D2E/DX2                !
 ! A114  A(1,33,59)            120.3307         estimate D2E/DX2                !
 ! A115  A(32,33,59)           119.8175         estimate D2E/DX2                !
 ! A116  A(6,60,13)             80.5209         estimate D2E/DX2                !
 ! A117  A(6,60,61)            102.2952         estimate D2E/DX2                !
 ! A118  A(6,60,62)            109.7812         estimate D2E/DX2                !
 ! A119  A(13,60,61)            95.099          estimate D2E/DX2                !
 ! A120  A(13,60,62)           110.0582         estimate D2E/DX2                !
 ! A121  A(61,60,62)           141.7165         estimate D2E/DX2                !
 ! D1    D(33,1,2,3)             0.9237         estimate D2E/DX2                !
 ! D2    D(33,1,2,35)         -178.8349         estimate D2E/DX2                !
 ! D3    D(34,1,2,3)          -179.7521         estimate D2E/DX2                !
 ! D4    D(34,1,2,35)            0.4894         estimate D2E/DX2                !
 ! D5    D(2,1,33,32)           -0.4488         estimate D2E/DX2                !
 ! D6    D(2,1,33,59)          179.2088         estimate D2E/DX2                !
 ! D7    D(34,1,33,32)        -179.7742         estimate D2E/DX2                !
 ! D8    D(34,1,33,59)          -0.1167         estimate D2E/DX2                !
 ! D9    D(1,2,3,4)             -0.3759         estimate D2E/DX2                !
 ! D10   D(1,2,3,36)          -178.1613         estimate D2E/DX2                !
 ! D11   D(35,2,3,4)           179.3855         estimate D2E/DX2                !
 ! D12   D(35,2,3,36)            1.6001         estimate D2E/DX2                !
 ! D13   D(2,3,4,5)            177.1606         estimate D2E/DX2                !
 ! D14   D(2,3,4,32)            -0.6395         estimate D2E/DX2                !
 ! D15   D(36,3,4,5)            -5.0995         estimate D2E/DX2                !
 ! D16   D(36,3,4,32)          177.1004         estimate D2E/DX2                !
 ! D17   D(3,4,5,6)             20.8821         estimate D2E/DX2                !
 ! D18   D(3,4,5,19)           -97.0602         estimate D2E/DX2                !
 ! D19   D(3,4,5,37)           139.2441         estimate D2E/DX2                !
 ! D20   D(32,4,5,6)          -161.3012         estimate D2E/DX2                !
 ! D21   D(32,4,5,19)           80.7564         estimate D2E/DX2                !
 ! D22   D(32,4,5,37)          -42.9392         estimate D2E/DX2                !
 ! D23   D(3,4,32,33)            1.1142         estimate D2E/DX2                !
 ! D24   D(3,4,32,58)         -179.719          estimate D2E/DX2                !
 ! D25   D(5,4,32,33)         -176.7429         estimate D2E/DX2                !
 ! D26   D(5,4,32,58)            2.4238         estimate D2E/DX2                !
 ! D27   D(4,5,6,7)           -139.4835         estimate D2E/DX2                !
 ! D28   D(4,5,6,60)            35.7593         estimate D2E/DX2                !
 ! D29   D(19,5,6,7)           -14.3601         estimate D2E/DX2                !
 ! D30   D(19,5,6,60)          160.8828         estimate D2E/DX2                !
 ! D31   D(37,5,6,7)           100.5552         estimate D2E/DX2                !
 ! D32   D(37,5,6,60)          -84.2019         estimate D2E/DX2                !
 ! D33   D(4,5,19,18)          142.7422         estimate D2E/DX2                !
 ! D34   D(4,5,19,20)           28.6724         estimate D2E/DX2                !
 ! D35   D(4,5,19,26)         -102.3658         estimate D2E/DX2                !
 ! D36   D(6,5,19,18)           18.5427         estimate D2E/DX2                !
 ! D37   D(6,5,19,20)          -95.527          estimate D2E/DX2                !
 ! D38   D(6,5,19,26)          133.4348         estimate D2E/DX2                !
 ! D39   D(37,5,19,18)         -93.8703         estimate D2E/DX2                !
 ! D40   D(37,5,19,20)         152.0599         estimate D2E/DX2                !
 ! D41   D(37,5,19,26)          21.0217         estimate D2E/DX2                !
 ! D42   D(5,6,7,8)           -179.1327         estimate D2E/DX2                !
 ! D43   D(5,6,7,18)             3.8327         estimate D2E/DX2                !
 ! D44   D(60,6,7,8)             4.2034         estimate D2E/DX2                !
 ! D45   D(60,6,7,18)         -172.8312         estimate D2E/DX2                !
 ! D46   D(5,6,60,13)         -178.1354         estimate D2E/DX2                !
 ! D47   D(5,6,60,61)          -84.9348         estimate D2E/DX2                !
 ! D48   D(5,6,60,62)           73.8369         estimate D2E/DX2                !
 ! D49   D(7,6,60,13)           -3.007          estimate D2E/DX2                !
 ! D50   D(7,6,60,61)           90.1936         estimate D2E/DX2                !
 ! D51   D(7,6,60,62)         -111.0347         estimate D2E/DX2                !
 ! D52   D(6,7,8,9)            179.0837         estimate D2E/DX2                !
 ! D53   D(6,7,8,13)            -2.9968         estimate D2E/DX2                !
 ! D54   D(18,7,8,9)            -3.9525         estimate D2E/DX2                !
 ! D55   D(18,7,8,13)          173.9669         estimate D2E/DX2                !
 ! D56   D(6,7,18,19)            9.4975         estimate D2E/DX2                !
 ! D57   D(8,7,18,19)         -167.552          estimate D2E/DX2                !
 ! D58   D(7,8,9,10)           178.1663         estimate D2E/DX2                !
 ! D59   D(7,8,9,38)            -2.0448         estimate D2E/DX2                !
 ! D60   D(13,8,9,10)            0.4383         estimate D2E/DX2                !
 ! D61   D(13,8,9,38)         -179.7728         estimate D2E/DX2                !
 ! D62   D(7,8,13,12)         -176.1693         estimate D2E/DX2                !
 ! D63   D(7,8,13,60)            0.1285         estimate D2E/DX2                !
 ! D64   D(9,8,13,12)            1.8124         estimate D2E/DX2                !
 ! D65   D(9,8,13,60)          178.1103         estimate D2E/DX2                !
 ! D66   D(8,9,10,11)           -1.5976         estimate D2E/DX2                !
 ! D67   D(8,9,10,39)          178.959          estimate D2E/DX2                !
 ! D68   D(38,9,10,11)         178.6178         estimate D2E/DX2                !
 ! D69   D(38,9,10,39)          -0.8256         estimate D2E/DX2                !
 ! D70   D(9,10,11,12)           0.5961         estimate D2E/DX2                !
 ! D71   D(9,10,11,17)        -178.698          estimate D2E/DX2                !
 ! D72   D(39,10,11,12)       -179.9577         estimate D2E/DX2                !
 ! D73   D(39,10,11,17)          0.7482         estimate D2E/DX2                !
 ! D74   D(10,11,12,13)          1.6605         estimate D2E/DX2                !
 ! D75   D(10,11,12,14)       -178.208          estimate D2E/DX2                !
 ! D76   D(17,11,12,13)       -179.0387         estimate D2E/DX2                !
 ! D77   D(17,11,12,14)          1.0928         estimate D2E/DX2                !
 ! D78   D(10,11,17,16)       -162.3302         estimate D2E/DX2                !
 ! D79   D(10,11,17,46)         76.8368         estimate D2E/DX2                !
 ! D80   D(10,11,17,47)        -38.4809         estimate D2E/DX2                !
 ! D81   D(12,11,17,16)         18.3934         estimate D2E/DX2                !
 ! D82   D(12,11,17,46)       -102.4396         estimate D2E/DX2                !
 ! D83   D(12,11,17,47)        142.2427         estimate D2E/DX2                !
 ! D84   D(11,12,13,8)          -2.8673         estimate D2E/DX2                !
 ! D85   D(11,12,13,60)       -178.6884         estimate D2E/DX2                !
 ! D86   D(14,12,13,8)         177.0106         estimate D2E/DX2                !
 ! D87   D(14,12,13,60)          1.1896         estimate D2E/DX2                !
 ! D88   D(11,12,14,15)         11.4555         estimate D2E/DX2                !
 ! D89   D(11,12,14,40)       -111.101          estimate D2E/DX2                !
 ! D90   D(11,12,14,41)        134.868          estimate D2E/DX2                !
 ! D91   D(13,12,14,15)       -168.4189         estimate D2E/DX2                !
 ! D92   D(13,12,14,40)         69.0245         estimate D2E/DX2                !
 ! D93   D(13,12,14,41)        -45.0064         estimate D2E/DX2                !
 ! D94   D(8,13,60,6)            1.4827         estimate D2E/DX2                !
 ! D95   D(8,13,60,61)        -100.1628         estimate D2E/DX2                !
 ! D96   D(8,13,60,62)         109.1991         estimate D2E/DX2                !
 ! D97   D(12,13,60,6)         177.5654         estimate D2E/DX2                !
 ! D98   D(12,13,60,61)         75.9199         estimate D2E/DX2                !
 ! D99   D(12,13,60,62)        -74.7182         estimate D2E/DX2                !
 ! D100  D(12,14,15,16)        -42.8674         estimate D2E/DX2                !
 ! D101  D(12,14,15,42)       -165.4869         estimate D2E/DX2                !
 ! D102  D(12,14,15,43)         77.6535         estimate D2E/DX2                !
 ! D103  D(40,14,15,16)         78.0471         estimate D2E/DX2                !
 ! D104  D(40,14,15,42)        -44.5725         estimate D2E/DX2                !
 ! D105  D(40,14,15,43)       -161.4321         estimate D2E/DX2                !
 ! D106  D(41,14,15,16)       -163.8164         estimate D2E/DX2                !
 ! D107  D(41,14,15,42)         73.5641         estimate D2E/DX2                !
 ! D108  D(41,14,15,43)        -43.2955         estimate D2E/DX2                !
 ! D109  D(14,15,16,17)         63.0924         estimate D2E/DX2                !
 ! D110  D(14,15,16,44)        -57.5824         estimate D2E/DX2                !
 ! D111  D(14,15,16,45)       -175.4443         estimate D2E/DX2                !
 ! D112  D(42,15,16,17)       -175.0798         estimate D2E/DX2                !
 ! D113  D(42,15,16,44)         64.2454         estimate D2E/DX2                !
 ! D114  D(42,15,16,45)        -53.6164         estimate D2E/DX2                !
 ! D115  D(43,15,16,17)        -57.7463         estimate D2E/DX2                !
 ! D116  D(43,15,16,44)       -178.4211         estimate D2E/DX2                !
 ! D117  D(43,15,16,45)         63.717          estimate D2E/DX2                !
 ! D118  D(15,16,17,11)        -49.7693         estimate D2E/DX2                !
 ! D119  D(15,16,17,46)         70.7565         estimate D2E/DX2                !
 ! D120  D(15,16,17,47)       -172.7216         estimate D2E/DX2                !
 ! D121  D(44,16,17,11)         70.8516         estimate D2E/DX2                !
 ! D122  D(44,16,17,46)       -168.6225         estimate D2E/DX2                !
 ! D123  D(44,16,17,47)        -52.1007         estimate D2E/DX2                !
 ! D124  D(45,16,17,11)       -172.0547         estimate D2E/DX2                !
 ! D125  D(45,16,17,46)        -51.5289         estimate D2E/DX2                !
 ! D126  D(45,16,17,47)         64.9929         estimate D2E/DX2                !
 ! D127  D(7,18,19,5)          -16.9453         estimate D2E/DX2                !
 ! D128  D(7,18,19,20)          99.7558         estimate D2E/DX2                !
 ! D129  D(7,18,19,26)        -139.5389         estimate D2E/DX2                !
 ! D130  D(5,19,20,21)          83.9969         estimate D2E/DX2                !
 ! D131  D(5,19,20,25)         -90.32           estimate D2E/DX2                !
 ! D132  D(18,19,20,21)        -26.1868         estimate D2E/DX2                !
 ! D133  D(18,19,20,25)        159.4963         estimate D2E/DX2                !
 ! D134  D(26,19,20,21)       -142.7746         estimate D2E/DX2                !
 ! D135  D(26,19,20,25)         42.9084         estimate D2E/DX2                !
 ! D136  D(5,19,26,27)        -175.0433         estimate D2E/DX2                !
 ! D137  D(5,19,26,31)           4.7627         estimate D2E/DX2                !
 ! D138  D(18,19,26,27)        -62.8147         estimate D2E/DX2                !
 ! D139  D(18,19,26,31)        116.9913         estimate D2E/DX2                !
 ! D140  D(20,19,26,27)         54.5957         estimate D2E/DX2                !
 ! D141  D(20,19,26,31)       -125.5983         estimate D2E/DX2                !
 ! D142  D(19,20,21,22)       -174.0027         estimate D2E/DX2                !
 ! D143  D(19,20,21,48)          5.7055         estimate D2E/DX2                !
 ! D144  D(25,20,21,22)          0.3249         estimate D2E/DX2                !
 ! D145  D(25,20,21,48)       -179.9669         estimate D2E/DX2                !
 ! D146  D(19,20,25,24)        173.7955         estimate D2E/DX2                !
 ! D147  D(19,20,25,52)         -5.2169         estimate D2E/DX2                !
 ! D148  D(21,20,25,24)         -0.6625         estimate D2E/DX2                !
 ! D149  D(21,20,25,52)       -179.675          estimate D2E/DX2                !
 ! D150  D(20,21,22,23)          0.217          estimate D2E/DX2                !
 ! D151  D(20,21,22,49)        179.7446         estimate D2E/DX2                !
 ! D152  D(48,21,22,23)       -179.4954         estimate D2E/DX2                !
 ! D153  D(48,21,22,49)          0.0323         estimate D2E/DX2                !
 ! D154  D(21,22,23,24)         -0.4254         estimate D2E/DX2                !
 ! D155  D(21,22,23,50)        179.5623         estimate D2E/DX2                !
 ! D156  D(49,22,23,24)       -179.9491         estimate D2E/DX2                !
 ! D157  D(49,22,23,50)          0.0386         estimate D2E/DX2                !
 ! D158  D(22,23,24,25)          0.089          estimate D2E/DX2                !
 ! D159  D(22,23,24,51)        179.9569         estimate D2E/DX2                !
 ! D160  D(50,23,24,25)       -179.8988         estimate D2E/DX2                !
 ! D161  D(50,23,24,51)         -0.0308         estimate D2E/DX2                !
 ! D162  D(23,24,25,20)          0.4591         estimate D2E/DX2                !
 ! D163  D(23,24,25,52)        179.4703         estimate D2E/DX2                !
 ! D164  D(51,24,25,20)       -179.4098         estimate D2E/DX2                !
 ! D165  D(51,24,25,52)         -0.3985         estimate D2E/DX2                !
 ! D166  D(19,26,27,28)        179.3709         estimate D2E/DX2                !
 ! D167  D(19,26,27,53)         -0.9035         estimate D2E/DX2                !
 ! D168  D(31,26,27,28)         -0.446          estimate D2E/DX2                !
 ! D169  D(31,26,27,53)        179.2796         estimate D2E/DX2                !
 ! D170  D(19,26,31,30)        179.9184         estimate D2E/DX2                !
 ! D171  D(19,26,31,57)          0.1183         estimate D2E/DX2                !
 ! D172  D(27,26,31,30)         -0.2783         estimate D2E/DX2                !
 ! D173  D(27,26,31,57)        179.9216         estimate D2E/DX2                !
 ! D174  D(26,27,28,29)          0.7902         estimate D2E/DX2                !
 ! D175  D(26,27,28,54)       -179.6477         estimate D2E/DX2                !
 ! D176  D(53,27,28,29)       -178.9326         estimate D2E/DX2                !
 ! D177  D(53,27,28,54)          0.6295         estimate D2E/DX2                !
 ! D178  D(27,28,29,30)         -0.4028         estimate D2E/DX2                !
 ! D179  D(27,28,29,55)        179.4677         estimate D2E/DX2                !
 ! D180  D(54,28,29,30)       -179.9631         estimate D2E/DX2                !
 ! D181  D(54,28,29,55)         -0.0925         estimate D2E/DX2                !
 ! D182  D(28,29,30,31)         -0.3167         estimate D2E/DX2                !
 ! D183  D(28,29,30,56)        179.8841         estimate D2E/DX2                !
 ! D184  D(55,29,30,31)        179.8128         estimate D2E/DX2                !
 ! D185  D(55,29,30,56)          0.0136         estimate D2E/DX2                !
 ! D186  D(29,30,31,26)          0.6611         estimate D2E/DX2                !
 ! D187  D(29,30,31,57)       -179.5338         estimate D2E/DX2                !
 ! D188  D(56,30,31,26)       -179.5379         estimate D2E/DX2                !
 ! D189  D(56,30,31,57)          0.2672         estimate D2E/DX2                !
 ! D190  D(4,32,33,1)           -0.5677         estimate D2E/DX2                !
 ! D191  D(4,32,33,59)         179.7731         estimate D2E/DX2                !
 ! D192  D(58,32,33,1)        -179.7383         estimate D2E/DX2                !
 ! D193  D(58,32,33,59)          0.6024         estimate D2E/DX2                !
 --------------------------------------------------------------------------------
 Trust Radius=3.00D-01 FncErr=1.00D-07 GrdErr=1.00D-06 EigMax=2.50D+02 EigMin=1.00D-04
 Number of steps in this run=    372 maximum allowed number of steps=    372.
 GradGradGradGradGradGradGradGradGradGradGradGradGradGradGradGradGradGrad

 Stoichiometry    C30H26F2N2NiO(3)
 Framework group  C1[X(C30H26F2N2NiO)]
 Deg. of freedom   180
 Full point group                 C1      NOp   1
 Largest Abelian subgroup         C1      NOp   1
 Largest concise Abelian subgroup C1      NOp   1
                         Standard orientation:                         
 ---------------------------------------------------------------------
 Center     Atomic      Atomic             Coordinates (Angstroms)
 Number     Number       Type             X           Y           Z
 ---------------------------------------------------------------------
      1          6           0        3.100972    4.122143   -0.170419
      2          6           0        1.833497    3.819682    0.325990
      3          6           0        1.235323    2.587465    0.056773
      4          6           0        1.914211    1.648799   -0.727453
      5          6           0        1.336372    0.278341   -0.993889
      6          7           0       -0.113474    0.198428   -0.800994
      7          6           0       -0.383465   -0.913221   -0.222026
      8          6           0       -1.766183   -1.288860    0.088893
      9          6           0       -2.150524   -2.477701    0.696182
     10          6           0       -3.508689   -2.655493    0.953857
     11          6           0       -4.431484   -1.655006    0.639885
     12          6           0       -3.948284   -0.471572    0.045415
     13          7           0       -2.650583   -0.329238   -0.238385
     14          6           0       -4.830728    0.699339   -0.306560
     15          6           0       -6.236261    0.589183    0.294150
     16          6           0       -6.779137   -0.836417    0.149189
     17          6           0       -5.905443   -1.818623    0.938964
     18          8           0        0.634224   -1.697241    0.146781
     19          6           0        1.870287   -0.878028   -0.046855
     20          6           0        2.274795   -0.329249    1.313589
     21          6           0        1.335687   -0.131767    2.330048
     22          6           0        1.707392    0.487523    3.523368
     23          6           0        3.018717    0.919871    3.712334
     24          6           0        3.961477    0.721347    2.702703
     25          6           0        3.593023    0.097114    1.514241
     26          6           0        2.911081   -1.815195   -0.629217
     27          6           0        3.310124   -2.903361    0.162165
     28          6           0        4.249935   -3.816377   -0.303444
     29          6           0        4.822766   -3.648884   -1.567035
     30          6           0        4.439607   -2.568357   -2.356796
     31          6           0        3.483875   -1.660220   -1.893242
     32          6           0        3.177050    1.961379   -1.242832
     33          6           0        3.772432    3.189202   -0.962281
     34          1           0        3.559902    5.082517    0.047975
     35          1           0        1.294673    4.546275    0.927446
     36          1           0        0.233242    2.390128    0.431676
     37          1           0        1.520418    0.010968   -2.039114
     38          1           0       -1.410275   -3.227703    0.949405
     39          1           0       -3.856854   -3.577530    1.412239
     40          1           0       -4.881008    0.763906   -1.402513
     41          1           0       -4.316285    1.607736    0.031242
     42          1           0       -6.899900    1.310845   -0.192837
     43          1           0       -6.205036    0.855952    1.359258
     44          1           0       -6.786651   -1.120409   -0.911964
     45          1           0       -7.813370   -0.899031    0.504448
     46          1           0       -6.064033   -1.655375    2.015200
     47          1           0       -6.203619   -2.855487    0.741589
     48          1           0        0.309177   -0.452699    2.200822
     49          1           0        0.964341    0.636952    4.301182
     50          1           0        3.305016    1.408316    4.639259
     51          1           0        4.986284    1.054513    2.837990
     52          1           0        4.328499   -0.046213    0.730564
     53          1           0        2.877737   -3.023332    1.150448
     54          1           0        4.541868   -4.655457    0.321465
     55          1           0        5.563433   -4.355764   -1.929578
     56          1           0        4.878554   -2.425786   -3.339856
     57          1           0        3.202329   -0.834695   -2.535541
     58          1           0        3.707017    1.237788   -1.856449
     59          1           0        4.755017    3.417912   -1.365717
     60         28           0       -1.777578    1.345944   -1.069910
     61          9           0       -1.823055    2.344807    0.486537
     62          9           0       -2.176303    1.443467   -2.833640
 ---------------------------------------------------------------------
 Rotational constants (GHZ):           0.1628105           0.0755218           0.0661514
 General basis read from cards:  (6D, 7F)
 ======================================================================================================
                                       Pseudopotential Parameters
 ======================================================================================================
  Center     Atomic      Valence      Angular      Power
  Number     Number     Electrons     Momentum     of R      Exponent        Coefficient   SO-Coeffient
 ======================================================================================================
    1          6
                                   No pseudopotential on this center.
    2          6
                                   No pseudopotential on this center.
    3          6
                                   No pseudopotential on this center.
    4          6
                                   No pseudopotential on this center.
    5          6
                                   No pseudopotential on this center.
    6          7
                                   No pseudopotential on this center.
    7          6
                                   No pseudopotential on this center.
    8          6
                                   No pseudopotential on this center.
    9          6
                                   No pseudopotential on this center.
   10          6
                                   No pseudopotential on this center.
   11          6
                                   No pseudopotential on this center.
   12          6
                                   No pseudopotential on this center.
   13          7
                                   No pseudopotential on this center.
   14          6
                                   No pseudopotential on this center.
   15          6
                                   No pseudopotential on this center.
   16          6
                                   No pseudopotential on this center.
   17          6
                                   No pseudopotential on this center.
   18          8
                                   No pseudopotential on this center.
   19          6
                                   No pseudopotential on this center.
   20          6
                                   No pseudopotential on this center.
   21          6
                                   No pseudopotential on this center.
   22          6
                                   No pseudopotential on this center.
   23          6
                                   No pseudopotential on this center.
   24          6
                                   No pseudopotential on this center.
   25          6
                                   No pseudopotential on this center.
   26          6
                                   No pseudopotential on this center.
   27          6
                                   No pseudopotential on this center.
   28          6
                                   No pseudopotential on this center.
   29          6
                                   No pseudopotential on this center.
   30          6
                                   No pseudopotential on this center.
   31          6
                                   No pseudopotential on this center.
   32          6
                                   No pseudopotential on this center.
   33          6
                                   No pseudopotential on this center.
   34          1
                                   No pseudopotential on this center.
   35          1
                                   No pseudopotential on this center.
   36          1
                                   No pseudopotential on this center.
   37          1
                                   No pseudopotential on this center.
   38          1
                                   No pseudopotential on this center.
   39          1
                                   No pseudopotential on this center.
   40          1
                                   No pseudopotential on this center.
   41          1
                                   No pseudopotential on this center.
   42          1
                                   No pseudopotential on this center.
   43          1
                                   No pseudopotential on this center.
   44          1
                                   No pseudopotential on this center.
   45          1
                                   No pseudopotential on this center.
   46          1
                                   No pseudopotential on this center.
   47          1
                                   No pseudopotential on this center.
   48          1
                                   No pseudopotential on this center.
   49          1
                                   No pseudopotential on this center.
   50          1
                                   No pseudopotential on this center.
   51          1
                                   No pseudopotential on this center.
   52          1
                                   No pseudopotential on this center.
   53          1
                                   No pseudopotential on this center.
   54          1
                                   No pseudopotential on this center.
   55          1
                                   No pseudopotential on this center.
   56          1
                                   No pseudopotential on this center.
   57          1
                                   No pseudopotential on this center.
   58          1
                                   No pseudopotential on this center.
   59          1
                                   No pseudopotential on this center.
   60         28           18
                                      D and up 
                                                     1      469.9324331      -10.00000000    0.00000000
                                                     2       85.4236411      -69.40848050    0.00000000
                                                     2       21.2674984      -12.09510200    0.00000000
                                      S - D
                                                     0      162.1686097        3.00000000    0.00000000
                                                     1      176.5333232       22.02536180    0.00000000
                                                     2       68.9562010      443.01810880    0.00000000
                                                     2       13.5792838      145.56964110    0.00000000
                                      P - D
                                                     0       69.0181506        5.00000000    0.00000000
                                                     1      275.5955596        4.98828240    0.00000000
                                                     2       47.1315453      256.69458530    0.00000000
                                                     2       12.9874075       78.47544500    0.00000000
   61          9
                                   No pseudopotential on this center.
   62          9
                                   No pseudopotential on this center.
 ======================================================================================================
 There are   654 symmetry adapted cartesian basis functions of A   symmetry.
 There are   651 symmetry adapted basis functions of A   symmetry.
   651 basis functions,  1238 primitive gaussians,   654 cartesian basis functions
   133 alpha electrons      131 beta electrons
       nuclear repulsion energy      4226.1016585736 Hartrees.
 NAtoms=   62 NActive=   62 NUniq=   62 SFac= 1.00D+00 NAtFMM=   60 NAOKFM=T Big=T
 Integral buffers will be    131072 words long.
 Raffenetti 2 integral format.
 Two-electron integral symmetry is turned on.
 Nuclear repulsion after empirical dispersion term =     4225.9345843609 Hartrees.
 One-electron integrals computed using PRISM.
 PrsmSu:  requested number of processors reduced to:  12 ShMem   1 Linda.
   1 Symmetry operations used in ECPInt.
 ECPInt:  NShTT=   22791 NPrTT=  142008 LenC2=   18123 LenP2D=   59667.
 LDataN:  DoStor=T MaxTD1= 6 Len=  172
 Number of processors reduced to  11 by ecpmxn.
 NBasis=   651 RedAO= T EigKep=  1.01D-06  NBF=   651
 NBsUse=   651 1.00D-06 EigRej= -1.00D+00 NBFU=   651
 ExpMin= 2.40D-02 ExpMax= 7.14D+04 ExpMxC= 1.07D+04 IAcc=3 IRadAn=         5 AccDes= 0.00D+00
 Harris functional with IExCor=  402 and IRadAn=       5 diagonalized for initial guess.
 HarFok:  IExCor=  402 AccDes= 0.00D+00 IRadAn=         5 IDoV= 1 UseB2=F ITyADJ=14
 ICtDFT=  3500011 ScaDFX=  1.000000  1.000000  1.000000  1.000000
 FoFCou: FMM=F IPFlag=           0 FMFlag=      100000 FMFlg1=        2001
         NFxFlg=           0 DoJE=T BraDBF=F KetDBF=T FulRan=T
         wScrn=  0.000000 ICntrl=       500 IOpCl=  0 I1Cent=   200000004 NGrid=           0
         NMat0=    1 NMatS0=      1 NMatT0=    0 NMatD0=    1 NMtDS0=    0 NMtDT0=    0
 Petite list used in FoFCou.
 Initial guess <Sx>= 0.0000 <Sy>= 0.0000 <Sz>= 1.0000 <S**2>= 2.0000 S= 1.0000
 Requested convergence on RMS density matrix=1.00D-08 within 128 cycles.
 Requested convergence on MAX density matrix=1.00D-06.
 Requested convergence on             energy=1.00D-06.
 No special actions if energy rises.
 EnCoef did   100 forward-backward iterations
 Restarting incremental Fock formation.
 Restarting incremental Fock formation.
 SCF Done:  E(UB3LYP) =  -1712.90146086     A.U. after   44 cycles
            NFock= 44  Conv=0.30D-08     -V/T= 2.0467
 <Sx>= 0.0000 <Sy>= 0.0000 <Sz>= 1.0000 <S**2>= 2.0069 S= 1.0023
 <L.S>=  0.00000000000    
 Annihilation of the first spin contaminant:
 S**2 before annihilation     2.0069,   after     2.0000

 **********************************************************************

            Population analysis using the SCF Density.

 **********************************************************************

 Orbital symmetries:
 Alpha Orbitals:
       Occupied  (A) (A) (A) (A) (A) (A) (A) (A) (A) (A) (A) (A)
                 (A) (A) (A) (A) (A) (A) (A) (A) (A) (A) (A) (A)
                 (A) (A) (A) (A) (A) (A) (A) (A) (A) (A) (A) (A)
                 (A) (A) (A) (A) (A) (A) (A) (A) (A) (A) (A) (A)
                 (A) (A) (A) (A) (A) (A) (A) (A) (A) (A) (A) (A)
                 (A) (A) (A) (A) (A) (A) (A) (A) (A) (A) (A) (A)
                 (A) (A) (A) (A) (A) (A) (A) (A) (A) (A) (A) (A)
                 (A) (A) (A) (A) (A) (A) (A) (A) (A) (A) (A) (A)
                 (A) (A) (A) (A) (A) (A) (A) (A) (A) (A) (A) (A)
                 (A) (A) (A) (A) (A) (A) (A) (A) (A) (A) (A) (A)
                 (A) (A) (A) (A) (A) (A) (A) (A) (A) (A) (A) (A)
                 (A)
       Virtual   (A) (A) (A) (A) (A) (A) (A) (A) (A) (A) (A) (A)
                 (A) (A) (A) (A) (A) (A) (A) (A) (A) (A) (A) (A)
                 (A) (A) (A) (A) (A) (A) (A) (A) (A) (A) (A) (A)
                 (A) (A) (A) (A) (A) (A) (A) (A) (A) (A) (A) (A)
                 (A) (A) (A) (A) (A) (A) (A) (A) (A) (A) (A) (A)
                 (A) (A) (A) (A) (A) (A) (A) (A) (A) (A) (A) (A)
                 (A) (A) (A) (A) (A) (A) (A) (A) (A) (A) (A) (A)
                 (A) (A) (A) (A) (A) (A) (A) (A) (A) (A) (A) (A)
                 (A) (A) (A) (A) (A) (A) (A) (A) (A) (A) (A) (A)
                 (A) (A) (A) (A) (A) (A) (A) (A) (A) (A) (A) (A)
                 (A) (A) (A) (A) (A) (A) (A) (A) (A) (A) (A) (A)
                 (A) (A) (A) (A) (A) (A) (A) (A) (A) (A) (A) (A)
                 (A) (A) (A) (A) (A) (A) (A) (A) (A) (A) (A) (A)
                 (A) (A) (A) (A) (A) (A) (A) (A) (A) (A) (A) (A)
                 (A) (A) (A) (A) (A) (A) (A) (A) (A) (A) (A) (A)
                 (A) (A) (A) (A) (A) (A) (A) (A) (A) (A) (A) (A)
                 (A) (A) (A) (A) (A) (A) (A) (A) (A) (A) (A) (A)
                 (A) (A) (A) (A) (A) (A) (A) (A) (A) (A) (A) (A)
                 (A) (A) (A) (A) (A) (A) (A) (A) (A) (A) (A) (A)
                 (A) (A) (A) (A) (A) (A) (A) (A) (A) (A) (A) (A)
                 (A) (A) (A) (A) (A) (A) (A) (A) (A) (A) (A) (A)
                 (A) (A) (A) (A) (A) (A) (A) (A) (A) (A) (A) (A)
                 (A) (A) (A) (A) (A) (A) (A) (A) (A) (A) (A) (A)
                 (A) (A) (A) (A) (A) (A) (A) (A) (A) (A) (A) (A)
                 (A) (A) (A) (A) (A) (A) (A) (A) (A) (A) (A) (A)
                 (A) (A) (A) (A) (A) (A) (A) (A) (A) (A) (A) (A)
                 (A) (A) (A) (A) (A) (A) (A) (A) (A) (A) (A) (A)
                 (A) (A) (A) (A) (A) (A) (A) (A) (A) (A) (A) (A)
                 (A) (A) (A) (A) (A) (A) (A) (A) (A) (A) (A) (A)
                 (A) (A) (A) (A) (A) (A) (A) (A) (A) (A) (A) (A)
                 (A) (A) (A) (A) (A) (A) (A) (A) (A) (A) (A) (A)
                 (A) (A) (A) (A) (A) (A) (A) (A) (A) (A) (A) (A)
                 (A) (A) (A) (A) (A) (A) (A) (A) (A) (A) (A) (A)
                 (A) (A) (A) (A) (A) (A) (A) (A) (A) (A) (A) (A)
                 (A) (A) (A) (A) (A) (A) (A) (A) (A) (A) (A) (A)
                 (A) (A) (A) (A) (A) (A) (A) (A) (A) (A) (A) (A)
                 (A) (A) (A) (A) (A) (A) (A) (A) (A) (A) (A) (A)
                 (A) (A) (A) (A) (A) (A) (A) (A) (A) (A) (A) (A)
                 (A) (A) (A) (A) (A) (A) (A) (A) (A) (A) (A) (A)
                 (A) (A) (A) (A) (A) (A) (A) (A) (A) (A) (A) (A)
                 (A) (A) (A) (A) (A) (A) (A) (A) (A) (A) (A) (A)
                 (A) (A) (A) (A) (A) (A) (A) (A) (A) (A) (A) (A)
                 (A) (A) (A) (A) (A) (A) (A) (A) (A) (A) (A) (A)
                 (A) (A)
 Beta  Orbitals:
       Occupied  (A) (A) (A) (A) (A) (A) (A) (A) (A) (A) (A) (A)
                 (A) (A) (A) (A) (A) (A) (A) (A) (A) (A) (A) (A)
                 (A) (A) (A) (A) (A) (A) (A) (A) (A) (A) (A) (A)
                 (A) (A) (A) (A) (A) (A) (A) (A) (A) (A) (A) (A)
                 (A) (A) (A) (A) (A) (A) (A) (A) (A) (A) (A) (A)
                 (A) (A) (A) (A) (A) (A) (A) (A) (A) (A) (A) (A)
                 (A) (A) (A) (A) (A) (A) (A) (A) (A) (A) (A) (A)
                 (A) (A) (A) (A) (A) (A) (A) (A) (A) (A) (A) (A)
                 (A) (A) (A) (A) (A) (A) (A) (A) (A) (A) (A) (A)
                 (A) (A) (A) (A) (A) (A) (A) (A) (A) (A) (A) (A)
                 (A) (A) (A) (A) (A) (A) (A) (A) (A) (A) (A)
       Virtual   (A) (A) (A) (A) (A) (A) (A) (A) (A) (A) (A) (A)
                 (A) (A) (A) (A) (A) (A) (A) (A) (A) (A) (A) (A)
                 (A) (A) (A) (A) (A) (A) (A) (A) (A) (A) (A) (A)
                 (A) (A) (A) (A) (A) (A) (A) (A) (A) (A) (A) (A)
                 (A) (A) (A) (A) (A) (A) (A) (A) (A) (A) (A) (A)
                 (A) (A) (A) (A) (A) (A) (A) (A) (A) (A) (A) (A)
                 (A) (A) (A) (A) (A) (A) (A) (A) (A) (A) (A) (A)
                 (A) (A) (A) (A) (A) (A) (A) (A) (A) (A) (A) (A)
                 (A) (A) (A) (A) (A) (A) (A) (A) (A) (A) (A) (A)
                 (A) (A) (A) (A) (A) (A) (A) (A) (A) (A) (A) (A)
                 (A) (A) (A) (A) (A) (A) (A) (A) (A) (A) (A) (A)
                 (A) (A) (A) (A) (A) (A) (A) (A) (A) (A) (A) (A)
                 (A) (A) (A) (A) (A) (A) (A) (A) (A) (A) (A) (A)
                 (A) (A) (A) (A) (A) (A) (A) (A) (A) (A) (A) (A)
                 (A) (A) (A) (A) (A) (A) (A) (A) (A) (A) (A) (A)
                 (A) (A) (A) (A) (A) (A) (A) (A) (A) (A) (A) (A)
                 (A) (A) (A) (A) (A) (A) (A) (A) (A) (A) (A) (A)
                 (A) (A) (A) (A) (A) (A) (A) (A) (A) (A) (A) (A)
                 (A) (A) (A) (A) (A) (A) (A) (A) (A) (A) (A) (A)
                 (A) (A) (A) (A) (A) (A) (A) (A) (A) (A) (A) (A)
                 (A) (A) (A) (A) (A) (A) (A) (A) (A) (A) (A) (A)
                 (A) (A) (A) (A) (A) (A) (A) (A) (A) (A) (A) (A)
                 (A) (A) (A) (A) (A) (A) (A) (A) (A) (A) (A) (A)
                 (A) (A) (A) (A) (A) (A) (A) (A) (A) (A) (A) (A)
                 (A) (A) (A) (A) (A) (A) (A) (A) (A) (A) (A) (A)
                 (A) (A) (A) (A) (A) (A) (A) (A) (A) (A) (A) (A)
                 (A) (A) (A) (A) (A) (A) (A) (A) (A) (A) (A) (A)
                 (A) (A) (A) (A) (A) (A) (A) (A) (A) (A) (A) (A)
                 (A) (A) (A) (A) (A) (A) (A) (A) (A) (A) (A) (A)
                 (A) (A) (A) (A) (A) (A) (A) (A) (A) (A) (A) (A)
                 (A) (A) (A) (A) (A) (A) (A) (A) (A) (A) (A) (A)
                 (A) (A) (A) (A) (A) (A) (A) (A) (A) (A) (A) (A)
                 (A) (A) (A) (A) (A) (A) (A) (A) (A) (A) (A) (A)
                 (A) (A) (A) (A) (A) (A) (A) (A) (A) (A) (A) (A)
                 (A) (A) (A) (A) (A) (A) (A) (A) (A) (A) (A) (A)
                 (A) (A) (A) (A) (A) (A) (A) (A) (A) (A) (A) (A)
                 (A) (A) (A) (A) (A) (A) (A) (A) (A) (A) (A) (A)
                 (A) (A) (A) (A) (A) (A) (A) (A) (A) (A) (A) (A)
                 (A) (A) (A) (A) (A) (A) (A) (A) (A) (A) (A) (A)
                 (A) (A) (A) (A) (A) (A) (A) (A) (A) (A) (A) (A)
                 (A) (A) (A) (A) (A) (A) (A) (A) (A) (A) (A) (A)
                 (A) (A) (A) (A) (A) (A) (A) (A) (A) (A) (A) (A)
                 (A) (A) (A) (A) (A) (A) (A) (A) (A) (A) (A) (A)
                 (A) (A) (A) (A)
 The electronic state is 3-A.
 Alpha  occ. eigenvalues --  -24.54714 -24.54494 -19.21417 -14.38159 -14.36090
 Alpha  occ. eigenvalues --  -10.31161 -10.28339 -10.26694 -10.25831 -10.24433
 Alpha  occ. eigenvalues --  -10.23407 -10.23266 -10.23120 -10.21446 -10.21211
 Alpha  occ. eigenvalues --  -10.20659 -10.20427 -10.20367 -10.20328 -10.20290
 Alpha  occ. eigenvalues --  -10.20260 -10.19921 -10.19496 -10.19453 -10.19337
 Alpha  occ. eigenvalues --  -10.19257 -10.19230 -10.19179 -10.19153 -10.19071
 Alpha  occ. eigenvalues --  -10.18333 -10.18198 -10.17952 -10.17559 -10.16813
 Alpha  occ. eigenvalues --   -4.08705  -2.69648  -2.69028  -2.68208  -1.12122
 Alpha  occ. eigenvalues --   -1.00656  -1.00167  -0.99172  -0.94160  -0.88086
 Alpha  occ. eigenvalues --   -0.86090  -0.85725  -0.84523  -0.83650  -0.81627
 Alpha  occ. eigenvalues --   -0.78484  -0.76346  -0.75945  -0.75674  -0.75077
 Alpha  occ. eigenvalues --   -0.74665  -0.73292  -0.72055  -0.67987  -0.67223
 Alpha  occ. eigenvalues --   -0.65328  -0.64000  -0.62445  -0.61600  -0.61241
 Alpha  occ. eigenvalues --   -0.60190  -0.59648  -0.58359  -0.57623  -0.56777
 Alpha  occ. eigenvalues --   -0.55058  -0.53645  -0.53422  -0.51949  -0.50713
 Alpha  occ. eigenvalues --   -0.49799  -0.49140  -0.48570  -0.47392  -0.46947
 Alpha  occ. eigenvalues --   -0.46207  -0.45964  -0.45476  -0.45307  -0.44981
 Alpha  occ. eigenvalues --   -0.44796  -0.44337  -0.43482  -0.43344  -0.43126
 Alpha  occ. eigenvalues --   -0.42479  -0.42117  -0.41653  -0.41196  -0.41065
 Alpha  occ. eigenvalues --   -0.40618  -0.40430  -0.39709  -0.39419  -0.38919
 Alpha  occ. eigenvalues --   -0.37949  -0.37625  -0.37042  -0.36809  -0.36222
 Alpha  occ. eigenvalues --   -0.35557  -0.35423  -0.35171  -0.34942  -0.34557
 Alpha  occ. eigenvalues --   -0.34416  -0.34197  -0.33970  -0.33586  -0.33386
 Alpha  occ. eigenvalues --   -0.32967  -0.32204  -0.31253  -0.29656  -0.29060
 Alpha  occ. eigenvalues --   -0.28294  -0.28065  -0.26741  -0.26541  -0.26435
 Alpha  occ. eigenvalues --   -0.25536  -0.25191  -0.24669  -0.24035  -0.23646
 Alpha  occ. eigenvalues --   -0.23294  -0.22924  -0.22713
 Alpha virt. eigenvalues --   -0.08161  -0.04710  -0.02589  -0.01830  -0.01054
 Alpha virt. eigenvalues --   -0.00290   0.00359   0.01274   0.01996   0.02767
 Alpha virt. eigenvalues --    0.03396   0.03761   0.04405   0.07965   0.08547
 Alpha virt. eigenvalues --    0.09407   0.09523   0.10089   0.10670   0.11246
 Alpha virt. eigenvalues --    0.11577   0.12354   0.12850   0.13213   0.13461
 Alpha virt. eigenvalues --    0.13748   0.14278   0.14431   0.14791   0.14958
 Alpha virt. eigenvalues --    0.15232   0.15718   0.15758   0.16281   0.16457
 Alpha virt. eigenvalues --    0.16915   0.17218   0.17386   0.17825   0.18248
 Alpha virt. eigenvalues --    0.18290   0.18502   0.18856   0.19025   0.20184
 Alpha virt. eigenvalues --    0.20504   0.20947   0.21460   0.21932   0.22352
 Alpha virt. eigenvalues --    0.23288   0.23673   0.24251   0.24678   0.25075
 Alpha virt. eigenvalues --    0.25911   0.26180   0.26728   0.26970   0.27617
 Alpha virt. eigenvalues --    0.28109   0.28843   0.29118   0.30074   0.30546
 Alpha virt. eigenvalues --    0.30848   0.31068   0.31847   0.33119   0.33560
 Alpha virt. eigenvalues --    0.33799   0.34237   0.35111   0.35439   0.35729
 Alpha virt. eigenvalues --    0.36333   0.36833   0.37181   0.39067   0.39498
 Alpha virt. eigenvalues --    0.42019   0.44887   0.45803   0.46023   0.46476
 Alpha virt. eigenvalues --    0.47663   0.47737   0.49385   0.49650   0.50782
 Alpha virt. eigenvalues --    0.51151   0.51528   0.52237   0.52490   0.53133
 Alpha virt. eigenvalues --    0.53345   0.53481   0.53665   0.54319   0.54732
 Alpha virt. eigenvalues --    0.55176   0.55651   0.55670   0.56479   0.56532
 Alpha virt. eigenvalues --    0.56771   0.56989   0.57797   0.58382   0.58813
 Alpha virt. eigenvalues --    0.59121   0.59432   0.59650   0.59678   0.59973
 Alpha virt. eigenvalues --    0.60199   0.60659   0.60815   0.60972   0.61170
 Alpha virt. eigenvalues --    0.61517   0.61773   0.62274   0.62584   0.62798
 Alpha virt. eigenvalues --    0.63001   0.63362   0.64434   0.64582   0.65054
 Alpha virt. eigenvalues --    0.65171   0.65290   0.65752   0.66297   0.66380
 Alpha virt. eigenvalues --    0.66718   0.67350   0.67712   0.68333   0.69354
 Alpha virt. eigenvalues --    0.69695   0.70297   0.70708   0.71162   0.72602
 Alpha virt. eigenvalues --    0.73399   0.74733   0.75269   0.76214   0.76875
 Alpha virt. eigenvalues --    0.77198   0.78270   0.79488   0.79695   0.80407
 Alpha virt. eigenvalues --    0.80987   0.81053   0.81842   0.81991   0.82641
 Alpha virt. eigenvalues --    0.82731   0.83416   0.83775   0.83848   0.84475
 Alpha virt. eigenvalues --    0.84864   0.85091   0.85497   0.85780   0.85985
 Alpha virt. eigenvalues --    0.86449   0.86867   0.87460   0.88150   0.89028
 Alpha virt. eigenvalues --    0.89173   0.89678   0.90712   0.90969   0.91502
 Alpha virt. eigenvalues --    0.91752   0.92389   0.92645   0.92804   0.94062
 Alpha virt. eigenvalues --    0.94420   0.94987   0.95135   0.95544   0.95808
 Alpha virt. eigenvalues --    0.96345   0.96595   0.97069   0.97710   0.98117
 Alpha virt. eigenvalues --    0.99768   1.00148   1.00702   1.01636   1.02374
 Alpha virt. eigenvalues --    1.03288   1.03795   1.04642   1.05465   1.06462
 Alpha virt. eigenvalues --    1.06553   1.07076   1.07263   1.08310   1.08883
 Alpha virt. eigenvalues --    1.09038   1.10646   1.11840   1.12110   1.13421
 Alpha virt. eigenvalues --    1.13962   1.15336   1.16236   1.16537   1.16738
 Alpha virt. eigenvalues --    1.17655   1.18387   1.18527   1.19766   1.20161
 Alpha virt. eigenvalues --    1.20800   1.21282   1.21822   1.22630   1.24845
 Alpha virt. eigenvalues --    1.25286   1.27320   1.27608   1.29431   1.30491
 Alpha virt. eigenvalues --    1.30761   1.32040   1.33750   1.35290   1.36193
 Alpha virt. eigenvalues --    1.37589   1.37963   1.40186   1.41049   1.41708
 Alpha virt. eigenvalues --    1.41956   1.42300   1.42699   1.43358   1.43495
 Alpha virt. eigenvalues --    1.43788   1.44150   1.44910   1.45465   1.45751
 Alpha virt. eigenvalues --    1.46243   1.47190   1.48018   1.48602   1.49035
 Alpha virt. eigenvalues --    1.49577   1.49831   1.50187   1.50566   1.51279
 Alpha virt. eigenvalues --    1.51396   1.52021   1.52157   1.52739   1.53378
 Alpha virt. eigenvalues --    1.54572   1.55747   1.58278   1.59742   1.60858
 Alpha virt. eigenvalues --    1.61882   1.64099   1.64641   1.65131   1.67950
 Alpha virt. eigenvalues --    1.68936   1.69122   1.69987   1.71448   1.72499
 Alpha virt. eigenvalues --    1.73093   1.74213   1.75687   1.77020   1.77473
 Alpha virt. eigenvalues --    1.77783   1.78396   1.79894   1.81256   1.81934
 Alpha virt. eigenvalues --    1.82334   1.82947   1.83561   1.84212   1.84647
 Alpha virt. eigenvalues --    1.84951   1.85782   1.86775   1.87383   1.88397
 Alpha virt. eigenvalues --    1.88996   1.89106   1.90347   1.90518   1.90933
 Alpha virt. eigenvalues --    1.91148   1.91329   1.92870   1.93173   1.93297
 Alpha virt. eigenvalues --    1.93698   1.94074   1.94916   1.95054   1.96718
 Alpha virt. eigenvalues --    1.97371   1.98094   1.98633   1.98795   1.99731
 Alpha virt. eigenvalues --    1.99833   2.01002   2.01411   2.02443   2.04104
 Alpha virt. eigenvalues --    2.05119   2.05526   2.06482   2.06825   2.07166
 Alpha virt. eigenvalues --    2.08041   2.08374   2.09033   2.09277   2.12428
 Alpha virt. eigenvalues --    2.13153   2.13472   2.13828   2.14101   2.14750
 Alpha virt. eigenvalues --    2.15293   2.15414   2.15542   2.15778   2.16728
 Alpha virt. eigenvalues --    2.17487   2.17826   2.18366   2.18858   2.19437
 Alpha virt. eigenvalues --    2.19843   2.20145   2.20464   2.21065   2.22445
 Alpha virt. eigenvalues --    2.22698   2.24697   2.25732   2.26955   2.27039
 Alpha virt. eigenvalues --    2.28386   2.28451   2.28881   2.29909   2.30445
 Alpha virt. eigenvalues --    2.31070   2.31255   2.32038   2.32413   2.33057
 Alpha virt. eigenvalues --    2.34718   2.35243   2.36265   2.37325   2.38006
 Alpha virt. eigenvalues --    2.38593   2.39981   2.41418   2.42037   2.43264
 Alpha virt. eigenvalues --    2.44250   2.45218   2.46624   2.48264   2.49723
 Alpha virt. eigenvalues --    2.50734   2.53274   2.55000   2.56117   2.56988
 Alpha virt. eigenvalues --    2.57233   2.57863   2.58317   2.59082   2.59486
 Alpha virt. eigenvalues --    2.59599   2.61058   2.61784   2.62472   2.63101
 Alpha virt. eigenvalues --    2.63789   2.64339   2.65146   2.66124   2.66678
 Alpha virt. eigenvalues --    2.67882   2.68908   2.69428   2.70792   2.71465
 Alpha virt. eigenvalues --    2.71926   2.72665   2.72786   2.73613   2.73945
 Alpha virt. eigenvalues --    2.74695   2.75606   2.75776   2.75984   2.77555
 Alpha virt. eigenvalues --    2.77983   2.78162   2.78907   2.80235   2.82634
 Alpha virt. eigenvalues --    2.83569   2.85693   2.87213   2.88105   2.91097
 Alpha virt. eigenvalues --    2.92812   2.92864   2.96135   2.98263   3.00097
 Alpha virt. eigenvalues --    3.04732   3.06803   3.09752   3.10515   3.16202
 Alpha virt. eigenvalues --    3.18027   3.30626   3.37733   3.40291   3.41956
 Alpha virt. eigenvalues --    3.42781   3.44915   3.53133   3.58795   3.75150
 Alpha virt. eigenvalues --    4.01610   4.07883   4.08127   4.09115   4.10121
 Alpha virt. eigenvalues --    4.11438   4.11735   4.12355   4.13385   4.15117
 Alpha virt. eigenvalues --    4.16435   4.17235   4.19538   4.21749   4.24827
 Alpha virt. eigenvalues --    4.26413   4.27413   4.30214   4.33215   4.35588
 Alpha virt. eigenvalues --    4.37767   4.39247   4.40834   4.45260   4.48487
 Alpha virt. eigenvalues --    4.50190   4.51705   4.54325   4.58007   4.60471
 Alpha virt. eigenvalues --    4.70971   4.74034   4.77430   4.78361   4.85799
 Alpha virt. eigenvalues --    4.99761   5.12605   5.93383   5.99892   6.06973
 Alpha virt. eigenvalues --    6.08501   6.30814  11.33599  17.52151  17.70119
 Alpha virt. eigenvalues --   17.94780  18.04428  18.85461  22.82047  22.93564
 Alpha virt. eigenvalues --   23.11982  26.30187  57.01593 118.92132 118.97175
 Alpha virt. eigenvalues --  119.04957 134.97962 381.86310 927.06477 927.32008
 Alpha virt. eigenvalues --  928.328751467.71367**********
  Beta  occ. eigenvalues --  -24.54437 -24.54292 -19.21419 -14.37956 -14.35899
  Beta  occ. eigenvalues --  -10.31178 -10.28331 -10.26702 -10.25841 -10.24425
  Beta  occ. eigenvalues --  -10.23415 -10.23257 -10.23114 -10.21446 -10.21209
  Beta  occ. eigenvalues --  -10.20659 -10.20427 -10.20367 -10.20328 -10.20291
  Beta  occ. eigenvalues --  -10.20259 -10.19920 -10.19490 -10.19452 -10.19336
  Beta  occ. eigenvalues --  -10.19257 -10.19229 -10.19180 -10.19153 -10.19068
  Beta  occ. eigenvalues --  -10.18333 -10.18197 -10.17953 -10.17559 -10.16814
  Beta  occ. eigenvalues --   -3.97782  -2.57787  -2.57715  -2.56765  -1.12103
  Beta  occ. eigenvalues --   -1.00048  -0.99589  -0.98963  -0.93961  -0.88081
  Beta  occ. eigenvalues --   -0.86081  -0.85703  -0.84510  -0.83616  -0.81621
  Beta  occ. eigenvalues --   -0.78472  -0.76333  -0.75941  -0.75655  -0.75074
  Beta  occ. eigenvalues --   -0.74664  -0.73292  -0.72044  -0.67961  -0.67194
  Beta  occ. eigenvalues --   -0.65298  -0.63933  -0.62425  -0.61597  -0.61223
  Beta  occ. eigenvalues --   -0.60183  -0.59642  -0.58342  -0.57573  -0.56723
  Beta  occ. eigenvalues --   -0.54950  -0.53603  -0.53328  -0.51927  -0.50683
  Beta  occ. eigenvalues --   -0.49762  -0.49119  -0.48518  -0.47365  -0.46906
  Beta  occ. eigenvalues --   -0.46112  -0.45889  -0.45437  -0.45239  -0.44974
  Beta  occ. eigenvalues --   -0.44767  -0.44048  -0.43435  -0.43337  -0.42974
  Beta  occ. eigenvalues --   -0.42454  -0.41936  -0.41530  -0.41163  -0.41041
  Beta  occ. eigenvalues --   -0.40512  -0.40383  -0.39400  -0.37924  -0.37624
  Beta  occ. eigenvalues --   -0.37207  -0.36774  -0.36174  -0.35442  -0.35263
  Beta  occ. eigenvalues --   -0.34930  -0.34823  -0.34471  -0.34314  -0.34025
  Beta  occ. eigenvalues --   -0.33600  -0.33362  -0.33276  -0.32371  -0.31675
  Beta  occ. eigenvalues --   -0.31591  -0.30478  -0.29007  -0.28805  -0.27406
  Beta  occ. eigenvalues --   -0.27072  -0.26604  -0.26521  -0.26263  -0.26047
  Beta  occ. eigenvalues --   -0.25265  -0.24786  -0.23642  -0.23277  -0.21895
  Beta  occ. eigenvalues --   -0.20710
  Beta virt. eigenvalues --   -0.08010  -0.04698  -0.03041  -0.02553  -0.01828
  Beta virt. eigenvalues --   -0.01400  -0.00876  -0.00267   0.00374   0.01324
  Beta virt. eigenvalues --    0.02041   0.02839   0.03420   0.03979   0.04471
  Beta virt. eigenvalues --    0.08088   0.08609   0.09457   0.09626   0.10140
  Beta virt. eigenvalues --    0.10747   0.11561   0.12135   0.12412   0.12910
  Beta virt. eigenvalues --    0.13253   0.13580   0.13785   0.14452   0.14541
  Beta virt. eigenvalues --    0.14810   0.15043   0.15276   0.15726   0.15788
  Beta virt. eigenvalues --    0.16321   0.16485   0.16938   0.17243   0.17437
  Beta virt. eigenvalues --    0.17829   0.18276   0.18377   0.18517   0.18906
  Beta virt. eigenvalues --    0.19038   0.20240   0.20546   0.21022   0.21587
  Beta virt. eigenvalues --    0.22060   0.22379   0.23325   0.23713   0.24406
  Beta virt. eigenvalues --    0.24712   0.25144   0.25965   0.26346   0.26980
  Beta virt. eigenvalues --    0.27035   0.27707   0.28486   0.28898   0.29241
  Beta virt. eigenvalues --    0.30105   0.30551   0.30989   0.31374   0.31882
  Beta virt. eigenvalues --    0.33193   0.33616   0.33876   0.34324   0.35307
  Beta virt. eigenvalues --    0.35492   0.35943   0.36434   0.36874   0.37246
  Beta virt. eigenvalues --    0.39190   0.39658   0.42129   0.44934   0.45853
  Beta virt. eigenvalues --    0.46044   0.46544   0.47721   0.47947   0.49485
  Beta virt. eigenvalues --    0.49658   0.50819   0.51206   0.51549   0.52252
  Beta virt. eigenvalues --    0.52516   0.53241   0.53427   0.53493   0.53748
  Beta virt. eigenvalues --    0.54405   0.54775   0.55240   0.55701   0.55710
  Beta virt. eigenvalues --    0.56510   0.56586   0.56816   0.57076   0.57875
  Beta virt. eigenvalues --    0.58451   0.58821   0.59200   0.59450   0.59701
  Beta virt. eigenvalues --    0.59709   0.60007   0.60223   0.60684   0.60869
  Beta virt. eigenvalues --    0.60992   0.61229   0.61546   0.61801   0.62334
  Beta virt. eigenvalues --    0.62618   0.62891   0.63064   0.63462   0.64525
  Beta virt. eigenvalues --    0.64683   0.65183   0.65326   0.65482   0.65815
  Beta virt. eigenvalues --    0.66427   0.66703   0.66786   0.67535   0.67785
  Beta virt. eigenvalues --    0.68436   0.69456   0.69743   0.70546   0.70725
  Beta virt. eigenvalues --    0.71386   0.72674   0.73495   0.74875   0.75478
  Beta virt. eigenvalues --    0.76302   0.76894   0.77278   0.78370   0.79550
  Beta virt. eigenvalues --    0.79750   0.80587   0.81110   0.81264   0.81995
  Beta virt. eigenvalues --    0.82081   0.82650   0.82748   0.83491   0.83782
  Beta virt. eigenvalues --    0.83866   0.84496   0.84875   0.85144   0.85570
  Beta virt. eigenvalues --    0.85841   0.86065   0.86561   0.87006   0.87560
  Beta virt. eigenvalues --    0.88206   0.89121   0.89212   0.89805   0.90841
  Beta virt. eigenvalues --    0.91030   0.91686   0.91807   0.92495   0.92823
  Beta virt. eigenvalues --    0.92940   0.94261   0.94439   0.95012   0.95283
  Beta virt. eigenvalues --    0.95608   0.96144   0.96629   0.96651   0.97292
  Beta virt. eigenvalues --    0.97968   0.98346   0.99820   1.00210   1.00857
  Beta virt. eigenvalues --    1.01749   1.02458   1.03513   1.03982   1.04858
  Beta virt. eigenvalues --    1.05591   1.06563   1.06688   1.07181   1.07317
  Beta virt. eigenvalues --    1.08365   1.09024   1.09356   1.10713   1.12016
  Beta virt. eigenvalues --    1.12645   1.13547   1.14134   1.15361   1.16325
  Beta virt. eigenvalues --    1.16634   1.17272   1.17743   1.18446   1.18590
  Beta virt. eigenvalues --    1.19847   1.20230   1.20856   1.21338   1.21845
  Beta virt. eigenvalues --    1.22730   1.24921   1.25340   1.27373   1.27723
  Beta virt. eigenvalues --    1.29459   1.30556   1.30862   1.32117   1.34018
  Beta virt. eigenvalues --    1.35520   1.36648   1.37809   1.38048   1.40240
  Beta virt. eigenvalues --    1.41131   1.41887   1.41993   1.42347   1.42764
  Beta virt. eigenvalues --    1.43455   1.43587   1.43871   1.44184   1.44999
  Beta virt. eigenvalues --    1.45602   1.45817   1.46398   1.47214   1.48049
  Beta virt. eigenvalues --    1.48669   1.49106   1.49594   1.49841   1.50216
  Beta virt. eigenvalues --    1.50584   1.51303   1.51419   1.52195   1.52328
  Beta virt. eigenvalues --    1.52831   1.53482   1.54686   1.55866   1.58541
  Beta virt. eigenvalues --    1.59939   1.60957   1.61965   1.64249   1.64692
  Beta virt. eigenvalues --    1.65284   1.68034   1.68984   1.69184   1.70116
  Beta virt. eigenvalues --    1.71648   1.72806   1.73208   1.74290   1.75754
  Beta virt. eigenvalues --    1.77136   1.77684   1.77830   1.78576   1.79963
  Beta virt. eigenvalues --    1.81540   1.82007   1.82415   1.83159   1.83593
  Beta virt. eigenvalues --    1.84266   1.84756   1.85086   1.85834   1.86888
  Beta virt. eigenvalues --    1.87503   1.88535   1.89116   1.89232   1.90422
  Beta virt. eigenvalues --    1.90582   1.90968   1.91233   1.91662   1.92936
  Beta virt. eigenvalues --    1.93200   1.93417   1.93999   1.94171   1.95000
  Beta virt. eigenvalues --    1.95558   1.96846   1.97531   1.98144   1.98699
  Beta virt. eigenvalues --    1.99017   1.99774   2.00009   2.01216   2.01493
  Beta virt. eigenvalues --    2.02598   2.04207   2.05179   2.05556   2.06574
  Beta virt. eigenvalues --    2.07144   2.07495   2.08234   2.08461   2.09200
  Beta virt. eigenvalues --    2.09478   2.12536   2.13234   2.13542   2.13872
  Beta virt. eigenvalues --    2.14157   2.14864   2.15386   2.15446   2.15677
  Beta virt. eigenvalues --    2.15864   2.16902   2.17535   2.17952   2.18416
  Beta virt. eigenvalues --    2.18906   2.19636   2.19894   2.20253   2.20561
  Beta virt. eigenvalues --    2.21360   2.22671   2.22835   2.24894   2.25818
  Beta virt. eigenvalues --    2.27043   2.27194   2.28448   2.28539   2.29030
  Beta virt. eigenvalues --    2.29933   2.30465   2.31167   2.31312   2.32200
  Beta virt. eigenvalues --    2.32477   2.33320   2.34991   2.35336   2.36545
  Beta virt. eigenvalues --    2.37647   2.38230   2.39373   2.40286   2.41674
  Beta virt. eigenvalues --    2.42456   2.43466   2.44657   2.45583   2.47027
  Beta virt. eigenvalues --    2.48648   2.50207   2.51480   2.54145   2.55979
  Beta virt. eigenvalues --    2.56759   2.57192   2.58121   2.58187   2.58823
  Beta virt. eigenvalues --    2.59700   2.59858   2.60631   2.61344   2.61897
  Beta virt. eigenvalues --    2.63210   2.63550   2.64195   2.64721   2.65298
  Beta virt. eigenvalues --    2.66562   2.66896   2.68441   2.69212   2.69946
  Beta virt. eigenvalues --    2.71173   2.72008   2.72231   2.73075   2.73464
  Beta virt. eigenvalues --    2.74090   2.74367   2.75417   2.75976   2.76006
  Beta virt. eigenvalues --    2.76390   2.78108   2.78192   2.78872   2.79929
  Beta virt. eigenvalues --    2.80678   2.82971   2.83647   2.87210   2.87461
  Beta virt. eigenvalues --    2.88696   2.91341   2.93039   2.94010   2.96346
  Beta virt. eigenvalues --    2.98960   3.00832   3.05168   3.06986   3.09795
  Beta virt. eigenvalues --    3.10544   3.16472   3.18404   3.30819   3.40297
  Beta virt. eigenvalues --    3.40691   3.41960   3.42814   3.45397   3.55483
  Beta virt. eigenvalues --    3.63213   3.79377   4.04647   4.08020   4.08234
  Beta virt. eigenvalues --    4.09147   4.10153   4.11450   4.11856   4.12501
  Beta virt. eigenvalues --    4.13390   4.15153   4.16624   4.17587   4.20025
  Beta virt. eigenvalues --    4.21848   4.25003   4.26474   4.27498   4.30233
  Beta virt. eigenvalues --    4.33229   4.35594   4.37828   4.39266   4.40956
  Beta virt. eigenvalues --    4.45296   4.48632   4.50221   4.51756   4.54541
  Beta virt. eigenvalues --    4.58328   4.60554   4.70987   4.74097   4.77450
  Beta virt. eigenvalues --    4.78449   4.86053   4.99996   5.15775   5.96365
  Beta virt. eigenvalues --    6.02744   6.09773   6.19724   6.41902  11.39302
  Beta virt. eigenvalues --   17.53763  17.71625  17.96230  18.10448  18.90952
  Beta virt. eigenvalues --   22.94396  23.05191  23.24166  26.39135  57.11617
  Beta virt. eigenvalues --  118.98862 119.02727 119.11693 135.05142 381.28928
  Beta virt. eigenvalues --  923.72125 923.97899 924.784541458.17276**********
          Condensed to atoms (all electrons):
          Atomic-Atomic Spin Densities.
 Mulliken charges and spin densities:
               1          2
     1  C   -0.123316  -0.000197
     2  C   -0.145221   0.000388
     3  C   -0.189978  -0.000460
     4  C    0.144288   0.000982
     5  C   -0.060448   0.000642
     6  N   -0.539049   0.063305
     7  C    0.606047  -0.010791
     8  C    0.336410  -0.004248
     9  C   -0.173279   0.002963
    10  C   -0.155433  -0.006990
    11  C    0.116121   0.004519
    12  C    0.343602  -0.008887
    13  N   -0.628412   0.064937
    14  C   -0.383195   0.002875
    15  C   -0.280878   0.000267
    16  C   -0.276834   0.000052
    17  C   -0.351571   0.000473
    18  O   -0.534302  -0.001279
    19  C    0.101164   0.004258
    20  C    0.146233  -0.000934
    21  C   -0.173286   0.000636
    22  C   -0.129356  -0.000383
    23  C   -0.121985   0.000638
    24  C   -0.134237  -0.000414
    25  C   -0.145736   0.000632
    26  C    0.121025   0.000079
    27  C   -0.153509   0.000153
    28  C   -0.135046   0.000063
    29  C   -0.121285  -0.000015
    30  C   -0.137198  -0.000007
    31  C   -0.188408   0.000040
    32  C   -0.178947  -0.000320
    33  C   -0.136278   0.000370
    34  H    0.125967   0.000004
    35  H    0.143347  -0.000012
    36  H    0.212211  -0.000503
    37  H    0.190114   0.000417
    38  H    0.177738   0.000650
    39  H    0.151988   0.000269
    40  H    0.210960  -0.000443
    41  H    0.223505  -0.000455
    42  H    0.156481   0.000027
    43  H    0.151360  -0.000006
    44  H    0.153880   0.000001
    45  H    0.145366   0.000017
    46  H    0.167771   0.000025
    47  H    0.156868   0.000254
    48  H    0.142725   0.000056
    49  H    0.137736   0.000017
    50  H    0.132639  -0.000031
    51  H    0.133659   0.000013
    52  H    0.140274  -0.000026
    53  H    0.149165  -0.000001
    54  H    0.138056   0.000023
    55  H    0.137656   0.000001
    56  H    0.139887  -0.000002
    57  H    0.147259   0.000008
    58  H    0.118133   0.000010
    59  H    0.125208  -0.000019
    60  Ni   0.628651   1.755753
    61  F   -0.477140   0.055222
    62  F   -0.479167   0.075385
 Sum of Mulliken charges =  -0.00000   2.00000
 Mulliken charges and spin densities with hydrogens summed into heavy atoms:
               1          2
     1  C    0.002651  -0.000193
     2  C   -0.001874   0.000376
     3  C    0.022233  -0.000963
     4  C    0.144288   0.000982
     5  C    0.129666   0.001058
     6  N   -0.539049   0.063305
     7  C    0.606047  -0.010791
     8  C    0.336410  -0.004248
     9  C    0.004458   0.003613
    10  C   -0.003445  -0.006721
    11  C    0.116121   0.004519
    12  C    0.343602  -0.008887
    13  N   -0.628412   0.064937
    14  C    0.051269   0.001977
    15  C    0.026963   0.000288
    16  C    0.022411   0.000070
    17  C   -0.026932   0.000753
    18  O   -0.534302  -0.001279
    19  C    0.101164   0.004258
    20  C    0.146233  -0.000934
    21  C   -0.030561   0.000692
    22  C    0.008380  -0.000366
    23  C    0.010655   0.000607
    24  C   -0.000578  -0.000401
    25  C   -0.005462   0.000606
    26  C    0.121025   0.000079
    27  C   -0.004344   0.000152
    28  C    0.003010   0.000086
    29  C    0.016371  -0.000014
    30  C    0.002689  -0.000009
    31  C   -0.041149   0.000048
    32  C   -0.060814  -0.000311
    33  C   -0.011070   0.000351
    60  Ni   0.628651   1.755753
    61  F   -0.477140   0.055222
    62  F   -0.479167   0.075385
 Electronic spatial extent (au):  <R**2>=          17137.8617
 Charge=             -0.0000 electrons
 Dipole moment (field-independent basis, Debye):
    X=              0.9156    Y=             -7.2087    Z=              4.0029  Tot=              8.2962
 Quadrupole moment (field-independent basis, Debye-Ang):
   XX=           -168.1081   YY=           -207.5868   ZZ=           -218.1011
   XY=             14.7543   XZ=            -16.2334   YZ=              4.6718
 Traceless Quadrupole moment (field-independent basis, Debye-Ang):
   XX=             29.8239   YY=             -9.6548   ZZ=            -20.1691
   XY=             14.7543   XZ=            -16.2334   YZ=              4.6718
 Octapole moment (field-independent basis, Debye-Ang**2):
  XXX=           -208.5942  YYY=             13.3778  ZZZ=             15.2484  XYY=              7.4175
  XXY=            -46.3454  XXZ=             -6.5186  XZZ=             26.5266  YZZ=             -2.3148
  YYZ=              9.8875  XYZ=             22.4219
 Hexadecapole moment (field-independent basis, Debye-Ang**3):
 XXXX=         -13451.2082 YYYY=          -5075.5787 ZZZZ=          -2882.5185 XXXY=            -47.7319
 XXXZ=           -153.6546 YYYX=            -74.4561 YYYZ=            -76.5393 ZZZX=            -31.8097
 ZZZY=             99.4717 XXYY=          -3041.9624 XXZZ=          -2881.6752 YYZZ=          -1411.9969
 XXYZ=             32.6925 YYXZ=            -26.4925 ZZXY=             15.4389
 N-N= 4.225934584361D+03 E-N=-1.245441753805D+04  KE= 1.636463851048D+03
                          Isotropic Fermi Contact Couplings
        Atom                 a.u.       MegaHertz       Gauss      10(-4) cm-1
     1  C(13)             -0.00003      -0.01447      -0.00516      -0.00483
     2  C(13)              0.00003       0.01863       0.00665       0.00621
     3  C(13)             -0.00027      -0.14988      -0.05348      -0.04999
     4  C(13)              0.00075       0.42407       0.15132       0.14145
     5  C(13)              0.00388       2.18171       0.77849       0.72774
     6  N(14)              0.10879      17.57535       6.27132       5.86251
     7  C(13)             -0.00002      -0.01014      -0.00362      -0.00338
     8  C(13)             -0.00136      -0.76201      -0.27190      -0.25418
     9  C(13)              0.00223       1.25591       0.44814       0.41893
    10  C(13)             -0.00057      -0.32129      -0.11464      -0.10717
    11  C(13)              0.00327       1.83862       0.65606       0.61330
    12  C(13)             -0.00045      -0.25499      -0.09099      -0.08506
    13  N(14)              0.10616      17.15101       6.11991       5.72096
    14  C(13)              0.00189       1.06489       0.37998       0.35521
    15  C(13)              0.00014       0.08143       0.02905       0.02716
    16  C(13)              0.00005       0.03069       0.01095       0.01024
    17  C(13)              0.00063       0.35381       0.12625       0.11802
    18  O(17)              0.00192      -0.58085      -0.20726      -0.19375
    19  C(13)              0.00279       1.56740       0.55929       0.52283
    20  C(13)             -0.00023      -0.12823      -0.04576      -0.04277
    21  C(13)              0.00008       0.04402       0.01571       0.01468
    22  C(13)             -0.00005      -0.02973      -0.01061      -0.00992
    23  C(13)              0.00007       0.04027       0.01437       0.01343
    24  C(13)             -0.00006      -0.03503      -0.01250      -0.01168
    25  C(13)              0.00004       0.02281       0.00814       0.00761
    26  C(13)              0.00025       0.14167       0.05055       0.04725
    27  C(13)              0.00034       0.19250       0.06869       0.06421
    28  C(13)              0.00010       0.05852       0.02088       0.01952
    29  C(13)             -0.00000      -0.00113      -0.00040      -0.00038
    30  C(13)             -0.00000      -0.00092      -0.00033      -0.00031
    31  C(13)              0.00010       0.05355       0.01911       0.01786
    32  C(13)             -0.00014      -0.07703      -0.02749      -0.02570
    33  C(13)              0.00002       0.01373       0.00490       0.00458
    34  H(1)               0.00000       0.00315       0.00112       0.00105
    35  H(1)              -0.00000      -0.00911      -0.00325      -0.00304
    36  H(1)               0.00006       0.14346       0.05119       0.04785
    37  H(1)               0.00022       0.48156       0.17183       0.16063
    38  H(1)               0.00027       0.61374       0.21900       0.20472
    39  H(1)               0.00009       0.20172       0.07198       0.06729
    40  H(1)              -0.00015      -0.33911      -0.12100      -0.11312
    41  H(1)              -0.00002      -0.04079      -0.01456      -0.01361
    42  H(1)               0.00003       0.05639       0.02012       0.01881
    43  H(1)              -0.00000      -0.00184      -0.00065      -0.00061
    44  H(1)              -0.00000      -0.00756      -0.00270      -0.00252
    45  H(1)               0.00001       0.01685       0.00601       0.00562
    46  H(1)               0.00001       0.02012       0.00718       0.00671
    47  H(1)               0.00009       0.20005       0.07138       0.06673
    48  H(1)              -0.00001      -0.02864      -0.01022      -0.00955
    49  H(1)               0.00001       0.01143       0.00408       0.00381
    50  H(1)              -0.00001      -0.02207      -0.00788      -0.00736
    51  H(1)               0.00000       0.00812       0.00290       0.00271
    52  H(1)              -0.00001      -0.02132      -0.00761      -0.00711
    53  H(1)               0.00001       0.02037       0.00727       0.00680
    54  H(1)               0.00001       0.01669       0.00596       0.00557
    55  H(1)               0.00000       0.00072       0.00026       0.00024
    56  H(1)              -0.00000      -0.00138      -0.00049      -0.00046
    57  H(1)               0.00000       0.00220       0.00078       0.00073
    58  H(1)               0.00000       0.00356       0.00127       0.00119
    59  H(1)              -0.00001      -0.01313      -0.00469      -0.00438
    60  Ni(61)             0.00000      -0.00030      -0.00011      -0.00010
    61  F(19)              0.02595      54.58715      19.47805      18.20831
    62  F(19)              0.02380      50.06348      17.86389      16.69938
 --------------------------------------------------------
       Center         ----  Spin Dipole Couplings  ----
                      3XX-RR        3YY-RR        3ZZ-RR
 --------------------------------------------------------
     1   Atom        0.001914     -0.000381     -0.001533
     2   Atom        0.002474     -0.000505     -0.001969
     3   Atom        0.008842     -0.003944     -0.004898
     4   Atom        0.010907     -0.005160     -0.005747
     5   Atom        0.020706     -0.009305     -0.011401
     6   Atom        0.025978      0.018491     -0.044469
     7   Atom        0.008038      0.013579     -0.021617
     8   Atom       -0.004641      0.017803     -0.013163
     9   Atom       -0.005046      0.006818     -0.001773
    10   Atom        0.001542      0.004881     -0.006423
    11   Atom       -0.001055      0.003857     -0.002802
    12   Atom        0.014965     -0.000594     -0.014370
    13   Atom       -0.064090      0.093264     -0.029174
    14   Atom        0.015018     -0.006377     -0.008641
    15   Atom        0.004918     -0.002679     -0.002239
    16   Atom        0.002376     -0.000842     -0.001534
    17   Atom        0.001936     -0.000516     -0.001420
    18   Atom        0.003360      0.011525     -0.014885
    19   Atom        0.001711      0.000945     -0.002655
    20   Atom        0.002441     -0.002104     -0.000337
    21   Atom        0.000205     -0.001329      0.001124
    22   Atom        0.000226     -0.001608      0.001383
    23   Atom        0.000199     -0.000522      0.000323
    24   Atom        0.001084     -0.001099      0.000015
    25   Atom        0.001417     -0.000697     -0.000719
    26   Atom        0.001581      0.000262     -0.001843
    27   Atom        0.000642      0.000315     -0.000957
    28   Atom        0.000409      0.000200     -0.000609
    29   Atom        0.000458      0.000054     -0.000512
    30   Atom        0.000762     -0.000123     -0.000640
    31   Atom        0.001561     -0.000357     -0.001204
    32   Atom        0.004587     -0.002104     -0.002483
    33   Atom        0.002388     -0.001088     -0.001301
    34   Atom        0.000970     -0.000043     -0.000927
    35   Atom        0.000569      0.000717     -0.001286
    36   Atom        0.009356     -0.007868     -0.001488
    37   Atom        0.008251     -0.004283     -0.003968
    38   Atom       -0.002288      0.003569     -0.001281
    39   Atom       -0.000612      0.001373     -0.000760
    40   Atom        0.016224     -0.007968     -0.008256
    41   Atom        0.019295     -0.012272     -0.007023
    42   Atom        0.003993     -0.002078     -0.001915
    43   Atom        0.002849     -0.002170     -0.000679
    44   Atom        0.002372     -0.000713     -0.001659
    45   Atom        0.001528     -0.000669     -0.000859
    46   Atom        0.000651     -0.000426     -0.000225
    47   Atom        0.000502      0.000419     -0.000921
    48   Atom       -0.001045     -0.001731      0.002776
    49   Atom       -0.000502     -0.001250      0.001752
    50   Atom        0.000180     -0.000651      0.000471
    51   Atom        0.000751     -0.000620     -0.000131
    52   Atom        0.001778     -0.000958     -0.000821
    53   Atom        0.000348      0.000265     -0.000613
    54   Atom        0.000222      0.000182     -0.000403
    55   Atom        0.000310      0.000046     -0.000356
    56   Atom        0.000631     -0.000195     -0.000436
    57   Atom        0.002237     -0.000972     -0.001265
    58   Atom        0.003380     -0.001729     -0.001651
    59   Atom        0.001579     -0.000667     -0.000912
    60   Atom       -0.403595     -0.196230      0.599826
    61   Atom       -0.130830      0.216754     -0.085923
    62   Atom       -0.019088      0.064443     -0.045355
 --------------------------------------------------------
                        XY            XZ            YZ
 --------------------------------------------------------
     1   Atom        0.002039      0.000535      0.000432
     2   Atom        0.003699      0.002237      0.001337
     3   Atom        0.006331      0.006132      0.002799
     4   Atom        0.002223      0.002162      0.000223
     5   Atom       -0.005864     -0.001619      0.000187
     6   Atom       -0.106384      0.042635     -0.024555
     7   Atom       -0.011979      0.001111     -0.022846
     8   Atom       -0.004576      0.000854     -0.018385
     9   Atom        0.001631     -0.000673     -0.005479
    10   Atom        0.001941     -0.002623     -0.006865
    11   Atom        0.006536     -0.003180     -0.004050
    12   Atom        0.011622     -0.012351     -0.011248
    13   Atom        0.082649     -0.039615     -0.090126
    14   Atom        0.003733     -0.005139     -0.002204
    15   Atom        0.001273     -0.002449     -0.000411
    16   Atom        0.001780     -0.000940     -0.000477
    17   Atom        0.002411     -0.001677     -0.001119
    18   Atom       -0.008507      0.006494     -0.023190
    19   Atom       -0.006029      0.003424     -0.004769
    20   Atom       -0.001853      0.002736     -0.000985
    21   Atom       -0.001690      0.003440     -0.001893
    22   Atom       -0.000314      0.002043     -0.000358
    23   Atom       -0.000340      0.001503     -0.000436
    24   Atom       -0.000098      0.001176      0.000060
    25   Atom       -0.000894      0.001576     -0.000647
    26   Atom       -0.002695      0.000188     -0.000031
    27   Atom       -0.001587      0.000482     -0.000480
    28   Atom       -0.000948      0.000088     -0.000063
    29   Atom       -0.000771     -0.000087      0.000060
    30   Atom       -0.000955     -0.000326      0.000205
    31   Atom       -0.001736     -0.000520      0.000315
    32   Atom        0.001001     -0.000386      0.000067
    33   Atom        0.001227      0.000247     -0.000179
    34   Atom        0.001381      0.000407      0.000294
    35   Atom        0.003144      0.001944      0.002034
    36   Atom        0.010892      0.016228      0.008789
    37   Atom       -0.005646     -0.004939      0.001666
    38   Atom       -0.000679      0.000272     -0.002637
    39   Atom        0.000977     -0.000571     -0.001443
    40   Atom        0.004813      0.002723      0.000328
    41   Atom       -0.002866     -0.014201      0.001444
    42   Atom        0.000018     -0.001033     -0.000035
    43   Atom        0.000549     -0.002821     -0.000284
    44   Atom        0.001995     -0.000092     -0.000066
    45   Atom        0.000922     -0.000656     -0.000246
    46   Atom        0.001400     -0.001487     -0.000975
    47   Atom        0.001638     -0.000700     -0.000618
    48   Atom       -0.002246      0.003955     -0.003591
    49   Atom       -0.000213      0.001568     -0.000409
    50   Atom        0.000008      0.001003      0.000033
    51   Atom       -0.000062      0.000803     -0.000020
    52   Atom       -0.000634      0.000850     -0.000183
    53   Atom       -0.001285      0.000649     -0.000672
    54   Atom       -0.000641      0.000148     -0.000146
    55   Atom       -0.000531     -0.000082      0.000064
    56   Atom       -0.000697     -0.000424      0.000242
    57   Atom       -0.001746     -0.001235      0.000524
    58   Atom       -0.000009     -0.000763     -0.000030
    59   Atom        0.000798     -0.000119     -0.000049
    60   Atom       -0.182805      0.009507     -0.215601
    61   Atom       -0.118283     -0.058740      0.253573
    62   Atom       -0.084233      0.086485     -0.292396
 --------------------------------------------------------


 ---------------------------------------------------------------------------------
              Anisotropic Spin Dipole Couplings in Principal Axis System
 ---------------------------------------------------------------------------------

       Atom             a.u.   MegaHertz   Gauss  10(-4) cm-1        Axes

              Baa    -0.0017    -0.229    -0.082    -0.076  0.2078 -0.5765  0.7902
     1 C(13)  Bbb    -0.0015    -0.201    -0.072    -0.067 -0.4789  0.6445  0.5961
              Bcc     0.0032     0.430     0.153     0.143  0.8529  0.5023  0.1422
 
              Baa    -0.0031    -0.413    -0.147    -0.138 -0.6128  0.6388  0.4653
     2 C(13)  Bbb    -0.0028    -0.370    -0.132    -0.124  0.0430 -0.5609  0.8268
              Bcc     0.0058     0.784     0.280     0.261  0.7891  0.5266  0.3163
 
              Baa    -0.0074    -0.991    -0.354    -0.331 -0.1939 -0.3793  0.9047
     3 C(13)  Bbb    -0.0065    -0.869    -0.310    -0.290 -0.4557  0.8515  0.2594
              Bcc     0.0139     1.861     0.664     0.621  0.8688  0.3620  0.3379
 
              Baa    -0.0060    -0.809    -0.289    -0.270 -0.1394  0.1044  0.9847
     4 C(13)  Bbb    -0.0055    -0.732    -0.261    -0.244 -0.1179  0.9856 -0.1212
              Bcc     0.0115     1.541     0.550     0.514  0.9832  0.1330  0.1251
 
              Baa    -0.0115    -1.542    -0.550    -0.514  0.0674  0.0958  0.9931
     5 C(13)  Bbb    -0.0104    -1.395    -0.498    -0.465  0.1789  0.9781 -0.1065
              Bcc     0.0219     2.937     1.048     0.980  0.9816 -0.1848 -0.0488
 
              Baa    -0.0885    -3.412    -1.218    -1.138  0.7054  0.6247 -0.3349
     6 N(14)  Bbb    -0.0525    -2.026    -0.723    -0.676  0.0658  0.4127  0.9085
              Bcc     0.1410     5.438     1.941     1.814  0.7057 -0.6629  0.2500
 
              Baa    -0.0333    -4.472    -1.596    -1.492  0.1088  0.4576  0.8825
     7 C(13)  Bbb     0.0028     0.378     0.135     0.126  0.8855  0.3588 -0.2953
              Bcc     0.0305     4.095     1.461     1.366 -0.4517  0.8136 -0.3662
 
              Baa    -0.0218    -2.925    -1.044    -0.976  0.0689  0.4266  0.9018
     8 C(13)  Bbb    -0.0052    -0.698    -0.249    -0.233  0.9876  0.0988 -0.1222
              Bcc     0.0270     3.623     1.293     1.209 -0.1412  0.8990 -0.4145
 
              Baa    -0.0053    -0.707    -0.252    -0.236  0.9847 -0.1618 -0.0639
     9 C(13)  Bbb    -0.0044    -0.594    -0.212    -0.198  0.1273  0.4195  0.8988
              Bcc     0.0097     1.301     0.464     0.434  0.1186  0.8932 -0.4337
 
              Baa    -0.0099    -1.326    -0.473    -0.442  0.1393  0.4025  0.9048
    10 C(13)  Bbb     0.0007     0.089     0.032     0.030  0.9241 -0.3811  0.0272
              Bcc     0.0092     1.237     0.441     0.413  0.3558  0.8323 -0.4250
 
              Baa    -0.0057    -0.762    -0.272    -0.254  0.8419 -0.4520  0.2948
    11 C(13)  Bbb    -0.0047    -0.632    -0.226    -0.211 -0.0604  0.4639  0.8838
              Bcc     0.0104     1.394     0.497     0.465  0.5362  0.7619 -0.3633
 
              Baa    -0.0216    -2.903    -1.036    -0.968  0.1842  0.3824  0.9055
    12 C(13)  Bbb    -0.0059    -0.788    -0.281    -0.263 -0.5708  0.7916 -0.2182
              Bcc     0.0275     3.691     1.317     1.231  0.8002  0.4766 -0.3640
 
              Baa    -0.0996    -3.839    -1.370    -1.281  0.9240 -0.3810  0.0321
    13 N(14)  Bbb    -0.0764    -2.946    -1.051    -0.983  0.1383  0.4113  0.9010
              Bcc     0.1759     6.786     2.421     2.263  0.3565  0.8281 -0.4327
 
              Baa    -0.0103    -1.383    -0.493    -0.461  0.1274  0.3906  0.9117
    14 C(13)  Bbb    -0.0065    -0.874    -0.312    -0.291 -0.2411  0.9038 -0.3536
              Bcc     0.0168     2.256     0.805     0.753  0.9621  0.1748 -0.2094
 
              Baa    -0.0030    -0.402    -0.144    -0.134  0.2719  0.1405  0.9520
    15 C(13)  Bbb    -0.0029    -0.387    -0.138    -0.129 -0.1880  0.9780 -0.0907
              Bcc     0.0059     0.790     0.282     0.263  0.9438  0.1543 -0.2923
 
              Baa    -0.0018    -0.239    -0.085    -0.080  0.0398  0.3924  0.9189
    16 C(13)  Bbb    -0.0016    -0.216    -0.077    -0.072 -0.4486  0.8288 -0.3345
              Bcc     0.0034     0.455     0.162     0.152  0.8928  0.3990 -0.2090
 
              Baa    -0.0022    -0.292    -0.104    -0.097  0.0770  0.4774  0.8753
    17 C(13)  Bbb    -0.0020    -0.264    -0.094    -0.088 -0.5961  0.7258 -0.3434
              Bcc     0.0041     0.556     0.198     0.186  0.7992  0.4953 -0.3405
 
              Baa    -0.0284     2.057     0.734     0.686 -0.0451  0.4943  0.8681
    18 O(17)  Bbb    -0.0009     0.067     0.024     0.022  0.9245  0.3500 -0.1513
              Bcc     0.0293    -2.124    -0.758    -0.708 -0.3786  0.7957 -0.4727
 
              Baa    -0.0061    -0.815    -0.291    -0.272  0.1888  0.6578  0.7291
    19 C(13)  Bbb    -0.0039    -0.528    -0.188    -0.176  0.7442  0.3885 -0.5433
              Bcc     0.0100     1.343     0.479     0.448 -0.6407  0.6452 -0.4162
 
              Baa    -0.0028    -0.371    -0.132    -0.124  0.3305  0.9437  0.0104
    20 C(13)  Bbb    -0.0020    -0.268    -0.096    -0.089 -0.4707  0.1553  0.8685
              Bcc     0.0048     0.639     0.228     0.213  0.8180 -0.2920  0.4955
 
              Baa    -0.0028    -0.377    -0.134    -0.126  0.7625  0.0455 -0.6454
    21 C(13)  Bbb    -0.0023    -0.312    -0.111    -0.104  0.2041  0.9297  0.3067
              Bcc     0.0051     0.689     0.246     0.230  0.6139 -0.3656  0.6996
 
              Baa    -0.0017    -0.223    -0.080    -0.074  0.1401  0.9899  0.0225
    22 C(13)  Bbb    -0.0013    -0.177    -0.063    -0.059  0.7872 -0.0976 -0.6090
              Bcc     0.0030     0.399     0.143     0.133  0.6006 -0.1031  0.7929
 
              Baa    -0.0012    -0.168    -0.060    -0.056  0.7072 -0.0897 -0.7013
    23 C(13)  Bbb    -0.0006    -0.086    -0.031    -0.029  0.2193  0.9708  0.0970
              Bcc     0.0019     0.254     0.091     0.085  0.6722 -0.2224  0.7062
 
              Baa    -0.0011    -0.151    -0.054    -0.050  0.1543  0.9655 -0.2099
    24 C(13)  Bbb    -0.0007    -0.096    -0.034    -0.032 -0.5186  0.2600  0.8145
              Bcc     0.0018     0.247     0.088     0.082  0.8410 -0.0168  0.5408
 
              Baa    -0.0016    -0.214    -0.076    -0.071 -0.3894  0.2508  0.8863
    25 C(13)  Bbb    -0.0010    -0.137    -0.049    -0.046  0.3923  0.9157 -0.0868
              Bcc     0.0026     0.351     0.125     0.117  0.8333 -0.3139  0.4550
 
              Baa    -0.0019    -0.261    -0.093    -0.087 -0.4583 -0.5505  0.6977
    26 C(13)  Bbb    -0.0018    -0.236    -0.084    -0.079  0.4137  0.5627  0.7157
              Bcc     0.0037     0.497     0.177     0.166  0.7866 -0.6167  0.0301
 
              Baa    -0.0011    -0.154    -0.055    -0.051  0.4277  0.6665  0.6106
    27 C(13)  Bbb    -0.0011    -0.144    -0.052    -0.048 -0.5403 -0.3530  0.7639
              Bcc     0.0022     0.298     0.106     0.099  0.7247 -0.6566  0.2091
 
              Baa    -0.0007    -0.088    -0.031    -0.029  0.6482  0.6978 -0.3048
    28 C(13)  Bbb    -0.0006    -0.082    -0.029    -0.027  0.1629  0.2640  0.9507
              Bcc     0.0013     0.170     0.061     0.057  0.7439 -0.6659  0.0574
 
              Baa    -0.0005    -0.073    -0.026    -0.024  0.6055  0.7579  0.2428
    29 C(13)  Bbb    -0.0005    -0.069    -0.025    -0.023 -0.0973 -0.2323  0.9678
              Bcc     0.0011     0.142     0.051     0.047  0.7899 -0.6096 -0.0669
 
              Baa    -0.0007    -0.098    -0.035    -0.033  0.5521  0.8265  0.1103
    30 C(13)  Bbb    -0.0007    -0.095    -0.034    -0.032  0.0919 -0.1918  0.9771
              Bcc     0.0014     0.194     0.069     0.065  0.8287 -0.5293 -0.1819
 
              Baa    -0.0014    -0.185    -0.066    -0.062  0.4948  0.8647 -0.0865
    31 C(13)  Bbb    -0.0013    -0.174    -0.062    -0.058  0.1771 -0.0029  0.9842
              Bcc     0.0027     0.360     0.128     0.120  0.8508 -0.5023 -0.1546
 
              Baa    -0.0026    -0.342    -0.122    -0.114  0.1014 -0.3661  0.9250
    32 C(13)  Bbb    -0.0022    -0.295    -0.105    -0.099 -0.1141  0.9194  0.3764
              Bcc     0.0048     0.638     0.228     0.213  0.9883  0.1438 -0.0514
 
              Baa    -0.0017    -0.222    -0.079    -0.074 -0.2688  0.7686  0.5805
    33 C(13)  Bbb    -0.0011    -0.152    -0.054    -0.051  0.1397 -0.5652  0.8130
              Bcc     0.0028     0.374     0.133     0.125  0.9530  0.2997  0.0445
 
              Baa    -0.0010    -0.543    -0.194    -0.181  0.2177 -0.5511  0.8055
    34 H(1)   Bbb    -0.0010    -0.534    -0.191    -0.178 -0.5477  0.6142  0.5682
              Bcc     0.0020     1.078     0.385     0.359  0.8079  0.5649  0.1681
 
              Baa    -0.0026    -1.362    -0.486    -0.454  0.0972 -0.5915  0.8005
    35 H(1)   Bbb    -0.0025    -1.327    -0.473    -0.443  0.7645 -0.4706 -0.4405
              Bcc     0.0050     2.689     0.959     0.897  0.6373  0.6547  0.4064
 
              Baa    -0.0141    -7.512    -2.680    -2.506  0.1264  0.7295 -0.6722
    36 H(1)   Bbb    -0.0126    -6.732    -2.402    -2.246  0.6515 -0.5720 -0.4983
              Bcc     0.0267    14.244     5.083     4.751  0.7480  0.3750  0.5476
 
              Baa    -0.0065    -3.469    -1.238    -1.157  0.4130  0.8826  0.2247
    37 H(1)   Bbb    -0.0056    -2.991    -1.067    -0.998  0.1962 -0.3272  0.9244
              Bcc     0.0121     6.460     2.305     2.155  0.8893 -0.3377 -0.3082
 
              Baa    -0.0024    -1.304    -0.465    -0.435  0.2747  0.4119  0.8688
    38 H(1)   Bbb    -0.0024    -1.258    -0.449    -0.419  0.9560 -0.0206 -0.2925
              Bcc     0.0048     2.562     0.914     0.855 -0.1026  0.9110 -0.3995
 
              Baa    -0.0015    -0.799    -0.285    -0.267  0.1305  0.4095  0.9029
    39 H(1)   Bbb    -0.0010    -0.540    -0.193    -0.180  0.9312 -0.3632  0.0301
              Bcc     0.0025     1.339     0.478     0.447  0.3403  0.8369 -0.4288
 
              Baa    -0.0090    -4.789    -1.709    -1.597 -0.2135  0.8901  0.4026
    40 H(1)   Bbb    -0.0085    -4.516    -1.611    -1.506 -0.0192 -0.4158  0.9092
              Bcc     0.0174     9.304     3.320     3.104  0.9767  0.1864  0.1059
 
              Baa    -0.0133    -7.079    -2.526    -2.361  0.3713 -0.2342  0.8985
    41 H(1)   Bbb    -0.0125    -6.669    -2.380    -2.225  0.1689  0.9686  0.1826
              Bcc     0.0258    13.748     4.906     4.586  0.9130 -0.0839 -0.3991
 
              Baa    -0.0021    -1.129    -0.403    -0.377  0.1261  0.6407  0.7574
    42 H(1)   Bbb    -0.0021    -1.095    -0.391    -0.365 -0.1101  0.7678 -0.6311
              Bcc     0.0042     2.224     0.794     0.742  0.9859  0.0039 -0.1674
 
              Baa    -0.0023    -1.203    -0.429    -0.401  0.4473 -0.5555  0.7010
    43 H(1)   Bbb    -0.0022    -1.182    -0.422    -0.394  0.2030  0.8263  0.5253
              Bcc     0.0045     2.385     0.851     0.795  0.8710  0.0927 -0.4824
 
              Baa    -0.0017    -0.907    -0.324    -0.303 -0.3884  0.8130  0.4338
    44 H(1)   Bbb    -0.0017    -0.882    -0.315    -0.294  0.2092 -0.3806  0.9008
              Bcc     0.0034     1.789     0.638     0.597  0.8974  0.4406 -0.0222
 
              Baa    -0.0010    -0.550    -0.196    -0.183  0.1283  0.3133  0.9409
    45 H(1)   Bbb    -0.0010    -0.535    -0.191    -0.179 -0.3870  0.8894 -0.2433
              Bcc     0.0020     1.085     0.387     0.362  0.9131  0.3329 -0.2354
 
              Baa    -0.0014    -0.747    -0.266    -0.249 -0.6748  0.6777 -0.2921
    46 H(1)   Bbb    -0.0013    -0.691    -0.247    -0.231  0.2124  0.5574  0.8026
              Bcc     0.0027     1.438     0.513     0.480  0.7068  0.4795 -0.5201
 
              Baa    -0.0012    -0.654    -0.234    -0.218  0.6141 -0.3446  0.7100
    47 H(1)   Bbb    -0.0011    -0.607    -0.217    -0.203 -0.3809  0.6585  0.6491
              Bcc     0.0024     1.262     0.450     0.421  0.6912  0.6690 -0.2732
 
              Baa    -0.0037    -1.989    -0.710    -0.664  0.2027  0.9042  0.3760
    48 H(1)   Bbb    -0.0035    -1.882    -0.671    -0.628  0.8532  0.0254 -0.5210
              Bcc     0.0073     3.871     1.381     1.291  0.4806 -0.4264  0.7663
 
              Baa    -0.0013    -0.698    -0.249    -0.233  0.7010  0.6596 -0.2710
    49 H(1)   Bbb    -0.0013    -0.695    -0.248    -0.232 -0.5506  0.7422  0.3821
              Bcc     0.0026     1.393     0.497     0.465  0.4532 -0.1187  0.8835
 
              Baa    -0.0007    -0.370    -0.132    -0.123  0.7092  0.3356 -0.6201
    50 H(1)   Bbb    -0.0006    -0.345    -0.123    -0.115 -0.2632  0.9419  0.2087
              Bcc     0.0013     0.715     0.255     0.238  0.6541  0.0152  0.7563
 
              Baa    -0.0006    -0.337    -0.120    -0.112  0.2870  0.8573 -0.4274
    51 H(1)   Bbb    -0.0006    -0.319    -0.114    -0.106 -0.4215  0.5136  0.7473
              Bcc     0.0012     0.655     0.234     0.219  0.8602 -0.0343  0.5088
 
              Baa    -0.0011    -0.586    -0.209    -0.195  0.2531  0.9568 -0.1432
    52 H(1)   Bbb    -0.0011    -0.573    -0.204    -0.191 -0.2376  0.2050  0.9495
              Bcc     0.0022     1.158     0.413     0.386  0.9378 -0.2063  0.2792
 
              Baa    -0.0010    -0.533    -0.190    -0.178  0.4420  0.7280  0.5240
    53 H(1)   Bbb    -0.0009    -0.499    -0.178    -0.166 -0.5942 -0.2000  0.7791
              Bcc     0.0019     1.032     0.368     0.344  0.6720 -0.6557  0.3442
 
              Baa    -0.0004    -0.235    -0.084    -0.078  0.5290  0.6676  0.5238
    54 H(1)   Bbb    -0.0004    -0.232    -0.083    -0.078 -0.4669 -0.2864  0.8366
              Bcc     0.0009     0.468     0.167     0.156  0.7086 -0.6872  0.1602
 
              Baa    -0.0004    -0.197    -0.070    -0.066  0.6203  0.7773  0.1050
    55 H(1)   Bbb    -0.0004    -0.195    -0.070    -0.065  0.0092 -0.1411  0.9900
              Bcc     0.0007     0.392     0.140     0.131  0.7843 -0.6131 -0.0947
 
              Baa    -0.0006    -0.316    -0.113    -0.105  0.4847  0.8738 -0.0389
    56 H(1)   Bbb    -0.0006    -0.311    -0.111    -0.104  0.2715 -0.1080  0.9564
              Bcc     0.0012     0.627     0.224     0.209  0.8315 -0.4741 -0.2896
 
              Baa    -0.0017    -0.929    -0.332    -0.310  0.4394  0.8825  0.1676
    57 H(1)   Bbb    -0.0016    -0.880    -0.314    -0.293  0.1797 -0.2691  0.9462
              Bcc     0.0034     1.809     0.646     0.603  0.8801 -0.3856 -0.2769
 
              Baa    -0.0018    -0.951    -0.339    -0.317  0.1277  0.4977  0.8579
    58 H(1)   Bbb    -0.0017    -0.913    -0.326    -0.305 -0.0723  0.8673 -0.4924
              Bcc     0.0035     1.864     0.665     0.622  0.9892 -0.0008 -0.1467
 
              Baa    -0.0009    -0.497    -0.177    -0.166 -0.2056  0.7416  0.6386
    59 H(1)   Bbb    -0.0009    -0.485    -0.173    -0.162  0.2285 -0.5981  0.7681
              Bcc     0.0018     0.982     0.350     0.328  0.9516  0.3039 -0.0465
 
              Baa    -0.5198    24.827     8.859     8.281  0.8377  0.5375  0.0964
    60 Ni(61) Bbb    -0.1375     6.568     2.344     2.191 -0.5436  0.8037  0.2420
              Bcc     0.6573   -31.395   -11.202   -10.472  0.0526 -0.2551  0.9655
 
              Baa    -0.2306  -115.836   -41.333   -38.639 -0.1033 -0.5110  0.8534
    61 F(19)  Bbb    -0.1632   -81.970   -29.249   -27.342  0.9643  0.1588  0.2119
              Bcc     0.3939   197.807    70.582    65.981 -0.2438  0.8448  0.4763
 
              Baa    -0.2886  -144.956   -51.724   -48.352 -0.0520  0.6296  0.7752
    62 F(19)  Bbb    -0.0579   -29.065   -10.371    -9.695  0.9486  0.2738 -0.1587
              Bcc     0.3465   174.020    62.095    58.047 -0.3122  0.7271 -0.6115
 

 ---------------------------------------------------------------------------------

 PrsmSu:  requested number of processors reduced to:  12 ShMem   1 Linda.
   1 Symmetry operations used in ECPInt.
 ECPInt:  NShTT=   22791 NPrTT=  142008 LenC2=   18123 LenP2D=   59667.
 LDataN:  DoStor=T MaxTD1= 7 Len=  274
 Number of processors reduced to  13 by ecpmxn.
 Calling FoFJK, ICntrl=      2127 FMM=T ISym2X=0 I1Cent= 0 IOpClX= 1 NMat=1 NMatS=1 NMatT=0.
 ***** Axes restored to original set *****
 -------------------------------------------------------------------
 Center     Atomic                   Forces (Hartrees/Bohr)
 Number     Number              X              Y              Z
 -------------------------------------------------------------------
      1        6          -0.000002456    0.000006260   -0.000010810
      2        6           0.000001698    0.000005644   -0.000006711
      3        6          -0.000002202   -0.000000804   -0.000000067
      4        6          -0.000001870   -0.000001800   -0.000010055
      5        6          -0.000016137    0.000005072    0.000007730
      6        7           0.000030731   -0.000001925   -0.000023077
      7        6          -0.000019843    0.000010144    0.000001134
      8        6           0.000009585    0.000002545   -0.000003460
      9        6          -0.000007899   -0.000002176   -0.000002247
     10        6           0.000005923   -0.000013905    0.000000909
     11        6           0.000003188    0.000006425    0.000012350
     12        6          -0.000004349   -0.000009074   -0.000009028
     13        7          -0.000022123   -0.000014296    0.000024269
     14        6           0.000009914   -0.000006574    0.000008000
     15        6          -0.000011350   -0.000004874   -0.000003562
     16        6           0.000000997   -0.000003858    0.000001774
     17        6          -0.000005824   -0.000005391    0.000008603
     18        8           0.000011626   -0.000008869   -0.000005528
     19        6          -0.000004752   -0.000004585    0.000011733
     20        6           0.000012903   -0.000006025    0.000004923
     21        6           0.000000210    0.000009471   -0.000015946
     22        6          -0.000013465   -0.000011647    0.000006980
     23        6           0.000013387   -0.000006517   -0.000000098
     24        6          -0.000002962    0.000009248   -0.000018480
     25        6          -0.000012515    0.000002470    0.000005829
     26        6          -0.000005346   -0.000004496   -0.000015316
     27        6          -0.000004811    0.000010151    0.000009224
     28        6           0.000007491   -0.000004245    0.000016572
     29        6           0.000003309   -0.000001566   -0.000006308
     30        6          -0.000001529    0.000018666    0.000004954
     31        6           0.000009908   -0.000002475    0.000012057
     32        6           0.000006566    0.000010303   -0.000006002
     33        6          -0.000002223    0.000003178   -0.000005072
     34        1          -0.000000582    0.000005457   -0.000007828
     35        1          -0.000002900    0.000001277   -0.000009155
     36        1           0.000001464   -0.000000738   -0.000007322
     37        1           0.000005307    0.000004603    0.000003258
     38        1           0.000004635   -0.000002307    0.000008799
     39        1          -0.000003484   -0.000003811    0.000007459
     40        1          -0.000000837    0.000000397   -0.000000804
     41        1          -0.000004582   -0.000000127   -0.000003460
     42        1           0.000001395   -0.000001911    0.000001119
     43        1          -0.000000714   -0.000005601   -0.000001572
     44        1          -0.000000555   -0.000002836    0.000005079
     45        1          -0.000001628   -0.000005505    0.000003311
     46        1          -0.000000648   -0.000005741    0.000000699
     47        1           0.000001774   -0.000006143    0.000005360
     48        1          -0.000001371   -0.000004196    0.000001389
     49        1          -0.000002968   -0.000004565   -0.000004322
     50        1          -0.000005494   -0.000003831   -0.000006663
     51        1          -0.000000186   -0.000002750   -0.000002724
     52        1           0.000003403    0.000004891   -0.000000863
     53        1          -0.000000667   -0.000002945    0.000004390
     54        1           0.000002463    0.000000523    0.000005129
     55        1           0.000003627    0.000004560    0.000007192
     56        1           0.000004188    0.000006563    0.000004576
     57        1          -0.000000086    0.000006164    0.000000668
     58        1           0.000002494    0.000004683   -0.000004218
     59        1           0.000002115    0.000006354   -0.000008353
     60       28           0.000011118    0.000032418    0.000010241
     61        9           0.000004198   -0.000011619   -0.000001930
     62        9          -0.000007262    0.000002261   -0.000004732
 -------------------------------------------------------------------
 Cartesian Forces:  Max     0.000032418 RMS     0.000008082

 GradGradGradGradGradGradGradGradGradGradGradGradGradGradGradGradGradGrad
 Berny optimization.
 FormGI is forming the generalized inverse of G from B-inverse, IUseBI=4.
 Internal  Forces:  Max     0.000016358 RMS     0.000003471
 Search for a local minimum.
 Step number   1 out of a maximum of  372
 All quantities printed in internal units (Hartrees-Bohrs-Radians)
 Mixed Optimization -- En-DIIS/RFO-DIIS
 Second derivative matrix not updated -- first step.
 ITU=  0
     Eigenvalues ---    0.00479   0.00517   0.00544   0.00549   0.00618
     Eigenvalues ---    0.00621   0.01129   0.01330   0.01390   0.01464
     Eigenvalues ---    0.01468   0.01512   0.01636   0.01670   0.01831
     Eigenvalues ---    0.01932   0.02081   0.02088   0.02107   0.02110
     Eigenvalues ---    0.02124   0.02128   0.02130   0.02135   0.02138
     Eigenvalues ---    0.02142   0.02142   0.02145   0.02150   0.02150
     Eigenvalues ---    0.02151   0.02155   0.02155   0.02158   0.02159
     Eigenvalues ---    0.02161   0.02165   0.02165   0.02167   0.02169
     Eigenvalues ---    0.02175   0.02182   0.02201   0.02211   0.02245
     Eigenvalues ---    0.02749   0.03032   0.04080   0.04265   0.04307
     Eigenvalues ---    0.04467   0.04766   0.04894   0.05229   0.05671
     Eigenvalues ---    0.05994   0.06275   0.06912   0.07272   0.07854
     Eigenvalues ---    0.07914   0.08017   0.08996   0.09308   0.09441
     Eigenvalues ---    0.09602   0.10651   0.11603   0.12160   0.12488
     Eigenvalues ---    0.12632   0.13547   0.13987   0.15137   0.15988
     Eigenvalues ---    0.15998   0.15998   0.15999   0.15999   0.15999
     Eigenvalues ---    0.16000   0.16000   0.16000   0.16000   0.16000
     Eigenvalues ---    0.16000   0.16000   0.16000   0.16000   0.16000
     Eigenvalues ---    0.16000   0.16026   0.18464   0.19101   0.19242
     Eigenvalues ---    0.20932   0.21999   0.21999   0.22000   0.22000
     Eigenvalues ---    0.22000   0.22000   0.22611   0.23402   0.23430
     Eigenvalues ---    0.23474   0.23474   0.23480   0.24209   0.24582
     Eigenvalues ---    0.24699   0.24873   0.24874   0.24917   0.24972
     Eigenvalues ---    0.24981   0.25000   0.27942   0.28335   0.28494
     Eigenvalues ---    0.30203   0.30584   0.30677   0.31132   0.31253
     Eigenvalues ---    0.31546   0.33678   0.33793   0.33846   0.33854
     Eigenvalues ---    0.33989   0.34039   0.34203   0.34275   0.34301
     Eigenvalues ---    0.35049   0.35166   0.35194   0.35212   0.35217
     Eigenvalues ---    0.35237   0.35245   0.35258   0.35261   0.35262
     Eigenvalues ---    0.35272   0.35276   0.35278   0.35352   0.35376
     Eigenvalues ---    0.35485   0.35541   0.35605   0.35611   0.39930
     Eigenvalues ---    0.41857   0.41996   0.42043   0.42058   0.42061
     Eigenvalues ---    0.42113   0.43115   0.45487   0.45611   0.45894
     Eigenvalues ---    0.45945   0.46107   0.46139   0.46181   0.46407
     Eigenvalues ---    0.46481   0.46540   0.46638   0.46802   0.46879
     Eigenvalues ---    0.46977   0.50952   0.53478   0.56595   0.63141
 RFO step:  Lambda=-7.59718950D-08 EMin= 4.78797624D-03
 Linear search not attempted -- first point.
 Iteration  1 RMS(Cart)=  0.00069333 RMS(Int)=  0.00000009
 Iteration  2 RMS(Cart)=  0.00000018 RMS(Int)=  0.00000000
 Variable       Old X    -DE/DX   Delta X   Delta X   Delta X     New X
                                 (Linear)    (Quad)   (Total)
    R1        2.63506   0.00000   0.00000   0.00000   0.00000   2.63507
    R2        2.63770  -0.00000   0.00000  -0.00000  -0.00000   2.63769
    R3        2.05332  -0.00000   0.00000  -0.00000  -0.00000   2.05332
    R4        2.63794  -0.00000   0.00000  -0.00000  -0.00000   2.63794
    R5        2.05278  -0.00000   0.00000  -0.00000  -0.00000   2.05278
    R6        2.64359   0.00000   0.00000   0.00001   0.00001   2.64359
    R7        2.05595   0.00000   0.00000   0.00000   0.00000   2.05595
    R8        2.85533   0.00000   0.00000   0.00001   0.00001   2.85533
    R9        2.64432  -0.00000   0.00000  -0.00000  -0.00000   2.64432
   R10        2.76808   0.00001   0.00000   0.00004   0.00004   2.76811
   R11        2.99933   0.00001   0.00000   0.00002   0.00002   2.99935
   R12        2.06824  -0.00000   0.00000  -0.00001  -0.00001   2.06824
   R13        2.42288  -0.00000   0.00000  -0.00000  -0.00000   2.42288
   R14        3.85354  -0.00001   0.00000  -0.00007  -0.00007   3.85346
   R15        2.77068   0.00000   0.00000   0.00001   0.00001   2.77069
   R16        2.52574  -0.00002   0.00000  -0.00003  -0.00003   2.52571
   R17        2.62520  -0.00000   0.00000  -0.00000  -0.00000   2.62519
   R18        2.54247  -0.00001   0.00000  -0.00001  -0.00001   2.54246
   R19        2.63386   0.00000   0.00000   0.00001   0.00001   2.63387
   R20        2.04806  -0.00000   0.00000  -0.00000  -0.00000   2.04806
   R21        2.63960  -0.00001   0.00000  -0.00001  -0.00001   2.63959
   R22        2.05406   0.00000   0.00000   0.00000   0.00000   2.05406
   R23        2.66404   0.00001   0.00000   0.00002   0.00002   2.66406
   R24        2.85891  -0.00000   0.00000  -0.00000  -0.00000   2.85891
   R25        2.52463  -0.00000   0.00000  -0.00000  -0.00000   2.52462
   R26        2.84943   0.00000   0.00000   0.00000   0.00000   2.84944
   R27        3.90026  -0.00001   0.00000  -0.00011  -0.00011   3.90015
   R28        2.89598  -0.00001   0.00000  -0.00002  -0.00002   2.89595
   R29        2.07682   0.00000   0.00000   0.00000   0.00000   2.07682
   R30        2.07349   0.00000   0.00000   0.00000   0.00000   2.07350
   R31        2.89570   0.00000   0.00000   0.00001   0.00001   2.89571
   R32        2.06868   0.00000   0.00000   0.00000   0.00000   2.06868
   R33        2.07577  -0.00000   0.00000  -0.00000  -0.00000   2.07577
   R34        2.89801   0.00000   0.00000   0.00001   0.00001   2.89802
   R35        2.07591  -0.00000   0.00000  -0.00000  -0.00000   2.07591
   R36        2.06989  -0.00000   0.00000  -0.00000  -0.00000   2.06989
   R37        2.07877  -0.00000   0.00000  -0.00001  -0.00001   2.07876
   R38        2.07264   0.00000   0.00000   0.00000   0.00000   2.07264
   R39        2.82605  -0.00000   0.00000  -0.00001  -0.00001   2.82604
   R40        2.87561  -0.00001   0.00000  -0.00003  -0.00003   2.87559
   R41        2.86633   0.00000   0.00000   0.00000   0.00000   2.86634
   R42        2.64164  -0.00001   0.00000  -0.00002  -0.00002   2.64162
   R43        2.64546   0.00000   0.00000   0.00000   0.00000   2.64547
   R44        2.63595   0.00001   0.00000   0.00002   0.00002   2.63597
   R45        2.04704  -0.00000   0.00000  -0.00000  -0.00000   2.04704
   R46        2.63358  -0.00001   0.00000  -0.00002  -0.00002   2.63357
   R47        2.05229  -0.00000   0.00000  -0.00000  -0.00000   2.05228
   R48        2.63721   0.00001   0.00000   0.00002   0.00002   2.63723
   R49        2.05254   0.00000   0.00000   0.00000   0.00000   2.05254
   R50        2.63064  -0.00001   0.00000  -0.00002  -0.00002   2.63061
   R51        2.05236  -0.00000   0.00000  -0.00000  -0.00000   2.05236
   R52        2.04895  -0.00000   0.00000  -0.00000  -0.00000   2.04895
   R53        2.65211   0.00001   0.00000   0.00002   0.00002   2.65212
   R54        2.63877  -0.00001   0.00000  -0.00001  -0.00001   2.63875
   R55        2.62776  -0.00001   0.00000  -0.00002  -0.00002   2.62775
   R56        2.05108   0.00000   0.00000   0.00000   0.00000   2.05108
   R57        2.64079   0.00001   0.00000   0.00002   0.00002   2.64080
   R58        2.05259  -0.00000   0.00000  -0.00000  -0.00000   2.05258
   R59        2.63078  -0.00001   0.00000  -0.00001  -0.00001   2.63076
   R60        2.05251  -0.00000   0.00000  -0.00000  -0.00000   2.05251
   R61        2.64090   0.00001   0.00000   0.00002   0.00002   2.64092
   R62        2.05225  -0.00000   0.00000  -0.00000  -0.00000   2.05225
   R63        2.04694  -0.00000   0.00000  -0.00000  -0.00000   2.04694
   R64        2.63258   0.00000   0.00000   0.00000   0.00000   2.63259
   R65        2.05362  -0.00000   0.00000  -0.00000  -0.00000   2.05361
   R66        2.05324  -0.00000   0.00000  -0.00000  -0.00000   2.05324
   R67        3.49590   0.00001   0.00000   0.00004   0.00004   3.49594
   R68        3.42204   0.00000   0.00000   0.00000   0.00000   3.42204
    A1        2.08776   0.00000   0.00000   0.00000   0.00000   2.08777
    A2        2.09911  -0.00000   0.00000  -0.00001  -0.00001   2.09910
    A3        2.09625   0.00000   0.00000   0.00000   0.00000   2.09625
    A4        2.10867   0.00000   0.00000   0.00001   0.00001   2.10868
    A5        2.09774  -0.00000   0.00000  -0.00001  -0.00001   2.09773
    A6        2.07677   0.00000   0.00000   0.00001   0.00001   2.07678
    A7        2.08570  -0.00000   0.00000  -0.00001  -0.00001   2.08569
    A8        2.08098   0.00000   0.00000   0.00000   0.00000   2.08098
    A9        2.11584   0.00000   0.00000   0.00001   0.00001   2.11585
   A10        2.11982   0.00001   0.00000   0.00003   0.00003   2.11985
   A11        2.08811   0.00000   0.00000   0.00001   0.00001   2.08812
   A12        2.07464  -0.00001   0.00000  -0.00004  -0.00004   2.07460
   A13        1.98754   0.00000   0.00000   0.00006   0.00006   1.98760
   A14        2.01192   0.00000   0.00000   0.00003   0.00003   2.01195
   A15        1.90251  -0.00000   0.00000  -0.00002  -0.00002   1.90249
   A16        1.78712  -0.00000   0.00000  -0.00003  -0.00003   1.78709
   A17        1.85342  -0.00000   0.00000  -0.00006  -0.00006   1.85336
   A18        1.91270   0.00000   0.00000   0.00001   0.00001   1.91271
   A19        1.89146  -0.00001   0.00000  -0.00004  -0.00004   1.89142
   A20        2.43358   0.00001   0.00000   0.00004   0.00004   2.43362
   A21        1.95585  -0.00000   0.00000  -0.00000  -0.00000   1.95585
   A22        2.11354  -0.00000   0.00000  -0.00001  -0.00001   2.11353
   A23        2.06333   0.00001   0.00000   0.00001   0.00001   2.06334
   A24        2.10514  -0.00000   0.00000  -0.00000  -0.00000   2.10514
   A25        2.18080   0.00001   0.00000   0.00003   0.00003   2.18083
   A26        1.96666  -0.00000   0.00000  -0.00002  -0.00002   1.96664
   A27        2.13514  -0.00000   0.00000  -0.00001  -0.00001   2.13513
   A28        2.04832  -0.00000   0.00000  -0.00001  -0.00001   2.04831
   A29        2.10063   0.00001   0.00000   0.00004   0.00004   2.10067
   A30        2.13424  -0.00001   0.00000  -0.00003  -0.00003   2.13420
   A31        2.10696   0.00000   0.00000   0.00002   0.00002   2.10697
   A32        2.09243  -0.00001   0.00000  -0.00003  -0.00003   2.09240
   A33        2.08376   0.00000   0.00000   0.00001   0.00001   2.08378
   A34        2.05966  -0.00000   0.00000  -0.00001  -0.00001   2.05964
   A35        2.11970   0.00001   0.00000   0.00002   0.00002   2.11971
   A36        2.10376  -0.00000   0.00000  -0.00000  -0.00000   2.10376
   A37        2.10825  -0.00000   0.00000  -0.00001  -0.00001   2.10824
   A38        2.15282   0.00000   0.00000   0.00001   0.00001   2.15283
   A39        2.02211   0.00000   0.00000   0.00000   0.00000   2.02211
   A40        2.10697   0.00001   0.00000   0.00002   0.00002   2.10699
   A41        1.98108   0.00000   0.00000   0.00002   0.00002   1.98109
   A42        2.19312  -0.00001   0.00000  -0.00003  -0.00003   2.19309
   A43        1.97081   0.00000   0.00000   0.00000   0.00000   1.97081
   A44        1.88092  -0.00000   0.00000  -0.00001  -0.00001   1.88091
   A45        1.87197  -0.00000   0.00000  -0.00002  -0.00002   1.87195
   A46        1.93174   0.00000   0.00000   0.00001   0.00001   1.93175
   A47        1.94856   0.00000   0.00000   0.00003   0.00003   1.94859
   A48        1.85440  -0.00000   0.00000  -0.00001  -0.00001   1.85439
   A49        1.93341  -0.00000   0.00000  -0.00001  -0.00001   1.93341
   A50        1.91160   0.00000   0.00000   0.00002   0.00002   1.91162
   A51        1.91405   0.00000   0.00000   0.00001   0.00001   1.91407
   A52        1.93527  -0.00000   0.00000  -0.00003  -0.00003   1.93524
   A53        1.90471  -0.00000   0.00000   0.00001   0.00001   1.90472
   A54        1.86344  -0.00000   0.00000  -0.00001  -0.00001   1.86343
   A55        1.92336   0.00000   0.00000   0.00002   0.00002   1.92337
   A56        1.91168  -0.00000   0.00000  -0.00001  -0.00001   1.91167
   A57        1.93587  -0.00000   0.00000  -0.00000  -0.00000   1.93587
   A58        1.91325  -0.00000   0.00000  -0.00001  -0.00001   1.91324
   A59        1.91165  -0.00000   0.00000  -0.00000  -0.00000   1.91165
   A60        1.86718   0.00000   0.00000  -0.00000  -0.00000   1.86718
   A61        1.96491  -0.00000   0.00000  -0.00000  -0.00000   1.96490
   A62        1.89423   0.00000   0.00000   0.00001   0.00001   1.89424
   A63        1.90873   0.00000   0.00000   0.00001   0.00001   1.90874
   A64        1.90357  -0.00000   0.00000   0.00000   0.00000   1.90357
   A65        1.93683  -0.00000   0.00000  -0.00002  -0.00002   1.93681
   A66        1.85164  -0.00000   0.00000   0.00000   0.00000   1.85164
   A67        1.84656   0.00001   0.00000  -0.00002  -0.00002   1.84654
   A68        1.77044  -0.00000   0.00000  -0.00005  -0.00005   1.77039
   A69        1.93919   0.00001   0.00000   0.00007   0.00007   1.93927
   A70        2.03968   0.00000   0.00000   0.00003   0.00003   2.03970
   A71        1.87707  -0.00000   0.00000  -0.00005  -0.00005   1.87702
   A72        1.85293   0.00000   0.00000   0.00002   0.00002   1.85295
   A73        1.96456  -0.00001   0.00000  -0.00003  -0.00003   1.96453
   A74        2.12051   0.00000   0.00000   0.00001   0.00001   2.12052
   A75        2.08093  -0.00001   0.00000  -0.00002  -0.00002   2.08091
   A76        2.07756   0.00000   0.00000   0.00002   0.00002   2.07758
   A77        2.10106  -0.00000   0.00000  -0.00001  -0.00001   2.10105
   A78        2.10368   0.00000   0.00000   0.00002   0.00002   2.10370
   A79        2.07843  -0.00000   0.00000  -0.00001  -0.00001   2.07842
   A80        2.09957  -0.00000   0.00000  -0.00001  -0.00001   2.09956
   A81        2.08458   0.00000   0.00000  -0.00000  -0.00000   2.08458
   A82        2.09901   0.00000   0.00000   0.00001   0.00001   2.09902
   A83        2.08682   0.00000   0.00000   0.00001   0.00001   2.08683
   A84        2.09815   0.00000   0.00000   0.00001   0.00001   2.09816
   A85        2.09822  -0.00000   0.00000  -0.00002  -0.00002   2.09820
   A86        2.09744  -0.00000   0.00000  -0.00000  -0.00000   2.09744
   A87        2.09866  -0.00000   0.00000  -0.00002  -0.00002   2.09864
   A88        2.08709   0.00000   0.00000   0.00002   0.00002   2.08711
   A89        2.10386  -0.00000   0.00000  -0.00001  -0.00001   2.10385
   A90        2.08850  -0.00000   0.00000  -0.00002  -0.00002   2.08848
   A91        2.09070   0.00000   0.00000   0.00003   0.00003   2.09073
   A92        2.04616  -0.00001   0.00000  -0.00004  -0.00004   2.04613
   A93        2.16572   0.00001   0.00000   0.00003   0.00003   2.16576
   A94        2.07129   0.00000   0.00000   0.00001   0.00001   2.07130
   A95        2.10883  -0.00000   0.00000  -0.00000  -0.00000   2.10883
   A96        2.07816  -0.00000   0.00000  -0.00001  -0.00001   2.07816
   A97        2.09619   0.00000   0.00000   0.00001   0.00001   2.09619
   A98        2.09568  -0.00000   0.00000  -0.00001  -0.00001   2.09567
   A99        2.09004   0.00000   0.00000   0.00001   0.00001   2.09005
   A100       2.09744  -0.00000   0.00000  -0.00000  -0.00000   2.09744
   A101       2.08652   0.00000   0.00000   0.00001   0.00001   2.08653
   A102       2.09826  -0.00000   0.00000  -0.00001  -0.00001   2.09825
   A103       2.09840  -0.00000   0.00000  -0.00000  -0.00000   2.09840
   A104       2.09951  -0.00000   0.00000  -0.00000  -0.00000   2.09951
   A105       2.09922   0.00000   0.00000   0.00001   0.00001   2.09923
   A106       2.08445  -0.00000   0.00000  -0.00000  -0.00000   2.08445
   A107       2.10444  -0.00000   0.00000  -0.00001  -0.00001   2.10443
   A108       2.11149   0.00000   0.00000   0.00001   0.00001   2.11150
   A109       2.06726  -0.00000   0.00000  -0.00001  -0.00001   2.06725
   A110       2.10412  -0.00000   0.00000  -0.00000  -0.00000   2.10412
   A111       2.09363   0.00000   0.00000   0.00000   0.00000   2.09363
   A112       2.08534  -0.00000   0.00000  -0.00000  -0.00000   2.08534
   A113       2.09179  -0.00000   0.00000  -0.00001  -0.00001   2.09179
   A114       2.10017   0.00000   0.00000   0.00000   0.00000   2.10017
   A115       2.09121   0.00000   0.00000   0.00000   0.00000   2.09121
   A116       1.40535   0.00000   0.00000   0.00002   0.00002   1.40538
   A117       1.78539   0.00001   0.00000   0.00008   0.00008   1.78547
   A118       1.91604  -0.00001   0.00000  -0.00008  -0.00008   1.91596
   A119       1.65979  -0.00000   0.00000  -0.00003  -0.00003   1.65976
   A120       1.92088   0.00001   0.00000   0.00010   0.00010   1.92098
   A121       2.47342  -0.00001   0.00000  -0.00004  -0.00004   2.47338
    D1        0.01612   0.00000   0.00000   0.00004   0.00004   0.01616
    D2       -3.12126   0.00000   0.00000   0.00004   0.00004  -3.12122
    D3       -3.13727   0.00000   0.00000   0.00003   0.00003  -3.13723
    D4        0.00854   0.00000   0.00000   0.00003   0.00003   0.00857
    D5       -0.00783  -0.00000   0.00000  -0.00006  -0.00006  -0.00789
    D6        3.12778  -0.00000   0.00000  -0.00007  -0.00007   3.12771
    D7       -3.13765  -0.00000   0.00000  -0.00005  -0.00005  -3.13770
    D8       -0.00204  -0.00000   0.00000  -0.00006  -0.00006  -0.00210
    D9       -0.00656   0.00000   0.00000   0.00004   0.00004  -0.00652
   D10       -3.10950   0.00000   0.00000   0.00004   0.00004  -3.10946
   D11        3.13087   0.00000   0.00000   0.00004   0.00004   3.13091
   D12        0.02793   0.00000   0.00000   0.00004   0.00004   0.02797
   D13        3.09204  -0.00000   0.00000  -0.00014  -0.00014   3.09190
   D14       -0.01116  -0.00000   0.00000  -0.00009  -0.00009  -0.01126
   D15       -0.08900  -0.00000   0.00000  -0.00014  -0.00014  -0.08914
   D16        3.09099  -0.00000   0.00000  -0.00010  -0.00010   3.09089
   D17        0.36446   0.00000   0.00000   0.00043   0.00043   0.36489
   D18       -1.69402   0.00000   0.00000   0.00040   0.00040  -1.69362
   D19        2.43027   0.00000   0.00000   0.00038   0.00038   2.43065
   D20       -2.81524   0.00000   0.00000   0.00039   0.00039  -2.81485
   D21        1.40947   0.00000   0.00000   0.00036   0.00036   1.40982
   D22       -0.74943   0.00000   0.00000   0.00034   0.00034  -0.74909
   D23        0.01945   0.00000   0.00000   0.00007   0.00007   0.01952
   D24       -3.13669   0.00000   0.00000   0.00007   0.00007  -3.13661
   D25       -3.08475   0.00000   0.00000   0.00011   0.00011  -3.08463
   D26        0.04230   0.00000   0.00000   0.00012   0.00012   0.04242
   D27       -2.43445  -0.00000   0.00000  -0.00025  -0.00025  -2.43470
   D28        0.62412  -0.00000   0.00000  -0.00028  -0.00028   0.62384
   D29       -0.25063   0.00000   0.00000  -0.00020  -0.00020  -0.25083
   D30        2.80793  -0.00000   0.00000  -0.00023  -0.00023   2.80771
   D31        1.75502   0.00000   0.00000  -0.00022  -0.00022   1.75480
   D32       -1.46960  -0.00000   0.00000  -0.00025  -0.00025  -1.46985
   D33        2.49132   0.00000   0.00000   0.00038   0.00038   2.49171
   D34        0.50043   0.00000   0.00000   0.00044   0.00044   0.50087
   D35       -1.78662   0.00001   0.00000   0.00039   0.00039  -1.78623
   D36        0.32363  -0.00000   0.00000   0.00031   0.00031   0.32394
   D37       -1.66726   0.00000   0.00000   0.00037   0.00037  -1.66689
   D38        2.32888   0.00000   0.00000   0.00032   0.00032   2.32919
   D39       -1.63835   0.00000   0.00000   0.00039   0.00039  -1.63796
   D40        2.65395   0.00000   0.00000   0.00044   0.00044   2.65439
   D41        0.36690   0.00000   0.00000   0.00039   0.00039   0.36729
   D42       -3.12646  -0.00000   0.00000  -0.00009  -0.00009  -3.12654
   D43        0.06689  -0.00000   0.00000  -0.00002  -0.00002   0.06688
   D44        0.07336  -0.00000   0.00000  -0.00007  -0.00007   0.07329
   D45       -3.01647  -0.00000   0.00000  -0.00000  -0.00000  -3.01647
   D46       -3.10905   0.00001   0.00000   0.00020   0.00020  -3.10885
   D47       -1.48239   0.00000   0.00000   0.00016   0.00016  -1.48223
   D48        1.28870  -0.00001   0.00000   0.00008   0.00008   1.28878
   D49       -0.05248   0.00000   0.00000   0.00017   0.00017  -0.05231
   D50        1.57418   0.00000   0.00000   0.00013   0.00013   1.57431
   D51       -1.93792  -0.00001   0.00000   0.00006   0.00006  -1.93787
   D52        3.12560  -0.00000   0.00000  -0.00004  -0.00004   3.12556
   D53       -0.05230  -0.00000   0.00000  -0.00016  -0.00016  -0.05246
   D54       -0.06898  -0.00000   0.00000  -0.00011  -0.00011  -0.06910
   D55        3.03630  -0.00000   0.00000  -0.00023  -0.00023   3.03607
   D56        0.16576   0.00000   0.00000   0.00024   0.00024   0.16600
   D57       -2.92433   0.00001   0.00000   0.00031   0.00031  -2.92402
   D58        3.10959   0.00000   0.00000  -0.00010  -0.00010   3.10948
   D59       -0.03569   0.00000   0.00000  -0.00007  -0.00007  -0.03576
   D60        0.00765   0.00000   0.00000   0.00002   0.00002   0.00767
   D61       -3.13763   0.00000   0.00000   0.00005   0.00005  -3.13757
   D62       -3.07474  -0.00000   0.00000   0.00006   0.00006  -3.07468
   D63        0.00224   0.00000   0.00000   0.00030   0.00030   0.00254
   D64        0.03163  -0.00000   0.00000  -0.00005  -0.00005   0.03158
   D65        3.10861   0.00000   0.00000   0.00019   0.00019   3.10880
   D66       -0.02788   0.00000   0.00000   0.00000   0.00000  -0.02788
   D67        3.12342   0.00000   0.00000   0.00002   0.00002   3.12344
   D68        3.11747   0.00000   0.00000  -0.00003  -0.00003   3.11744
   D69       -0.01441  -0.00000   0.00000  -0.00002  -0.00002  -0.01443
   D70        0.01040  -0.00000   0.00000   0.00000   0.00000   0.01041
   D71       -3.11887  -0.00000   0.00000  -0.00002  -0.00002  -3.11889
   D72       -3.14085  -0.00000   0.00000  -0.00001  -0.00001  -3.14086
   D73        0.01306  -0.00000   0.00000  -0.00004  -0.00004   0.01302
   D74        0.02898  -0.00000   0.00000  -0.00003  -0.00003   0.02895
   D75       -3.11032  -0.00000   0.00000  -0.00002  -0.00002  -3.11033
   D76       -3.12481  -0.00000   0.00000  -0.00001  -0.00001  -3.12482
   D77        0.01907   0.00000   0.00000   0.00001   0.00001   0.01908
   D78       -2.83320   0.00000   0.00000   0.00000   0.00000  -2.83319
   D79        1.34106   0.00000   0.00000  -0.00001  -0.00001   1.34105
   D80       -0.67162  -0.00000   0.00000  -0.00002  -0.00002  -0.67164
   D81        0.32103  -0.00000   0.00000  -0.00002  -0.00002   0.32100
   D82       -1.78791  -0.00000   0.00000  -0.00003  -0.00003  -1.78794
   D83        2.48260  -0.00000   0.00000  -0.00005  -0.00005   2.48256
   D84       -0.05004   0.00000   0.00000   0.00006   0.00006  -0.04999
   D85       -3.11870  -0.00000   0.00000  -0.00021  -0.00021  -3.11891
   D86        3.08942   0.00000   0.00000   0.00004   0.00004   3.08946
   D87        0.02076  -0.00001   0.00000  -0.00023  -0.00023   0.02053
   D88        0.19994   0.00000   0.00000   0.00001   0.00001   0.19995
   D89       -1.93908  -0.00000   0.00000   0.00001   0.00001  -1.93907
   D90        2.35389   0.00000   0.00000   0.00004   0.00004   2.35393
   D91       -2.93947   0.00000   0.00000   0.00002   0.00002  -2.93944
   D92        1.20471  -0.00000   0.00000   0.00002   0.00002   1.20473
   D93       -0.78551   0.00000   0.00000   0.00005   0.00005  -0.78546
   D94        0.02588  -0.00000   0.00000  -0.00026  -0.00026   0.02561
   D95       -1.74817  -0.00001   0.00000  -0.00035  -0.00035  -1.74852
   D96        1.90588  -0.00001   0.00000  -0.00035  -0.00035   1.90553
   D97        3.09910   0.00000   0.00000  -0.00001  -0.00001   3.09909
   D98        1.32505  -0.00001   0.00000  -0.00010  -0.00010   1.32496
   D99       -1.30408  -0.00000   0.00000  -0.00009  -0.00009  -1.30417
   D100      -0.74818   0.00000   0.00000  -0.00000  -0.00000  -0.74818
   D101      -2.88829   0.00000   0.00000   0.00002   0.00002  -2.88827
   D102       1.35531   0.00000   0.00000   0.00001   0.00001   1.35532
   D103       1.36218  -0.00000   0.00000  -0.00001  -0.00001   1.36217
   D104      -0.77794   0.00000   0.00000   0.00001   0.00001  -0.77793
   D105      -2.81752  -0.00000   0.00000   0.00000   0.00000  -2.81752
   D106      -2.85913   0.00000   0.00000  -0.00000  -0.00000  -2.85914
   D107       1.28393   0.00000   0.00000   0.00002   0.00002   1.28396
   D108      -0.75565   0.00000   0.00000   0.00001   0.00001  -0.75564
   D109       1.10117   0.00000   0.00000  -0.00000  -0.00000   1.10117
   D110      -1.00500   0.00000   0.00000   0.00000   0.00000  -1.00500
   D111      -3.06208   0.00000   0.00000   0.00001   0.00001  -3.06207
   D112      -3.05572   0.00000   0.00000   0.00000   0.00000  -3.05572
   D113       1.12129   0.00000   0.00000   0.00001   0.00001   1.12130
   D114      -0.93578   0.00000   0.00000   0.00001   0.00001  -0.93577
   D115      -1.00786  -0.00000   0.00000  -0.00002  -0.00002  -1.00788
   D116      -3.11404  -0.00000   0.00000  -0.00002  -0.00002  -3.11405
   D117       1.11207  -0.00000   0.00000  -0.00001  -0.00001   1.11206
   D118      -0.86864  -0.00000   0.00000   0.00002   0.00002  -0.86862
   D119       1.23493   0.00000   0.00000   0.00003   0.00003   1.23497
   D120      -3.01456  -0.00000   0.00000   0.00002   0.00002  -3.01454
   D121       1.23659   0.00000   0.00000   0.00002   0.00002   1.23661
   D122      -2.94302   0.00000   0.00000   0.00003   0.00003  -2.94299
   D123      -0.90933  -0.00000   0.00000   0.00002   0.00002  -0.90931
   D124      -3.00292  -0.00000   0.00000   0.00001   0.00001  -3.00291
   D125      -0.89935   0.00000   0.00000   0.00002   0.00002  -0.89932
   D126       1.13434  -0.00000   0.00000   0.00001   0.00001   1.13435
   D127      -0.29575  -0.00000   0.00000  -0.00033  -0.00033  -0.29608
   D128       1.74107   0.00001   0.00000  -0.00029  -0.00029   1.74078
   D129      -2.43541  -0.00000   0.00000  -0.00034  -0.00034  -2.43575
   D130       1.46602  -0.00000   0.00000  -0.00068  -0.00068   1.46534
   D131      -1.57638  -0.00001   0.00000  -0.00086  -0.00086  -1.57724
   D132      -0.45705  -0.00000   0.00000  -0.00063  -0.00063  -0.45767
   D133       2.78374  -0.00001   0.00000  -0.00080  -0.00080   2.78293
   D134      -2.49189  -0.00000   0.00000  -0.00060  -0.00060  -2.49249
   D135       0.74889  -0.00000   0.00000  -0.00078  -0.00078   0.74811
   D136      -3.05508   0.00000   0.00000  -0.00013  -0.00013  -3.05521
   D137       0.08312   0.00000   0.00000  -0.00012  -0.00012   0.08301
   D138      -1.09632  -0.00000   0.00000  -0.00017  -0.00017  -1.09649
   D139       2.04188   0.00000   0.00000  -0.00015  -0.00015   2.04173
   D140       0.95288  -0.00000   0.00000  -0.00023  -0.00023   0.95264
   D141      -2.19210  -0.00000   0.00000  -0.00022  -0.00022  -2.19232
   D142      -3.03692   0.00000   0.00000  -0.00004  -0.00004  -3.03696
   D143       0.09958  -0.00000   0.00000  -0.00008  -0.00008   0.09950
   D144       0.00567   0.00000   0.00000   0.00014   0.00014   0.00581
   D145      -3.14101   0.00000   0.00000   0.00010   0.00010  -3.14092
   D146       3.03330   0.00000   0.00000   0.00002   0.00002   3.03333
   D147      -0.09105  -0.00000   0.00000   0.00003   0.00003  -0.09103
   D148      -0.01156  -0.00000   0.00000  -0.00015  -0.00015  -0.01171
   D149      -3.13592  -0.00000   0.00000  -0.00015  -0.00015  -3.13607
   D150       0.00379  -0.00000   0.00000  -0.00003  -0.00003   0.00376
   D151       3.13714  -0.00000   0.00000  -0.00004  -0.00004   3.13710
   D152      -3.13279   0.00000   0.00000   0.00001   0.00001  -3.13278
   D153       0.00056   0.00000   0.00000   0.00000   0.00000   0.00057
   D154      -0.00742  -0.00000   0.00000  -0.00006  -0.00006  -0.00749
   D155       3.13395  -0.00000   0.00000  -0.00000  -0.00000   3.13395
   D156      -3.14071  -0.00000   0.00000  -0.00006  -0.00006  -3.14076
   D157       0.00067   0.00000   0.00000   0.00000   0.00000   0.00067
   D158       0.00155   0.00000   0.00000   0.00005   0.00005   0.00160
   D159       3.14084   0.00000   0.00000   0.00005   0.00005   3.14089
   D160      -3.13983  -0.00000   0.00000  -0.00001  -0.00001  -3.13983
   D161      -0.00054  -0.00000   0.00000  -0.00001  -0.00001  -0.00054
   D162       0.00801   0.00000   0.00000   0.00005   0.00005   0.00807
   D163       3.13235   0.00000   0.00000   0.00005   0.00005   3.13240
   D164      -3.13129   0.00000   0.00000   0.00005   0.00005  -3.13124
   D165      -0.00696   0.00000   0.00000   0.00005   0.00005  -0.00690
   D166       3.13061  -0.00000   0.00000  -0.00005  -0.00005   3.13056
   D167      -0.01577  -0.00000   0.00000  -0.00005  -0.00005  -0.01582
   D168      -0.00778  -0.00000   0.00000  -0.00006  -0.00006  -0.00784
   D169       3.12902  -0.00000   0.00000  -0.00006  -0.00006   3.12896
   D170       3.14017   0.00000   0.00000   0.00004   0.00004   3.14021
   D171       0.00206   0.00000   0.00000   0.00006   0.00006   0.00212
   D172      -0.00486   0.00000   0.00000   0.00006   0.00006  -0.00480
   D173       3.14022   0.00000   0.00000   0.00007   0.00007   3.14030
   D174       0.01379   0.00000   0.00000   0.00003   0.00003   0.01382
   D175      -3.13544   0.00000   0.00000   0.00003   0.00003  -3.13541
   D176      -3.12296   0.00000   0.00000   0.00003   0.00003  -3.12294
   D177       0.01099   0.00000   0.00000   0.00003   0.00003   0.01102
   D178      -0.00703   0.00000   0.00000   0.00001   0.00001  -0.00702
   D179       3.13230  -0.00000   0.00000  -0.00001  -0.00001   3.13229
   D180      -3.14095   0.00000   0.00000   0.00001   0.00001  -3.14094
   D181      -0.00162  -0.00000   0.00000  -0.00001  -0.00001  -0.00163
   D182      -0.00553  -0.00000   0.00000  -0.00001  -0.00001  -0.00554
   D183       3.13957  -0.00000   0.00000  -0.00003  -0.00003   3.13954
   D184       3.13833   0.00000   0.00000   0.00001   0.00001   3.13833
   D185       0.00024  -0.00000   0.00000  -0.00001  -0.00001   0.00022
   D186       0.01154  -0.00000   0.00000  -0.00002  -0.00002   0.01152
   D187      -3.13346  -0.00000   0.00000  -0.00003  -0.00003  -3.13349
   D188      -3.13353  -0.00000   0.00000  -0.00000  -0.00000  -3.13353
   D189       0.00466  -0.00000   0.00000  -0.00002  -0.00002   0.00465
   D190      -0.00991   0.00000   0.00000   0.00000   0.00000  -0.00990
   D191       3.13763   0.00000   0.00000   0.00001   0.00001   3.13764
   D192      -3.13703   0.00000   0.00000   0.00000   0.00000  -3.13702
   D193       0.01051   0.00000   0.00000   0.00001   0.00001   0.01052
         Item               Value     Threshold  Converged?
 Maximum Force            0.000016     0.000450     YES
 RMS     Force            0.000003     0.000300     YES
 Maximum Displacement     0.003191     0.001800     NO 
 RMS     Displacement     0.000693     0.001200     YES
 Predicted change in Energy=-3.798528D-08
 GradGradGradGradGradGradGradGradGradGradGradGradGradGradGradGradGradGrad

 Stoichiometry    C30H26F2N2NiO(3)
 Framework group  C1[X(C30H26F2N2NiO)]
 Deg. of freedom   180
 Full point group                 C1      NOp   1
 Largest Abelian subgroup         C1      NOp   1
 Largest concise Abelian subgroup C1      NOp   1
                         Standard orientation:                         
 ---------------------------------------------------------------------
 Center     Atomic      Atomic             Coordinates (Angstroms)
 Number     Number       Type             X           Y           Z
 ---------------------------------------------------------------------
      1          6           0        3.101141    4.122196   -0.169811
      2          6           0        1.833796    3.819576    0.326838
      3          6           0        1.235530    2.587463    0.057360
      4          6           0        1.914223    1.649051   -0.727345
      5          6           0        1.336420    0.278613   -0.993983
      6          7           0       -0.113457    0.198574   -0.801220
      7          6           0       -0.383395   -0.913314   -0.222688
      8          6           0       -1.766104   -1.289113    0.088106
      9          6           0       -2.150444   -2.478214    0.694883
     10          6           0       -3.508598   -2.656047    0.952614
     11          6           0       -4.431382   -1.655382    0.639204
     12          6           0       -3.948178   -0.471695    0.045222
     13          7           0       -2.650492   -0.329296   -0.238608
     14          6           0       -4.830594    0.699421   -0.306150
     15          6           0       -6.236067    0.589074    0.294637
     16          6           0       -6.779029   -0.836437    0.149085
     17          6           0       -5.905323   -1.819064    0.938329
     18          8           0        0.634314   -1.697407    0.145860
     19          6           0        1.870291   -0.877909   -0.047094
     20          6           0        2.274178   -0.329543    1.313687
     21          6           0        1.334549   -0.131901    2.329620
     22          6           0        1.705805    0.486990    3.523299
     23          6           0        3.017200    0.918723    3.713128
     24          6           0        3.960509    0.719926    2.704049
     25          6           0        3.592505    0.096087    1.515255
     26          6           0        2.911496   -1.814690   -0.629343
     27          6           0        3.310595   -2.902877    0.161999
     28          6           0        4.250727   -3.815607   -0.303495
     29          6           0        4.823859   -3.647785   -1.566916
     30          6           0        4.440684   -2.567222   -2.356607
     31          6           0        3.484617   -1.659366   -1.893167
     32          6           0        3.176893    1.961820   -1.243017
     33          6           0        3.772357    3.189550   -0.962222
     34          1           0        3.560147    5.082478    0.048822
     35          1           0        1.295156    4.545971    0.928697
     36          1           0        0.233534    2.390021    0.432438
     37          1           0        1.520508    0.011407   -2.039240
     38          1           0       -1.410236   -3.228383    0.947725
     39          1           0       -3.856735   -3.578283    1.410620
     40          1           0       -4.880966    0.764470   -1.402072
     41          1           0       -4.316041    1.607631    0.031992
     42          1           0       -6.899733    1.310968   -0.191968
     43          1           0       -6.204745    0.855375    1.359858
     44          1           0       -6.786649   -1.119946   -0.912196
     45          1           0       -7.813234   -0.899156    0.504403
     46          1           0       -6.063829   -1.656329    2.014649
     47          1           0       -6.203588   -2.855813    0.740469
     48          1           0        0.307974   -0.452353    2.199716
     49          1           0        0.962351    0.636587    4.300692
     50          1           0        3.303173    1.406861    4.640315
     51          1           0        4.985383    1.052582    2.840059
     52          1           0        4.328394   -0.047510    0.732018
     53          1           0        2.877984   -3.023076    1.150158
     54          1           0        4.542682   -4.654721    0.321356
     55          1           0        5.564786   -4.354441   -1.929364
     56          1           0        4.879883   -2.424382   -3.339513
     57          1           0        3.203098   -0.833783   -2.535405
     58          1           0        3.706670    1.238452   -1.857059
     59          1           0        4.754807    3.418416   -1.365899
     60         28           0       -1.777597    1.346057   -1.069758
     61          9           0       -1.823191    2.344573    0.486933
     62          9           0       -2.176199    1.444065   -2.833489
 ---------------------------------------------------------------------
 Rotational constants (GHZ):           0.1628175           0.0755214           0.0661534
 Basis read from rwf:  (6D, 7F)
 Pseudo-potential data read from rwf file.
 There are   654 symmetry adapted cartesian basis functions of A   symmetry.
 There are   651 symmetry adapted basis functions of A   symmetry.
   651 basis functions,  1238 primitive gaussians,   654 cartesian basis functions
   133 alpha electrons      131 beta electrons
       nuclear repulsion energy      4226.1173586220 Hartrees.
 NAtoms=   62 NActive=   62 NUniq=   62 SFac= 1.00D+00 NAtFMM=   60 NAOKFM=T Big=T
 Integral buffers will be    131072 words long.
 Raffenetti 2 integral format.
 Two-electron integral symmetry is turned on.
 Nuclear repulsion after empirical dispersion term =     4225.9502854687 Hartrees.
 One-electron integrals computed using PRISM.
 PrsmSu:  requested number of processors reduced to:  12 ShMem   1 Linda.
   1 Symmetry operations used in ECPInt.
 ECPInt:  NShTT=   22791 NPrTT=  142008 LenC2=   18123 LenP2D=   59668.
 LDataN:  DoStor=T MaxTD1= 6 Len=  172
 Number of processors reduced to  11 by ecpmxn.
 NBasis=   651 RedAO= T EigKep=  1.01D-06  NBF=   651
 NBsUse=   651 1.00D-06 EigRej= -1.00D+00 NBFU=   651
 Initial guess from the checkpoint file:  "Lig2120_xyz_3.chk"
 B after Tr=    -0.000000   -0.000000    0.000000
         Rot=    1.000000   -0.000109    0.000047   -0.000026 Ang=  -0.01 deg.
 Initial guess <Sx>= 0.0000 <Sy>= 0.0000 <Sz>= 1.0000 <S**2>= 2.0069 S= 1.0023
 Requested convergence on RMS density matrix=1.00D-08 within 128 cycles.
 Requested convergence on MAX density matrix=1.00D-06.
 Requested convergence on             energy=1.00D-06.
 No special actions if energy rises.
 SCF Done:  E(UB3LYP) =  -1712.90146036     A.U. after   20 cycles
            NFock= 20  Conv=0.28D-08     -V/T= 2.0467
 <Sx>= 0.0000 <Sy>= 0.0000 <Sz>= 1.0000 <S**2>= 2.0069 S= 1.0023
 <L.S>=  0.00000000000    
 Annihilation of the first spin contaminant:
 S**2 before annihilation     2.0069,   after     2.0000
 PrsmSu:  requested number of processors reduced to:  12 ShMem   1 Linda.
   1 Symmetry operations used in ECPInt.
 ECPInt:  NShTT=   22791 NPrTT=  142008 LenC2=   18123 LenP2D=   59668.
 LDataN:  DoStor=T MaxTD1= 7 Len=  274
 Number of processors reduced to  13 by ecpmxn.
 Calling FoFJK, ICntrl=      2127 FMM=T ISym2X=0 I1Cent= 0 IOpClX= 1 NMat=1 NMatS=1 NMatT=0.
 ***** Axes restored to original set *****
 -------------------------------------------------------------------
 Center     Atomic                   Forces (Hartrees/Bohr)
 Number     Number              X              Y              Z
 -------------------------------------------------------------------
      1        6          -0.000001428    0.000005802   -0.000011374
      2        6           0.000003548    0.000004107   -0.000006339
      3        6          -0.000000570   -0.000003267    0.000003695
      4        6           0.000001438    0.000011730   -0.000000726
      5        6          -0.000013738    0.000004089    0.000009653
      6        7           0.000016264   -0.000004622   -0.000020098
      7        6          -0.000002346    0.000013021   -0.000002061
      8        6           0.000004194    0.000003534    0.000002512
      9        6          -0.000003384   -0.000003684    0.000001073
     10        6           0.000002510   -0.000008172    0.000004240
     11        6           0.000001383    0.000001446    0.000005168
     12        6          -0.000000933   -0.000005324   -0.000002874
     13        7          -0.000011929   -0.000013276    0.000013742
     14        6           0.000001980   -0.000006582    0.000005489
     15        6          -0.000004869   -0.000003249   -0.000001862
     16        6          -0.000000094   -0.000004006    0.000002898
     17        6          -0.000002986   -0.000005718    0.000005197
     18        8           0.000014348    0.000000186    0.000003223
     19        6          -0.000002820   -0.000004732   -0.000003911
     20        6          -0.000002670    0.000001549   -0.000005579
     21        6          -0.000000836   -0.000002861   -0.000005946
     22        6          -0.000002729   -0.000005808   -0.000002304
     23        6           0.000000423   -0.000001593   -0.000001584
     24        6          -0.000003123   -0.000000995   -0.000006087
     25        6          -0.000005709   -0.000011306   -0.000004963
     26        6          -0.000000125   -0.000004037   -0.000007404
     27        6           0.000002635    0.000009869    0.000005680
     28        6           0.000003697   -0.000000841    0.000009399
     29        6           0.000002651    0.000001880    0.000000598
     30        6           0.000001279    0.000010718    0.000005305
     31        6           0.000009436    0.000002518    0.000007759
     32        6           0.000000442    0.000012300    0.000001855
     33        6          -0.000002049    0.000001984   -0.000004295
     34        1          -0.000000627    0.000004626   -0.000009177
     35        1          -0.000002369    0.000001256   -0.000009325
     36        1           0.000003470    0.000003408   -0.000011832
     37        1          -0.000001160    0.000012435    0.000000534
     38        1           0.000001694   -0.000002959    0.000006287
     39        1          -0.000001570   -0.000004941    0.000006812
     40        1           0.000001120    0.000000789   -0.000000306
     41        1          -0.000003854   -0.000000328   -0.000003113
     42        1          -0.000000379   -0.000002727   -0.000000013
     43        1          -0.000002064   -0.000005015   -0.000000579
     44        1          -0.000000324   -0.000002834    0.000004181
     45        1          -0.000001372   -0.000005448    0.000003726
     46        1          -0.000001623   -0.000006857    0.000003568
     47        1          -0.000000230   -0.000005952    0.000005974
     48        1          -0.000003283   -0.000008069    0.000004361
     49        1          -0.000002642   -0.000004937   -0.000004049
     50        1          -0.000004129   -0.000004454   -0.000005985
     51        1          -0.000001781   -0.000001595   -0.000002890
     52        1          -0.000000249   -0.000001646   -0.000005153
     53        1           0.000000217   -0.000000871    0.000002570
     54        1           0.000001639    0.000000902    0.000005882
     55        1           0.000003739    0.000005148    0.000006949
     56        1           0.000004085    0.000006918    0.000004072
     57        1           0.000004422    0.000006966    0.000002023
     58        1           0.000003129    0.000002454   -0.000001523
     59        1           0.000001500    0.000006593   -0.000007514
     60       28           0.000003191    0.000018372    0.000012369
     61        9           0.000001865   -0.000008790   -0.000004925
     62        9          -0.000006307    0.000002894   -0.000002998
 -------------------------------------------------------------------
 Cartesian Forces:  Max     0.000020098 RMS     0.000005765

 GradGradGradGradGradGradGradGradGradGradGradGradGradGradGradGradGradGrad
 Berny optimization.
 Using GEDIIS/GDIIS optimizer.
 FormGI is forming the generalized inverse of G from B-inverse, IUseBI=4.
 Internal  Forces:  Max     0.000028559 RMS     0.000004087
 Search for a local minimum.
 Step number   2 out of a maximum of  372
 All quantities printed in internal units (Hartrees-Bohrs-Radians)
 Mixed Optimization -- En-DIIS/RFO-DIIS
 Swapping is turned off.
 Update second derivatives using D2CorX and points    1    2
 DE=  5.03D-07 DEPred=-3.80D-08 R=-1.32D+01
 Trust test=-1.32D+01 RLast= 2.76D-03 DXMaxT set to 1.50D-01
 ITU= -1  0
     Eigenvalues ---    0.00494   0.00515   0.00524   0.00567   0.00618
     Eigenvalues ---    0.00846   0.01129   0.01226   0.01333   0.01445
     Eigenvalues ---    0.01478   0.01519   0.01633   0.01660   0.01830
     Eigenvalues ---    0.01884   0.02065   0.02083   0.02092   0.02117
     Eigenvalues ---    0.02127   0.02129   0.02135   0.02137   0.02140
     Eigenvalues ---    0.02142   0.02145   0.02149   0.02150   0.02151
     Eigenvalues ---    0.02154   0.02154   0.02157   0.02159   0.02161
     Eigenvalues ---    0.02164   0.02165   0.02166   0.02169   0.02174
     Eigenvalues ---    0.02181   0.02198   0.02205   0.02228   0.02256
     Eigenvalues ---    0.02749   0.03031   0.04079   0.04265   0.04458
     Eigenvalues ---    0.04620   0.04894   0.05172   0.05229   0.05671
     Eigenvalues ---    0.05993   0.06441   0.06924   0.07260   0.07826
     Eigenvalues ---    0.07914   0.07970   0.08183   0.09308   0.09437
     Eigenvalues ---    0.09592   0.11271   0.11611   0.12156   0.12176
     Eigenvalues ---    0.12670   0.13463   0.13978   0.15469   0.15775
     Eigenvalues ---    0.15992   0.15998   0.15998   0.15999   0.15999
     Eigenvalues ---    0.15999   0.16000   0.16000   0.16000   0.16000
     Eigenvalues ---    0.16000   0.16000   0.16000   0.16000   0.16000
     Eigenvalues ---    0.16018   0.16193   0.18463   0.19239   0.19254
     Eigenvalues ---    0.20859   0.21985   0.21999   0.22000   0.22000
     Eigenvalues ---    0.22000   0.22011   0.22584   0.23367   0.23402
     Eigenvalues ---    0.23460   0.23474   0.23902   0.24214   0.24470
     Eigenvalues ---    0.24755   0.24799   0.24886   0.24890   0.24972
     Eigenvalues ---    0.24986   0.27252   0.27941   0.28311   0.28476
     Eigenvalues ---    0.30308   0.30577   0.30677   0.31130   0.31326
     Eigenvalues ---    0.32294   0.33675   0.33791   0.33846   0.33853
     Eigenvalues ---    0.33987   0.34039   0.34203   0.34275   0.34342
     Eigenvalues ---    0.35046   0.35079   0.35166   0.35212   0.35217
     Eigenvalues ---    0.35245   0.35246   0.35258   0.35261   0.35263
     Eigenvalues ---    0.35272   0.35277   0.35278   0.35350   0.35373
     Eigenvalues ---    0.35495   0.35540   0.35610   0.35622   0.39907
     Eigenvalues ---    0.41858   0.41996   0.42044   0.42060   0.42113
     Eigenvalues ---    0.42287   0.43116   0.45243   0.45514   0.45851
     Eigenvalues ---    0.45925   0.46107   0.46145   0.46190   0.46372
     Eigenvalues ---    0.46436   0.46541   0.46650   0.46789   0.46878
     Eigenvalues ---    0.46935   0.50945   0.53547   0.56602   0.63161
 En-DIIS/RFO-DIIS/Sim-DIIS IScMMF=       -3 using points:     2    1
 RFO step:  Lambda=-7.10140942D-08.
 DidBck=F Rises=T En-DIIS coefs:    1.00000    0.00000
 Iteration  1 RMS(Cart)=  0.00045256 RMS(Int)=  0.00000005
 Iteration  2 RMS(Cart)=  0.00000010 RMS(Int)=  0.00000000
 Variable       Old X    -DE/DX   Delta X   Delta X   Delta X     New X
                                 (Linear)    (Quad)   (Total)
    R1        2.63507   0.00000   0.00000   0.00001   0.00001   2.63507
    R2        2.63769   0.00000   0.00000  -0.00000  -0.00000   2.63769
    R3        2.05332  -0.00000   0.00000  -0.00000  -0.00000   2.05331
    R4        2.63794  -0.00000   0.00000  -0.00001  -0.00001   2.63793
    R5        2.05278   0.00000   0.00000  -0.00000  -0.00000   2.05278
    R6        2.64359   0.00000   0.00000   0.00001   0.00001   2.64360
    R7        2.05595   0.00000   0.00000   0.00000   0.00000   2.05595
    R8        2.85533  -0.00001   0.00000  -0.00002  -0.00002   2.85532
    R9        2.64432  -0.00000   0.00000  -0.00001  -0.00001   2.64431
   R10        2.76811  -0.00000   0.00000   0.00003   0.00003   2.76815
   R11        2.99935  -0.00003   0.00000  -0.00005  -0.00005   2.99930
   R12        2.06824   0.00000   0.00000   0.00000   0.00000   2.06824
   R13        2.42288   0.00001   0.00000   0.00000   0.00000   2.42288
   R14        3.85346  -0.00001   0.00000  -0.00010  -0.00010   3.85336
   R15        2.77069   0.00000   0.00000   0.00001   0.00001   2.77070
   R16        2.52571   0.00000   0.00000  -0.00002  -0.00002   2.52569
   R17        2.62519  -0.00000   0.00000  -0.00001  -0.00001   2.62519
   R18        2.54246   0.00000   0.00000  -0.00001  -0.00001   2.54245
   R19        2.63387   0.00000   0.00000   0.00001   0.00001   2.63388
   R20        2.04806  -0.00000   0.00000  -0.00000  -0.00000   2.04806
   R21        2.63959  -0.00000   0.00000  -0.00001  -0.00001   2.63958
   R22        2.05406   0.00000   0.00000   0.00000   0.00000   2.05406
   R23        2.66406   0.00000   0.00000   0.00001   0.00001   2.66407
   R24        2.85891  -0.00000   0.00000  -0.00000  -0.00000   2.85890
   R25        2.52462  -0.00000   0.00000  -0.00000  -0.00000   2.52462
   R26        2.84944  -0.00000   0.00000   0.00000   0.00000   2.84944
   R27        3.90015  -0.00001   0.00000  -0.00013  -0.00013   3.90002
   R28        2.89595  -0.00000   0.00000  -0.00002  -0.00002   2.89593
   R29        2.07682   0.00000   0.00000   0.00000   0.00000   2.07682
   R30        2.07350   0.00000   0.00000   0.00000   0.00000   2.07350
   R31        2.89571   0.00000   0.00000   0.00001   0.00001   2.89572
   R32        2.06868   0.00000   0.00000   0.00000   0.00000   2.06868
   R33        2.07577  -0.00000   0.00000  -0.00000  -0.00000   2.07577
   R34        2.89802   0.00000   0.00000   0.00001   0.00001   2.89803
   R35        2.07591  -0.00000   0.00000  -0.00000  -0.00000   2.07590
   R36        2.06989   0.00000   0.00000  -0.00000  -0.00000   2.06989
   R37        2.07876  -0.00000   0.00000  -0.00001  -0.00001   2.07875
   R38        2.07264   0.00000   0.00000   0.00000   0.00000   2.07264
   R39        2.82604   0.00001   0.00000   0.00002   0.00002   2.82606
   R40        2.87559   0.00001   0.00000  -0.00001  -0.00001   2.87558
   R41        2.86634  -0.00000   0.00000   0.00000   0.00000   2.86634
   R42        2.64162   0.00000   0.00000  -0.00001  -0.00001   2.64162
   R43        2.64547   0.00001   0.00000   0.00002   0.00002   2.64548
   R44        2.63597   0.00000   0.00000   0.00001   0.00001   2.63598
   R45        2.04704  -0.00000   0.00000  -0.00000  -0.00000   2.04703
   R46        2.63357  -0.00000   0.00000  -0.00002  -0.00002   2.63355
   R47        2.05228  -0.00000   0.00000  -0.00000  -0.00000   2.05228
   R48        2.63723   0.00000   0.00000   0.00001   0.00001   2.63724
   R49        2.05254   0.00000   0.00000   0.00000   0.00000   2.05254
   R50        2.63061   0.00000   0.00000  -0.00001  -0.00001   2.63060
   R51        2.05236   0.00000   0.00000  -0.00000  -0.00000   2.05235
   R52        2.04895   0.00000   0.00000   0.00000   0.00000   2.04895
   R53        2.65212   0.00001   0.00000   0.00002   0.00002   2.65214
   R54        2.63875  -0.00001   0.00000  -0.00002  -0.00002   2.63873
   R55        2.62775  -0.00000   0.00000  -0.00001  -0.00001   2.62773
   R56        2.05108  -0.00000   0.00000  -0.00000  -0.00000   2.05108
   R57        2.64080   0.00000   0.00000   0.00002   0.00002   2.64082
   R58        2.05258  -0.00000   0.00000  -0.00000  -0.00000   2.05258
   R59        2.63076  -0.00000   0.00000  -0.00001  -0.00001   2.63075
   R60        2.05251   0.00000   0.00000  -0.00000  -0.00000   2.05251
   R61        2.64092   0.00000   0.00000   0.00002   0.00002   2.64093
   R62        2.05225  -0.00000   0.00000  -0.00000  -0.00000   2.05225
   R63        2.04694  -0.00000   0.00000  -0.00000  -0.00000   2.04694
   R64        2.63259   0.00000   0.00000   0.00001   0.00001   2.63260
   R65        2.05361  -0.00000   0.00000  -0.00001  -0.00001   2.05361
   R66        2.05324  -0.00000   0.00000  -0.00000  -0.00000   2.05324
   R67        3.49594   0.00000   0.00000   0.00004   0.00004   3.49598
   R68        3.42204  -0.00000   0.00000  -0.00000  -0.00000   3.42204
    A1        2.08777   0.00000   0.00000   0.00001   0.00001   2.08777
    A2        2.09910  -0.00000   0.00000  -0.00001  -0.00001   2.09909
    A3        2.09625   0.00000   0.00000   0.00000   0.00000   2.09626
    A4        2.10868  -0.00000   0.00000  -0.00000  -0.00000   2.10867
    A5        2.09773  -0.00000   0.00000  -0.00001  -0.00001   2.09772
    A6        2.07678   0.00000   0.00000   0.00001   0.00001   2.07679
    A7        2.08569   0.00000   0.00000  -0.00001  -0.00001   2.08568
    A8        2.08098   0.00000   0.00000   0.00002   0.00002   2.08100
    A9        2.11585  -0.00001   0.00000  -0.00002  -0.00002   2.11583
   A10        2.11985  -0.00002   0.00000  -0.00002  -0.00002   2.11982
   A11        2.08812   0.00000   0.00000   0.00001   0.00001   2.08813
   A12        2.07460   0.00001   0.00000   0.00000   0.00000   2.07460
   A13        1.98760  -0.00001   0.00000  -0.00005  -0.00005   1.98755
   A14        2.01195  -0.00001   0.00000  -0.00005  -0.00005   2.01190
   A15        1.90249   0.00001   0.00000   0.00007   0.00007   1.90256
   A16        1.78709   0.00001   0.00000   0.00002   0.00002   1.78710
   A17        1.85336   0.00000   0.00000   0.00004   0.00004   1.85340
   A18        1.91271  -0.00000   0.00000  -0.00002  -0.00002   1.91269
   A19        1.89142  -0.00000   0.00000  -0.00002  -0.00002   1.89139
   A20        2.43362   0.00000   0.00000   0.00000   0.00000   2.43363
   A21        1.95585   0.00000   0.00000   0.00000   0.00000   1.95585
   A22        2.11353  -0.00001   0.00000  -0.00002  -0.00002   2.11351
   A23        2.06334  -0.00000   0.00000   0.00001   0.00001   2.06335
   A24        2.10514   0.00001   0.00000   0.00000   0.00000   2.10514
   A25        2.18083   0.00000   0.00000   0.00003   0.00003   2.18086
   A26        1.96664  -0.00000   0.00000  -0.00002  -0.00002   1.96661
   A27        2.13513  -0.00000   0.00000  -0.00001  -0.00001   2.13511
   A28        2.04831  -0.00000   0.00000  -0.00001  -0.00001   2.04830
   A29        2.10067   0.00000   0.00000   0.00004   0.00004   2.10070
   A30        2.13420  -0.00000   0.00000  -0.00003  -0.00003   2.13417
   A31        2.10697   0.00000   0.00000   0.00002   0.00002   2.10699
   A32        2.09240  -0.00000   0.00000  -0.00003  -0.00003   2.09237
   A33        2.08378   0.00000   0.00000   0.00001   0.00001   2.08379
   A34        2.05964  -0.00000   0.00000  -0.00001  -0.00001   2.05963
   A35        2.11971   0.00000   0.00000   0.00002   0.00002   2.11973
   A36        2.10376  -0.00000   0.00000  -0.00001  -0.00001   2.10375
   A37        2.10824  -0.00000   0.00000  -0.00001  -0.00001   2.10823
   A38        2.15283   0.00000   0.00000   0.00001   0.00001   2.15284
   A39        2.02211  -0.00000   0.00000   0.00000   0.00000   2.02211
   A40        2.10699   0.00000   0.00000   0.00003   0.00003   2.10702
   A41        1.98109   0.00000   0.00000   0.00002   0.00002   1.98111
   A42        2.19309  -0.00001   0.00000  -0.00003  -0.00003   2.19306
   A43        1.97081  -0.00000   0.00000  -0.00000  -0.00000   1.97081
   A44        1.88091  -0.00000   0.00000  -0.00001  -0.00001   1.88090
   A45        1.87195  -0.00000   0.00000  -0.00002  -0.00002   1.87193
   A46        1.93175  -0.00000   0.00000  -0.00000  -0.00000   1.93175
   A47        1.94859   0.00000   0.00000   0.00004   0.00004   1.94863
   A48        1.85439  -0.00000   0.00000  -0.00001  -0.00001   1.85439
   A49        1.93341  -0.00000   0.00000  -0.00001  -0.00001   1.93340
   A50        1.91162   0.00000   0.00000   0.00002   0.00002   1.91164
   A51        1.91407   0.00000   0.00000   0.00001   0.00001   1.91408
   A52        1.93524  -0.00000   0.00000  -0.00002  -0.00002   1.93522
   A53        1.90472  -0.00000   0.00000   0.00001   0.00001   1.90472
   A54        1.86343  -0.00000   0.00000  -0.00001  -0.00001   1.86343
   A55        1.92337   0.00000   0.00000   0.00002   0.00002   1.92339
   A56        1.91167  -0.00000   0.00000  -0.00001  -0.00001   1.91167
   A57        1.93587  -0.00000   0.00000  -0.00000  -0.00000   1.93587
   A58        1.91324   0.00000   0.00000  -0.00001  -0.00001   1.91323
   A59        1.91165  -0.00000   0.00000  -0.00000  -0.00000   1.91164
   A60        1.86718   0.00000   0.00000  -0.00000  -0.00000   1.86718
   A61        1.96490  -0.00000   0.00000  -0.00000  -0.00000   1.96490
   A62        1.89424   0.00000   0.00000   0.00001   0.00001   1.89426
   A63        1.90874   0.00000   0.00000   0.00001   0.00001   1.90875
   A64        1.90357  -0.00000   0.00000   0.00000   0.00000   1.90358
   A65        1.93681  -0.00000   0.00000  -0.00002  -0.00002   1.93679
   A66        1.85164  -0.00000   0.00000  -0.00000  -0.00000   1.85164
   A67        1.84654  -0.00001   0.00000  -0.00000  -0.00000   1.84654
   A68        1.77039   0.00000   0.00000   0.00000   0.00000   1.77039
   A69        1.93927  -0.00002   0.00000  -0.00004  -0.00004   1.93922
   A70        2.03970  -0.00000   0.00000  -0.00002  -0.00002   2.03968
   A71        1.87702   0.00001   0.00000   0.00007   0.00007   1.87709
   A72        1.85295  -0.00001   0.00000  -0.00001  -0.00001   1.85294
   A73        1.96453   0.00001   0.00000   0.00002   0.00002   1.96455
   A74        2.12052   0.00000   0.00000   0.00001   0.00001   2.12053
   A75        2.08091  -0.00000   0.00000  -0.00002  -0.00002   2.08089
   A76        2.07758  -0.00000   0.00000   0.00000   0.00000   2.07759
   A77        2.10105   0.00000   0.00000   0.00000   0.00000   2.10105
   A78        2.10370   0.00001   0.00000   0.00004   0.00004   2.10373
   A79        2.07842  -0.00001   0.00000  -0.00004  -0.00004   2.07839
   A80        2.09956   0.00000   0.00000  -0.00001  -0.00001   2.09955
   A81        2.08458  -0.00000   0.00000  -0.00001  -0.00001   2.08458
   A82        2.09902   0.00000   0.00000   0.00001   0.00001   2.09903
   A83        2.08683   0.00000   0.00000   0.00001   0.00001   2.08684
   A84        2.09816   0.00000   0.00000   0.00001   0.00001   2.09817
   A85        2.09820  -0.00000   0.00000  -0.00002  -0.00002   2.09818
   A86        2.09744   0.00000   0.00000  -0.00000  -0.00000   2.09743
   A87        2.09864  -0.00000   0.00000  -0.00002  -0.00002   2.09862
   A88        2.08711   0.00000   0.00000   0.00002   0.00002   2.08713
   A89        2.10385   0.00000   0.00000  -0.00000  -0.00000   2.10385
   A90        2.08848  -0.00000   0.00000  -0.00001  -0.00001   2.08847
   A91        2.09073  -0.00000   0.00000   0.00002   0.00002   2.09075
   A92        2.04613   0.00001   0.00000  -0.00001  -0.00001   2.04611
   A93        2.16576  -0.00000   0.00000   0.00001   0.00001   2.16577
   A94        2.07130  -0.00000   0.00000   0.00000   0.00000   2.07130
   A95        2.10883   0.00000   0.00000   0.00000   0.00000   2.10883
   A96        2.07816   0.00000   0.00000  -0.00000  -0.00000   2.07815
   A97        2.09619  -0.00000   0.00000   0.00000   0.00000   2.09620
   A98        2.09567  -0.00000   0.00000  -0.00000  -0.00000   2.09567
   A99        2.09005   0.00000   0.00000   0.00001   0.00001   2.09006
   A100       2.09744  -0.00000   0.00000  -0.00000  -0.00000   2.09744
   A101       2.08653  -0.00000   0.00000   0.00001   0.00001   2.08654
   A102       2.09825  -0.00000   0.00000  -0.00001  -0.00001   2.09825
   A103       2.09840   0.00000   0.00000   0.00000   0.00000   2.09840
   A104       2.09951   0.00000   0.00000  -0.00000  -0.00000   2.09950
   A105       2.09923   0.00000   0.00000   0.00001   0.00001   2.09923
   A106       2.08445  -0.00000   0.00000  -0.00000  -0.00000   2.08445
   A107       2.10443   0.00000   0.00000  -0.00000  -0.00000   2.10443
   A108       2.11150  -0.00000   0.00000   0.00001   0.00001   2.11151
   A109       2.06725  -0.00000   0.00000  -0.00001  -0.00001   2.06724
   A110       2.10412  -0.00000   0.00000  -0.00001  -0.00001   2.10411
   A111       2.09363   0.00000   0.00000   0.00001   0.00001   2.09364
   A112       2.08534   0.00000   0.00000   0.00000   0.00000   2.08534
   A113       2.09179   0.00000   0.00000  -0.00000  -0.00000   2.09178
   A114       2.10017  -0.00000   0.00000   0.00000   0.00000   2.10017
   A115       2.09121  -0.00000   0.00000   0.00000   0.00000   2.09121
   A116       1.40538  -0.00000   0.00000   0.00003   0.00003   1.40540
   A117       1.78547   0.00001   0.00000   0.00010   0.00010   1.78557
   A118       1.91596  -0.00001   0.00000  -0.00011  -0.00011   1.91585
   A119       1.65976   0.00000   0.00000  -0.00003  -0.00003   1.65973
   A120       1.92098   0.00001   0.00000   0.00013   0.00013   1.92111
   A121       2.47338  -0.00001   0.00000  -0.00006  -0.00006   2.47332
    D1        0.01616   0.00000   0.00000   0.00004   0.00004   0.01621
    D2       -3.12122   0.00000   0.00000   0.00005   0.00005  -3.12118
    D3       -3.13723   0.00000   0.00000   0.00004   0.00004  -3.13719
    D4        0.00857   0.00000   0.00000   0.00004   0.00004   0.00861
    D5       -0.00789   0.00000   0.00000  -0.00004  -0.00004  -0.00793
    D6        3.12771  -0.00000   0.00000  -0.00006  -0.00006   3.12765
    D7       -3.13770   0.00000   0.00000  -0.00004  -0.00004  -3.13774
    D8       -0.00210  -0.00000   0.00000  -0.00006  -0.00006  -0.00215
    D9       -0.00652  -0.00000   0.00000  -0.00000  -0.00000  -0.00653
   D10       -3.10946   0.00000   0.00000   0.00011   0.00011  -3.10936
   D11        3.13091  -0.00000   0.00000  -0.00000  -0.00000   3.13091
   D12        0.02797   0.00000   0.00000   0.00010   0.00010   0.02808
   D13        3.09190  -0.00000   0.00000  -0.00015  -0.00015   3.09175
   D14       -0.01126   0.00000   0.00000  -0.00004  -0.00004  -0.01130
   D15       -0.08914  -0.00000   0.00000  -0.00026  -0.00026  -0.08940
   D16        3.09089  -0.00000   0.00000  -0.00015  -0.00015   3.09074
   D17        0.36489  -0.00001   0.00000  -0.00031  -0.00031   0.36458
   D18       -1.69362  -0.00001   0.00000  -0.00025  -0.00025  -1.69388
   D19        2.43065  -0.00000   0.00000  -0.00024  -0.00024   2.43041
   D20       -2.81485  -0.00001   0.00000  -0.00042  -0.00042  -2.81527
   D21        1.40982  -0.00001   0.00000  -0.00036  -0.00036   1.40946
   D22       -0.74909  -0.00000   0.00000  -0.00035  -0.00035  -0.74944
   D23        0.01952  -0.00000   0.00000   0.00005   0.00005   0.01957
   D24       -3.13661  -0.00000   0.00000   0.00004   0.00004  -3.13657
   D25       -3.08463   0.00000   0.00000   0.00015   0.00015  -3.08448
   D26        0.04242   0.00000   0.00000   0.00015   0.00015   0.04256
   D27       -2.43470   0.00001   0.00000   0.00011   0.00011  -2.43459
   D28        0.62384   0.00000   0.00000  -0.00016  -0.00016   0.62368
   D29       -0.25083  -0.00000   0.00000   0.00003   0.00003  -0.25080
   D30        2.80771  -0.00001   0.00000  -0.00024  -0.00024   2.80746
   D31        1.75480  -0.00000   0.00000   0.00002   0.00002   1.75482
   D32       -1.46985  -0.00001   0.00000  -0.00025  -0.00025  -1.47010
   D33        2.49171  -0.00001   0.00000  -0.00009  -0.00009   2.49161
   D34        0.50087  -0.00001   0.00000  -0.00016  -0.00016   0.50071
   D35       -1.78623  -0.00001   0.00000  -0.00012  -0.00012  -1.78635
   D36        0.32394   0.00000   0.00000  -0.00001  -0.00001   0.32393
   D37       -1.66689  -0.00000   0.00000  -0.00008  -0.00008  -1.66697
   D38        2.32919  -0.00000   0.00000  -0.00004  -0.00004   2.32915
   D39       -1.63796  -0.00000   0.00000  -0.00006  -0.00006  -1.63802
   D40        2.65439  -0.00001   0.00000  -0.00013  -0.00013   2.65427
   D41        0.36729  -0.00001   0.00000  -0.00009  -0.00009   0.36720
   D42       -3.12654  -0.00000   0.00000  -0.00022  -0.00022  -3.12676
   D43        0.06688   0.00000   0.00000  -0.00003  -0.00003   0.06684
   D44        0.07329  -0.00000   0.00000  -0.00003  -0.00003   0.07326
   D45       -3.01647   0.00000   0.00000   0.00015   0.00015  -3.01632
   D46       -3.10885   0.00001   0.00000   0.00043   0.00043  -3.10841
   D47       -1.48223   0.00001   0.00000   0.00039   0.00039  -1.48183
   D48        1.28878  -0.00000   0.00000   0.00028   0.00028   1.28906
   D49       -0.05231   0.00000   0.00000   0.00016   0.00016  -0.05215
   D50        1.57431   0.00000   0.00000   0.00012   0.00012   1.57443
   D51       -1.93787  -0.00001   0.00000  -0.00000  -0.00000  -1.93787
   D52        3.12556  -0.00000   0.00000  -0.00007  -0.00007   3.12548
   D53       -0.05246  -0.00000   0.00000  -0.00020  -0.00020  -0.05266
   D54       -0.06910  -0.00001   0.00000  -0.00026  -0.00026  -0.06936
   D55        3.03607  -0.00001   0.00000  -0.00039  -0.00039   3.03568
   D56        0.16600  -0.00000   0.00000   0.00002   0.00002   0.16602
   D57       -2.92402   0.00000   0.00000   0.00020   0.00020  -2.92382
   D58        3.10948   0.00000   0.00000  -0.00011  -0.00011   3.10937
   D59       -0.03576   0.00000   0.00000  -0.00009  -0.00009  -0.03584
   D60        0.00767   0.00000   0.00000   0.00003   0.00003   0.00770
   D61       -3.13757   0.00000   0.00000   0.00005   0.00005  -3.13752
   D62       -3.07468  -0.00000   0.00000   0.00008   0.00008  -3.07460
   D63        0.00254   0.00000   0.00000   0.00032   0.00032   0.00286
   D64        0.03158  -0.00000   0.00000  -0.00005  -0.00005   0.03154
   D65        3.10880   0.00000   0.00000   0.00020   0.00020   3.10900
   D66       -0.02788  -0.00000   0.00000  -0.00001  -0.00001  -0.02789
   D67        3.12344  -0.00000   0.00000   0.00001   0.00001   3.12345
   D68        3.11744   0.00000   0.00000  -0.00003  -0.00003   3.11740
   D69       -0.01443   0.00000   0.00000  -0.00001  -0.00001  -0.01444
   D70        0.01041  -0.00000   0.00000   0.00001   0.00001   0.01041
   D71       -3.11889  -0.00000   0.00000   0.00001   0.00001  -3.11889
   D72       -3.14086  -0.00000   0.00000  -0.00001  -0.00001  -3.14088
   D73        0.01302   0.00000   0.00000  -0.00002  -0.00002   0.01301
   D74        0.02895  -0.00000   0.00000  -0.00003  -0.00003   0.02892
   D75       -3.11033   0.00000   0.00000   0.00001   0.00001  -3.11033
   D76       -3.12482  -0.00000   0.00000  -0.00002  -0.00002  -3.12485
   D77        0.01908   0.00000   0.00000   0.00001   0.00001   0.01909
   D78       -2.83319  -0.00000   0.00000  -0.00003  -0.00003  -2.83323
   D79        1.34105  -0.00000   0.00000  -0.00004  -0.00004   1.34101
   D80       -0.67164  -0.00000   0.00000  -0.00005  -0.00005  -0.67169
   D81        0.32100  -0.00000   0.00000  -0.00004  -0.00004   0.32097
   D82       -1.78794  -0.00000   0.00000  -0.00004  -0.00004  -1.78799
   D83        2.48256  -0.00000   0.00000  -0.00006  -0.00006   2.48250
   D84       -0.04999   0.00000   0.00000   0.00004   0.00004  -0.04994
   D85       -3.11891  -0.00000   0.00000  -0.00023  -0.00023  -3.11915
   D86        3.08946   0.00000   0.00000   0.00001   0.00001   3.08947
   D87        0.02053  -0.00000   0.00000  -0.00027  -0.00027   0.02027
   D88        0.19995  -0.00000   0.00000   0.00002   0.00002   0.19996
   D89       -1.93907   0.00000   0.00000   0.00003   0.00003  -1.93904
   D90        2.35393   0.00000   0.00000   0.00006   0.00006   2.35398
   D91       -2.93944   0.00000   0.00000   0.00005   0.00005  -2.93939
   D92        1.20473   0.00000   0.00000   0.00006   0.00006   1.20479
   D93       -0.78546   0.00000   0.00000   0.00009   0.00009  -0.78537
   D94        0.02561  -0.00000   0.00000  -0.00027  -0.00027   0.02534
   D95       -1.74852  -0.00001   0.00000  -0.00038  -0.00038  -1.74890
   D96        1.90553  -0.00001   0.00000  -0.00039  -0.00039   1.90515
   D97        3.09909   0.00000   0.00000  -0.00001  -0.00001   3.09908
   D98        1.32496  -0.00001   0.00000  -0.00012  -0.00012   1.32484
   D99       -1.30417  -0.00000   0.00000  -0.00013  -0.00013  -1.30430
   D100      -0.74818   0.00000   0.00000  -0.00002  -0.00002  -0.74820
   D101      -2.88827   0.00000   0.00000   0.00000   0.00000  -2.88827
   D102       1.35532   0.00000   0.00000  -0.00001  -0.00001   1.35531
   D103       1.36217  -0.00000   0.00000  -0.00003  -0.00003   1.36213
   D104      -0.77793  -0.00000   0.00000  -0.00001  -0.00001  -0.77794
   D105      -2.81752  -0.00000   0.00000  -0.00002  -0.00002  -2.81754
   D106      -2.85914   0.00000   0.00000  -0.00002  -0.00002  -2.85915
   D107       1.28396   0.00000   0.00000   0.00000   0.00000   1.28396
   D108      -0.75564   0.00000   0.00000  -0.00001  -0.00001  -0.75564
   D109       1.10117   0.00000   0.00000   0.00000   0.00000   1.10117
   D110      -1.00500   0.00000   0.00000   0.00001   0.00001  -1.00499
   D111      -3.06207  -0.00000   0.00000   0.00001   0.00001  -3.06206
   D112      -3.05572   0.00000   0.00000   0.00001   0.00001  -3.05571
   D113       1.12130   0.00000   0.00000   0.00001   0.00001   1.12131
   D114      -0.93577   0.00000   0.00000   0.00002   0.00002  -0.93576
   D115      -1.00788   0.00000   0.00000  -0.00001  -0.00001  -1.00789
   D116      -3.11405  -0.00000   0.00000  -0.00001  -0.00001  -3.11406
   D117       1.11206  -0.00000   0.00000  -0.00000  -0.00000   1.11206
   D118      -0.86862  -0.00000   0.00000   0.00003   0.00003  -0.86859
   D119       1.23497   0.00000   0.00000   0.00004   0.00004   1.23501
   D120      -3.01454  -0.00000   0.00000   0.00003   0.00003  -3.01451
   D121       1.23661   0.00000   0.00000   0.00002   0.00002   1.23663
   D122      -2.94299   0.00000   0.00000   0.00004   0.00004  -2.94295
   D123      -0.90931  -0.00000   0.00000   0.00003   0.00003  -0.90928
   D124      -3.00291   0.00000   0.00000   0.00002   0.00002  -3.00290
   D125      -0.89932   0.00000   0.00000   0.00003   0.00003  -0.89929
   D126       1.13435  -0.00000   0.00000   0.00002   0.00002   1.13437
   D127      -0.29608   0.00000   0.00000  -0.00000  -0.00000  -0.29608
   D128       1.74078  -0.00002   0.00000  -0.00002  -0.00002   1.74076
   D129      -2.43575   0.00000   0.00000   0.00003   0.00003  -2.43572
   D130       1.46534   0.00000   0.00000   0.00013   0.00013   1.46548
   D131      -1.57724   0.00001   0.00000   0.00021   0.00021  -1.57703
   D132      -0.45767   0.00000   0.00000   0.00012   0.00012  -0.45756
   D133       2.78293   0.00001   0.00000   0.00019   0.00019   2.78312
   D134      -2.49249  -0.00000   0.00000   0.00008   0.00008  -2.49241
   D135       0.74811   0.00000   0.00000   0.00015   0.00015   0.74826
   D136      -3.05521  -0.00000   0.00000  -0.00016  -0.00016  -3.05537
   D137       0.08301  -0.00001   0.00000  -0.00029  -0.00029   0.08272
   D138      -1.09649  -0.00000   0.00000  -0.00018  -0.00018  -1.09667
   D139       2.04173  -0.00001   0.00000  -0.00031  -0.00031   2.04142
   D140       0.95264   0.00001   0.00000  -0.00009  -0.00009   0.95255
   D141      -2.19232   0.00001   0.00000  -0.00022  -0.00022  -2.19255
   D142      -3.03696   0.00000   0.00000   0.00003   0.00003  -3.03693
   D143       0.09950   0.00000   0.00000   0.00003   0.00003   0.09953
   D144       0.00581  -0.00000   0.00000  -0.00004  -0.00004   0.00576
   D145      -3.14092  -0.00000   0.00000  -0.00004  -0.00004  -3.14096
   D146       3.03333  -0.00000   0.00000  -0.00004  -0.00004   3.03329
   D147      -0.09103   0.00000   0.00000  -0.00002  -0.00002  -0.09104
   D148      -0.01171   0.00000   0.00000   0.00003   0.00003  -0.01168
   D149      -3.13607   0.00000   0.00000   0.00006   0.00006  -3.13601
   D150       0.00376   0.00000   0.00000   0.00002   0.00002   0.00378
   D151       3.13710   0.00000   0.00000   0.00002   0.00002   3.13712
   D152      -3.13278   0.00000   0.00000   0.00002   0.00002  -3.13275
   D153       0.00057   0.00000   0.00000   0.00002   0.00002   0.00059
   D154      -0.00749   0.00000   0.00000   0.00001   0.00001  -0.00748
   D155       3.13395  -0.00000   0.00000  -0.00001  -0.00001   3.13394
   D156      -3.14076   0.00000   0.00000   0.00001   0.00001  -3.14075
   D157       0.00067  -0.00000   0.00000  -0.00000  -0.00000   0.00067
   D158       0.00160  -0.00000   0.00000  -0.00002  -0.00002   0.00159
   D159       3.14089  -0.00000   0.00000  -0.00003  -0.00003   3.14087
   D160      -3.13983   0.00000   0.00000  -0.00000  -0.00000  -3.13984
   D161      -0.00054  -0.00000   0.00000  -0.00001  -0.00001  -0.00056
   D162       0.00807  -0.00000   0.00000  -0.00000  -0.00000   0.00807
   D163       3.13240  -0.00000   0.00000  -0.00003  -0.00003   3.13237
   D164      -3.13124  -0.00000   0.00000   0.00001   0.00001  -3.13123
   D165      -0.00690  -0.00000   0.00000  -0.00002  -0.00002  -0.00692
   D166       3.13056  -0.00000   0.00000  -0.00010  -0.00010   3.13047
   D167      -0.01582  -0.00000   0.00000  -0.00011  -0.00011  -0.01593
   D168      -0.00784   0.00000   0.00000   0.00003   0.00003  -0.00782
   D169       3.12896   0.00000   0.00000   0.00001   0.00001   3.12897
   D170       3.14021   0.00000   0.00000   0.00010   0.00010   3.14032
   D171       0.00212   0.00000   0.00000   0.00010   0.00010   0.00222
   D172      -0.00480  -0.00000   0.00000  -0.00003  -0.00003  -0.00483
   D173       3.14030  -0.00000   0.00000  -0.00003  -0.00003   3.14027
   D174       0.01382  -0.00000   0.00000  -0.00001  -0.00001   0.01381
   D175      -3.13541  -0.00000   0.00000   0.00001   0.00001  -3.13541
   D176      -3.12294  -0.00000   0.00000   0.00000   0.00000  -3.12293
   D177       0.01102  -0.00000   0.00000   0.00002   0.00002   0.01104
   D178      -0.00702  -0.00000   0.00000  -0.00001  -0.00001  -0.00703
   D179       3.13229   0.00000   0.00000   0.00000   0.00000   3.13230
   D180      -3.14094  -0.00000   0.00000  -0.00002  -0.00002  -3.14096
   D181      -0.00163  -0.00000   0.00000  -0.00001  -0.00001  -0.00164
   D182      -0.00554   0.00000   0.00000   0.00001   0.00001  -0.00553
   D183       3.13954   0.00000   0.00000   0.00000   0.00000   3.13954
   D184       3.13833  -0.00000   0.00000  -0.00000  -0.00000   3.13833
   D185       0.00022   0.00000   0.00000  -0.00001  -0.00001   0.00022
   D186       0.01152   0.00000   0.00000   0.00001   0.00001   0.01153
   D187      -3.13349   0.00000   0.00000   0.00002   0.00002  -3.13347
   D188      -3.13353   0.00000   0.00000   0.00001   0.00001  -3.13352
   D189       0.00465   0.00000   0.00000   0.00002   0.00002   0.00467
   D190      -0.00990  -0.00000   0.00000  -0.00000  -0.00000  -0.00991
   D191       3.13764   0.00000   0.00000   0.00002   0.00002   3.13766
   D192      -3.13702  -0.00000   0.00000  -0.00000  -0.00000  -3.13702
   D193       0.01052   0.00000   0.00000   0.00002   0.00002   0.01054
         Item               Value     Threshold  Converged?
 Maximum Force            0.000029     0.000450     YES
 RMS     Force            0.000004     0.000300     YES
 Maximum Displacement     0.002640     0.001800     NO 
 RMS     Displacement     0.000453     0.001200     YES
 Predicted change in Energy=-3.550686D-08
 GradGradGradGradGradGradGradGradGradGradGradGradGradGradGradGradGradGrad

 Stoichiometry    C30H26F2N2NiO(3)
 Framework group  C1[X(C30H26F2N2NiO)]
 Deg. of freedom   180
 Full point group                 C1      NOp   1
 Largest Abelian subgroup         C1      NOp   1
 Largest concise Abelian subgroup C1      NOp   1
                         Standard orientation:                         
 ---------------------------------------------------------------------
 Center     Atomic      Atomic             Coordinates (Angstroms)
 Number     Number       Type             X           Y           Z
 ---------------------------------------------------------------------
      1          6           0        3.100617    4.122149   -0.169683
      2          6           0        1.833000    3.819575    0.326307
      3          6           0        1.234903    2.587421    0.056658
      4          6           0        1.914055    1.648924   -0.727555
      5          6           0        1.336495    0.278388   -0.994167
      6          7           0       -0.113421    0.198225   -0.801616
      7          6           0       -0.383301   -0.913583   -0.222899
      8          6           0       -1.766002   -1.289353    0.087998
      9          6           0       -2.150357   -2.478385    0.694895
     10          6           0       -3.508498   -2.656088    0.952814
     11          6           0       -4.431252   -1.655377    0.639483
     12          6           0       -3.948026   -0.471758    0.045365
     13          7           0       -2.650363   -0.329485   -0.238619
     14          6           0       -4.830381    0.699426   -0.305946
     15          6           0       -6.235757    0.589257    0.295066
     16          6           0       -6.778883   -0.836212    0.149664
     17          6           0       -5.905165   -1.818911    0.938814
     18          8           0        0.634433   -1.697492    0.145924
     19          6           0        1.870355   -0.877885   -0.047011
     20          6           0        2.274061   -0.329152    1.313672
     21          6           0        1.334356   -0.131486    2.329526
     22          6           0        1.705435    0.487769    3.523081
     23          6           0        3.016714    0.919862    3.712834
     24          6           0        3.960099    0.721076    2.703814
     25          6           0        3.592282    0.096871    1.515163
     26          6           0        2.911718   -1.814659   -0.628990
     27          6           0        3.310983   -2.902558    0.162683
     28          6           0        4.251177   -3.815334   -0.302573
     29          6           0        4.824204   -3.647858   -1.566096
     30          6           0        4.440855   -2.567606   -2.356114
     31          6           0        3.484714   -1.659698   -1.892904
     32          6           0        3.176979    1.961659   -1.242615
     33          6           0        3.772269    3.189437   -0.961644
     34          1           0        3.559494    5.082454    0.049115
     35          1           0        1.294024    4.546049    0.927770
     36          1           0        0.232663    2.390029    0.431112
     37          1           0        1.520822    0.011022   -2.039340
     38          1           0       -1.410204   -3.228612    0.947719
     39          1           0       -3.856622   -3.578274    1.410931
     40          1           0       -4.880919    0.764391   -1.401867
     41          1           0       -4.315645    1.607598    0.032031
     42          1           0       -6.899447    1.311174   -0.191473
     43          1           0       -6.204253    0.855613    1.360266
     44          1           0       -6.786688   -1.119765   -0.911602
     45          1           0       -7.813042   -0.898812    0.505135
     46          1           0       -6.063520   -1.656147    2.015147
     47          1           0       -6.203572   -2.855628    0.741002
     48          1           0        0.307850   -0.452184    2.199700
     49          1           0        0.961922    0.637361    4.300417
     50          1           0        3.302562    1.408288    4.639907
     51          1           0        4.984877    1.054045    2.839785
     52          1           0        4.328205   -0.046703    0.731954
     53          1           0        2.878453   -3.022473    1.150911
     54          1           0        4.543260   -4.654221    0.322520
     55          1           0        5.565181   -4.354555   -1.928362
     56          1           0        4.879964   -2.425038   -3.339099
     57          1           0        3.203051   -0.834371   -2.535405
     58          1           0        3.707087    1.238239   -1.856303
     59          1           0        4.754913    3.418293   -1.364852
     60         28           0       -1.777569    1.345567   -1.070309
     61          9           0       -1.823219    2.344577    0.486089
     62          9           0       -2.176040    1.443160   -2.834093
 ---------------------------------------------------------------------
 Rotational constants (GHZ):           0.1628238           0.0755249           0.0661565
 Basis read from rwf:  (6D, 7F)
 Pseudo-potential data read from rwf file.
 There are   654 symmetry adapted cartesian basis functions of A   symmetry.
 There are   651 symmetry adapted basis functions of A   symmetry.
   651 basis functions,  1238 primitive gaussians,   654 cartesian basis functions
   133 alpha electrons      131 beta electrons
       nuclear repulsion energy      4226.1848656569 Hartrees.
 NAtoms=   62 NActive=   62 NUniq=   62 SFac= 1.00D+00 NAtFMM=   60 NAOKFM=T Big=T
 Integral buffers will be    131072 words long.
 Raffenetti 2 integral format.
 Two-electron integral symmetry is turned on.
 Nuclear repulsion after empirical dispersion term =     4226.0177868928 Hartrees.
 One-electron integrals computed using PRISM.
 PrsmSu:  requested number of processors reduced to:  12 ShMem   1 Linda.
   1 Symmetry operations used in ECPInt.
 ECPInt:  NShTT=   22791 NPrTT=  142008 LenC2=   18123 LenP2D=   59667.
 LDataN:  DoStor=T MaxTD1= 6 Len=  172
 Number of processors reduced to  11 by ecpmxn.
 NBasis=   651 RedAO= T EigKep=  1.01D-06  NBF=   651
 NBsUse=   651 1.00D-06 EigRej= -1.00D+00 NBFU=   651
 Initial guess from the checkpoint file:  "Lig2120_xyz_3.chk"
 B after Tr=     0.000000    0.000000    0.000000
         Rot=    1.000000    0.000091    0.000014   -0.000025 Ang=   0.01 deg.
 Initial guess <Sx>= 0.0000 <Sy>= 0.0000 <Sz>= 1.0000 <S**2>= 2.0069 S= 1.0023
 Requested convergence on RMS density matrix=1.00D-08 within 128 cycles.
 Requested convergence on MAX density matrix=1.00D-06.
 Requested convergence on             energy=1.00D-06.
 No special actions if energy rises.
 Restarting incremental Fock formation.
 SCF Done:  E(UB3LYP) =  -1712.90146058     A.U. after   27 cycles
            NFock= 27  Conv=0.70D-09     -V/T= 2.0467
 <Sx>= 0.0000 <Sy>= 0.0000 <Sz>= 1.0000 <S**2>= 2.0069 S= 1.0023
 <L.S>=  0.00000000000    
 Annihilation of the first spin contaminant:
 S**2 before annihilation     2.0069,   after     2.0000
 PrsmSu:  requested number of processors reduced to:  12 ShMem   1 Linda.
   1 Symmetry operations used in ECPInt.
 ECPInt:  NShTT=   22791 NPrTT=  142008 LenC2=   18123 LenP2D=   59667.
 LDataN:  DoStor=T MaxTD1= 7 Len=  274
 Number of processors reduced to  13 by ecpmxn.
 Calling FoFJK, ICntrl=      2127 FMM=T ISym2X=0 I1Cent= 0 IOpClX= 1 NMat=1 NMatS=1 NMatT=0.
 ***** Axes restored to original set *****
 -------------------------------------------------------------------
 Center     Atomic                   Forces (Hartrees/Bohr)
 Number     Number              X              Y              Z
 -------------------------------------------------------------------
      1        6          -0.000000407    0.000004229   -0.000008942
      2        6          -0.000001575    0.000003894   -0.000008250
      3        6          -0.000001630    0.000003194   -0.000012939
      4        6          -0.000001077    0.000005244   -0.000002856
      5        6          -0.000001314   -0.000004679    0.000004422
      6        7           0.000004286    0.000010051   -0.000021072
      7        6           0.000003062    0.000002395    0.000004556
      8        6          -0.000001532    0.000004261    0.000007635
      9        6           0.000001887   -0.000004581    0.000003191
     10        6          -0.000001074   -0.000002828    0.000007492
     11        6          -0.000000934   -0.000004389   -0.000000724
     12        6           0.000002342   -0.000001464    0.000004030
     13        7          -0.000003164   -0.000010596    0.000004196
     14        6          -0.000005984   -0.000004528    0.000001690
     15        6           0.000002563   -0.000002063    0.000000472
     16        6          -0.000001604   -0.000004264    0.000003818
     17        6           0.000000158   -0.000005891    0.000002197
     18        8           0.000002615    0.000003433    0.000009738
     19        6          -0.000005459   -0.000001159   -0.000007750
     20        6           0.000001600    0.000004442    0.000000813
     21        6          -0.000003887   -0.000004624    0.000000028
     22        6          -0.000000356   -0.000002205   -0.000006606
     23        6          -0.000006018   -0.000001887   -0.000003955
     24        6          -0.000000584   -0.000004568   -0.000000486
     25        6          -0.000000489   -0.000004887   -0.000004255
     26        6           0.000004463    0.000003456    0.000005094
     27        6           0.000002468    0.000001939    0.000003084
     28        6           0.000001106    0.000002090    0.000002909
     29        6           0.000002968    0.000005282    0.000006938
     30        6           0.000003741    0.000003255    0.000004845
     31        6           0.000003650    0.000007725    0.000001232
     32        6          -0.000001274    0.000004622   -0.000001699
     33        6           0.000001270    0.000004447   -0.000006515
     34        1          -0.000001346    0.000004002   -0.000010617
     35        1          -0.000001086    0.000001648   -0.000008591
     36        1          -0.000007549   -0.000001810    0.000004986
     37        1           0.000003104    0.000004907    0.000000143
     38        1          -0.000000969   -0.000003240    0.000004033
     39        1           0.000000295   -0.000006080    0.000006170
     40        1           0.000003078    0.000000853    0.000000281
     41        1          -0.000001485   -0.000001162   -0.000002471
     42        1          -0.000002029   -0.000003392   -0.000000830
     43        1          -0.000003064   -0.000004770    0.000000373
     44        1          -0.000000022   -0.000002877    0.000003399
     45        1          -0.000001373   -0.000005517    0.000003896
     46        1          -0.000002785   -0.000007657    0.000005692
     47        1          -0.000001898   -0.000005751    0.000006423
     48        1          -0.000000613   -0.000003702   -0.000000247
     49        1          -0.000002600   -0.000005824   -0.000003334
     50        1          -0.000002977   -0.000004704   -0.000005392
     51        1          -0.000002286   -0.000000285   -0.000004812
     52        1          -0.000000444   -0.000000649   -0.000001605
     53        1           0.000000968   -0.000000790    0.000002699
     54        1           0.000001060    0.000000902    0.000006730
     55        1           0.000003560    0.000005278    0.000006755
     56        1           0.000004062    0.000007391    0.000003645
     57        1           0.000002538    0.000004996    0.000001183
     58        1           0.000001323    0.000008405   -0.000002545
     59        1           0.000000446    0.000007172   -0.000006713
     60       28           0.000006744    0.000012074    0.000003705
     61        9           0.000011686   -0.000010047   -0.000003877
     62        9          -0.000006153    0.000001287   -0.000001411
 -------------------------------------------------------------------
 Cartesian Forces:  Max     0.000021072 RMS     0.000004755

 GradGradGradGradGradGradGradGradGradGradGradGradGradGradGradGradGradGrad
 Berny optimization.
 Using GEDIIS/GDIIS optimizer.
 FormGI is forming the generalized inverse of G from B-inverse, IUseBI=4.
 Internal  Forces:  Max     0.000019370 RMS     0.000003460
 Search for a local minimum.
 Step number   3 out of a maximum of  372
 All quantities printed in internal units (Hartrees-Bohrs-Radians)
 Mixed Optimization -- En-DIIS/RFO-DIIS
 Swapping is turned off.
 Update second derivatives using D2CorX and points    1    2    3
 DE= -2.24D-07 DEPred=-3.55D-08 R= 6.30D+00
 Trust test= 6.30D+00 RLast= 1.81D-03 DXMaxT set to 1.50D-01
 ITU=  0 -1  0
     Eigenvalues ---    0.00392   0.00517   0.00542   0.00618   0.00662
     Eigenvalues ---    0.00688   0.01045   0.01133   0.01331   0.01457
     Eigenvalues ---    0.01482   0.01524   0.01629   0.01650   0.01844
     Eigenvalues ---    0.01888   0.02071   0.02089   0.02107   0.02127
     Eigenvalues ---    0.02129   0.02135   0.02137   0.02138   0.02142
     Eigenvalues ---    0.02145   0.02149   0.02150   0.02151   0.02153
     Eigenvalues ---    0.02154   0.02157   0.02159   0.02161   0.02164
     Eigenvalues ---    0.02165   0.02166   0.02169   0.02173   0.02181
     Eigenvalues ---    0.02197   0.02199   0.02216   0.02243   0.02372
     Eigenvalues ---    0.02753   0.03030   0.04077   0.04265   0.04458
     Eigenvalues ---    0.04821   0.04894   0.05227   0.05415   0.05671
     Eigenvalues ---    0.05992   0.06271   0.06920   0.07128   0.07355
     Eigenvalues ---    0.07914   0.08015   0.08324   0.09311   0.09460
     Eigenvalues ---    0.09634   0.11210   0.11609   0.12004   0.12162
     Eigenvalues ---    0.13224   0.13419   0.14297   0.15555   0.15700
     Eigenvalues ---    0.15997   0.15998   0.15999   0.15999   0.15999
     Eigenvalues ---    0.15999   0.16000   0.16000   0.16000   0.16000
     Eigenvalues ---    0.16000   0.16000   0.16000   0.16000   0.16000
     Eigenvalues ---    0.16160   0.17435   0.18475   0.19240   0.19681
     Eigenvalues ---    0.20809   0.21992   0.21999   0.22000   0.22000
     Eigenvalues ---    0.22000   0.22049   0.22604   0.23374   0.23412
     Eigenvalues ---    0.23473   0.23501   0.23795   0.24221   0.24516
     Eigenvalues ---    0.24748   0.24848   0.24889   0.24912   0.24972
     Eigenvalues ---    0.26022   0.27939   0.28251   0.28451   0.29254
     Eigenvalues ---    0.30384   0.30574   0.30705   0.31135   0.31538
     Eigenvalues ---    0.32704   0.33703   0.33789   0.33848   0.33859
     Eigenvalues ---    0.33986   0.34041   0.34203   0.34275   0.34336
     Eigenvalues ---    0.35017   0.35070   0.35167   0.35214   0.35217
     Eigenvalues ---    0.35245   0.35257   0.35261   0.35263   0.35271
     Eigenvalues ---    0.35274   0.35278   0.35326   0.35357   0.35469
     Eigenvalues ---    0.35535   0.35561   0.35610   0.35956   0.39966
     Eigenvalues ---    0.41854   0.42006   0.42058   0.42091   0.42173
     Eigenvalues ---    0.42258   0.43115   0.45507   0.45570   0.45875
     Eigenvalues ---    0.45955   0.46107   0.46145   0.46234   0.46398
     Eigenvalues ---    0.46483   0.46601   0.46648   0.46840   0.46884
     Eigenvalues ---    0.47058   0.50948   0.53815   0.56603   0.63256
 En-DIIS/RFO-DIIS/Sim-DIIS IScMMF=       -3 using points:     3    2    1
 RFO step:  Lambda=-5.55564176D-08.
 DidBck=F Rises=T RFO-DIIS coefs:    1.74186   -0.34762   -0.39424
 Iteration  1 RMS(Cart)=  0.00050858 RMS(Int)=  0.00000004
 Iteration  2 RMS(Cart)=  0.00000008 RMS(Int)=  0.00000001
 Variable       Old X    -DE/DX   Delta X   Delta X   Delta X     New X
                                 (Linear)    (Quad)   (Total)
    R1        2.63507  -0.00000   0.00001  -0.00000   0.00001   2.63508
    R2        2.63769  -0.00000  -0.00000  -0.00001  -0.00001   2.63768
    R3        2.05331   0.00000  -0.00000   0.00000  -0.00000   2.05331
    R4        2.63793   0.00000  -0.00001  -0.00000  -0.00001   2.63793
    R5        2.05278   0.00000  -0.00000   0.00000   0.00000   2.05278
    R6        2.64360   0.00000   0.00001   0.00000   0.00001   2.64361
    R7        2.05595  -0.00000   0.00000  -0.00000   0.00000   2.05595
    R8        2.85532   0.00001  -0.00001   0.00001   0.00000   2.85532
    R9        2.64431   0.00000  -0.00001   0.00000  -0.00000   2.64431
   R10        2.76815   0.00001   0.00004   0.00003   0.00007   2.76822
   R11        2.99930  -0.00000  -0.00003  -0.00002  -0.00005   2.99924
   R12        2.06824   0.00000  -0.00000   0.00000  -0.00000   2.06823
   R13        2.42288   0.00001   0.00000   0.00001   0.00002   2.42290
   R14        3.85336   0.00001  -0.00010   0.00003  -0.00007   3.85329
   R15        2.77070   0.00000   0.00001   0.00001   0.00002   2.77073
   R16        2.52569   0.00000  -0.00003   0.00000  -0.00003   2.52566
   R17        2.62519  -0.00000  -0.00001  -0.00000  -0.00001   2.62518
   R18        2.54245   0.00000  -0.00001   0.00000  -0.00001   2.54245
   R19        2.63388   0.00000   0.00001   0.00000   0.00001   2.63389
   R20        2.04806   0.00000  -0.00000   0.00000  -0.00000   2.04805
   R21        2.63958   0.00000  -0.00001  -0.00000  -0.00001   2.63957
   R22        2.05406  -0.00000   0.00000   0.00000   0.00000   2.05407
   R23        2.66407  -0.00000   0.00002  -0.00000   0.00002   2.66409
   R24        2.85890  -0.00000  -0.00000  -0.00000  -0.00001   2.85890
   R25        2.52462   0.00000  -0.00000  -0.00000  -0.00000   2.52461
   R26        2.84944   0.00000   0.00000   0.00000   0.00000   2.84945
   R27        3.90002  -0.00000  -0.00014  -0.00006  -0.00020   3.89982
   R28        2.89593   0.00000  -0.00003  -0.00000  -0.00003   2.89590
   R29        2.07682   0.00000   0.00000   0.00000   0.00001   2.07683
   R30        2.07350  -0.00000   0.00000   0.00000   0.00001   2.07351
   R31        2.89572  -0.00000   0.00001   0.00000   0.00001   2.89573
   R32        2.06868   0.00000   0.00000   0.00000   0.00000   2.06868
   R33        2.07577   0.00000  -0.00000   0.00000  -0.00000   2.07577
   R34        2.89803  -0.00000   0.00001   0.00000   0.00001   2.89804
   R35        2.07590   0.00000  -0.00000   0.00000  -0.00000   2.07590
   R36        2.06989   0.00000  -0.00000   0.00000  -0.00000   2.06989
   R37        2.07875   0.00000  -0.00001   0.00000  -0.00001   2.07875
   R38        2.07264  -0.00000   0.00000  -0.00000   0.00000   2.07264
   R39        2.82606   0.00000   0.00001   0.00002   0.00003   2.82609
   R40        2.87558   0.00000  -0.00001   0.00001  -0.00001   2.87557
   R41        2.86634   0.00000   0.00000   0.00001   0.00001   2.86634
   R42        2.64162   0.00000  -0.00001  -0.00000  -0.00001   2.64160
   R43        2.64548   0.00000   0.00001   0.00001   0.00003   2.64551
   R44        2.63598  -0.00000   0.00002  -0.00000   0.00002   2.63600
   R45        2.04703   0.00000  -0.00000   0.00000  -0.00000   2.04703
   R46        2.63355   0.00000  -0.00002  -0.00000  -0.00002   2.63353
   R47        2.05228   0.00000  -0.00000   0.00000  -0.00000   2.05228
   R48        2.63724  -0.00000   0.00002  -0.00000   0.00002   2.63726
   R49        2.05254   0.00000   0.00000   0.00000   0.00000   2.05254
   R50        2.63060   0.00000  -0.00002   0.00000  -0.00002   2.63058
   R51        2.05235   0.00000  -0.00000   0.00000  -0.00000   2.05235
   R52        2.04895  -0.00000  -0.00000  -0.00000  -0.00000   2.04895
   R53        2.65214   0.00000   0.00002   0.00001   0.00003   2.65217
   R54        2.63873   0.00000  -0.00002  -0.00000  -0.00002   2.63871
   R55        2.62773   0.00000  -0.00002  -0.00000  -0.00002   2.62771
   R56        2.05108  -0.00000  -0.00000  -0.00000  -0.00000   2.05107
   R57        2.64082  -0.00000   0.00002   0.00000   0.00002   2.64084
   R58        2.05258   0.00000  -0.00000   0.00000  -0.00000   2.05258
   R59        2.63075   0.00000  -0.00002  -0.00000  -0.00002   2.63073
   R60        2.05251   0.00000  -0.00000   0.00000   0.00000   2.05251
   R61        2.64093  -0.00000   0.00002   0.00000   0.00002   2.64095
   R62        2.05225   0.00000  -0.00000   0.00000  -0.00000   2.05225
   R63        2.04694   0.00000  -0.00000   0.00000  -0.00000   2.04694
   R64        2.63260  -0.00000   0.00001   0.00000   0.00001   2.63260
   R65        2.05361   0.00000  -0.00001   0.00000  -0.00000   2.05360
   R66        2.05324   0.00000  -0.00000   0.00000  -0.00000   2.05324
   R67        3.49598   0.00000   0.00005   0.00003   0.00007   3.49606
   R68        3.42204  -0.00000   0.00000  -0.00001  -0.00001   3.42203
    A1        2.08777  -0.00000   0.00001  -0.00001   0.00000   2.08778
    A2        2.09909   0.00000  -0.00001   0.00000  -0.00001   2.09908
    A3        2.09626   0.00000   0.00000   0.00000   0.00001   2.09626
    A4        2.10867   0.00000   0.00000   0.00001   0.00001   2.10868
    A5        2.09772  -0.00000  -0.00001  -0.00000  -0.00002   2.09770
    A6        2.07679  -0.00000   0.00001  -0.00000   0.00001   2.07679
    A7        2.08568   0.00000  -0.00001   0.00000  -0.00001   2.08567
    A8        2.08100  -0.00001   0.00002  -0.00003  -0.00001   2.08100
    A9        2.11583   0.00001  -0.00001   0.00003   0.00002   2.11585
   A10        2.11982   0.00002  -0.00001   0.00006   0.00005   2.11988
   A11        2.08813  -0.00000   0.00001  -0.00001   0.00000   2.08813
   A12        2.07460  -0.00001  -0.00001  -0.00005  -0.00006   2.07454
   A13        1.98755   0.00002  -0.00001   0.00015   0.00014   1.98769
   A14        2.01190  -0.00001  -0.00003  -0.00005  -0.00008   2.01182
   A15        1.90256  -0.00000   0.00004  -0.00003   0.00001   1.90258
   A16        1.78710  -0.00000   0.00000   0.00002   0.00002   1.78712
   A17        1.85340  -0.00001   0.00001  -0.00007  -0.00006   1.85335
   A18        1.91269   0.00000  -0.00001  -0.00003  -0.00004   1.91264
   A19        1.89139  -0.00000  -0.00003  -0.00002  -0.00005   1.89134
   A20        2.43363   0.00001   0.00002   0.00004   0.00006   2.43368
   A21        1.95585  -0.00001   0.00000  -0.00002  -0.00001   1.95584
   A22        2.11351   0.00000  -0.00002  -0.00000  -0.00002   2.11349
   A23        2.06335   0.00000   0.00001   0.00001   0.00003   2.06338
   A24        2.10514  -0.00000  -0.00000  -0.00001  -0.00001   2.10513
   A25        2.18086   0.00000   0.00003   0.00001   0.00004   2.18090
   A26        1.96661   0.00000  -0.00002  -0.00000  -0.00003   1.96659
   A27        2.13511  -0.00000  -0.00001  -0.00001  -0.00002   2.13509
   A28        2.04830   0.00000  -0.00001   0.00000  -0.00000   2.04830
   A29        2.10070  -0.00000   0.00004  -0.00000   0.00004   2.10075
   A30        2.13417   0.00000  -0.00004  -0.00000  -0.00004   2.13413
   A31        2.10699  -0.00000   0.00002   0.00000   0.00002   2.10701
   A32        2.09237   0.00000  -0.00003  -0.00000  -0.00004   2.09233
   A33        2.08379  -0.00000   0.00001   0.00000   0.00001   2.08380
   A34        2.05963   0.00000  -0.00002   0.00000  -0.00001   2.05962
   A35        2.11973  -0.00000   0.00002  -0.00000   0.00002   2.11976
   A36        2.10375   0.00000  -0.00001  -0.00000  -0.00001   2.10375
   A37        2.10823  -0.00000  -0.00001  -0.00000  -0.00001   2.10822
   A38        2.15284   0.00000   0.00001   0.00000   0.00001   2.15285
   A39        2.02211  -0.00000   0.00000   0.00000   0.00000   2.02211
   A40        2.10702  -0.00000   0.00003   0.00000   0.00003   2.10705
   A41        1.98111   0.00000   0.00002   0.00001   0.00003   1.98115
   A42        2.19306  -0.00000  -0.00003  -0.00001  -0.00004   2.19302
   A43        1.97081  -0.00000  -0.00000  -0.00001  -0.00001   1.97080
   A44        1.88090   0.00000  -0.00001  -0.00000  -0.00001   1.88088
   A45        1.87193  -0.00000  -0.00002  -0.00000  -0.00002   1.87190
   A46        1.93175  -0.00000   0.00000  -0.00002  -0.00002   1.93173
   A47        1.94863   0.00000   0.00004   0.00002   0.00007   1.94870
   A48        1.85439   0.00000  -0.00001   0.00001  -0.00000   1.85438
   A49        1.93340   0.00000  -0.00001  -0.00001  -0.00001   1.93338
   A50        1.91164  -0.00000   0.00002   0.00000   0.00002   1.91166
   A51        1.91408  -0.00000   0.00001  -0.00000   0.00001   1.91409
   A52        1.93522   0.00000  -0.00003   0.00000  -0.00003   1.93519
   A53        1.90472   0.00000   0.00001   0.00000   0.00001   1.90473
   A54        1.86343   0.00000  -0.00001   0.00000  -0.00000   1.86343
   A55        1.92339  -0.00000   0.00002   0.00000   0.00002   1.92341
   A56        1.91167  -0.00000  -0.00001  -0.00000  -0.00001   1.91165
   A57        1.93587   0.00000  -0.00000   0.00000  -0.00000   1.93587
   A58        1.91323   0.00000  -0.00001   0.00000  -0.00001   1.91322
   A59        1.91164   0.00000  -0.00000  -0.00000  -0.00000   1.91164
   A60        1.86718   0.00000  -0.00000   0.00000   0.00000   1.86718
   A61        1.96490   0.00000  -0.00000   0.00000  -0.00000   1.96490
   A62        1.89426  -0.00000   0.00002  -0.00001   0.00001   1.89427
   A63        1.90875  -0.00000   0.00001  -0.00000   0.00001   1.90876
   A64        1.90358   0.00000   0.00000   0.00000   0.00000   1.90358
   A65        1.93679   0.00000  -0.00002   0.00000  -0.00002   1.93677
   A66        1.85164   0.00000  -0.00000  -0.00000  -0.00000   1.85164
   A67        1.84654  -0.00000  -0.00001   0.00001  -0.00000   1.84653
   A68        1.77039   0.00000  -0.00002   0.00001  -0.00001   1.77038
   A69        1.93922  -0.00001  -0.00000  -0.00004  -0.00004   1.93918
   A70        2.03968  -0.00000  -0.00001  -0.00001  -0.00002   2.03966
   A71        1.87709   0.00000   0.00003  -0.00000   0.00003   1.87712
   A72        1.85294  -0.00001  -0.00000  -0.00002  -0.00002   1.85292
   A73        1.96455   0.00001   0.00000   0.00005   0.00005   1.96461
   A74        2.12053  -0.00000   0.00001  -0.00002  -0.00000   2.12053
   A75        2.08089   0.00001  -0.00002   0.00002  -0.00001   2.08088
   A76        2.07759  -0.00000   0.00001  -0.00001  -0.00000   2.07758
   A77        2.10105   0.00000  -0.00000   0.00001   0.00001   2.10106
   A78        2.10373  -0.00000   0.00003   0.00001   0.00004   2.10377
   A79        2.07839  -0.00000  -0.00003  -0.00001  -0.00005   2.07834
   A80        2.09955   0.00000  -0.00001   0.00000  -0.00001   2.09955
   A81        2.08458  -0.00000  -0.00000  -0.00001  -0.00001   2.08457
   A82        2.09903  -0.00000   0.00001   0.00000   0.00001   2.09904
   A83        2.08684  -0.00000   0.00001  -0.00000   0.00001   2.08684
   A84        2.09817   0.00000   0.00001   0.00000   0.00002   2.09819
   A85        2.09818   0.00000  -0.00002   0.00000  -0.00002   2.09815
   A86        2.09743   0.00000  -0.00000   0.00000  -0.00000   2.09743
   A87        2.09862   0.00000  -0.00002  -0.00000  -0.00003   2.09859
   A88        2.08713  -0.00000   0.00002   0.00000   0.00003   2.08716
   A89        2.10385   0.00000  -0.00001   0.00000  -0.00000   2.10384
   A90        2.08847   0.00000  -0.00002   0.00000  -0.00002   2.08845
   A91        2.09075  -0.00000   0.00002  -0.00001   0.00002   2.09076
   A92        2.04611   0.00001  -0.00003   0.00001  -0.00001   2.04610
   A93        2.16577  -0.00000   0.00002  -0.00001   0.00001   2.16578
   A94        2.07130  -0.00000   0.00000  -0.00001  -0.00000   2.07130
   A95        2.10883   0.00000   0.00000   0.00000   0.00000   2.10883
   A96        2.07815  -0.00000  -0.00001  -0.00000  -0.00001   2.07814
   A97        2.09620  -0.00000   0.00001   0.00000   0.00001   2.09620
   A98        2.09567   0.00000  -0.00001   0.00000  -0.00001   2.09566
   A99        2.09006   0.00000   0.00001   0.00000   0.00001   2.09007
   A100       2.09744  -0.00000  -0.00000  -0.00000  -0.00001   2.09743
   A101       2.08654  -0.00000   0.00001  -0.00000   0.00000   2.08654
   A102       2.09825   0.00000  -0.00001  -0.00000  -0.00001   2.09824
   A103       2.09840   0.00000   0.00000   0.00000   0.00000   2.09841
   A104       2.09950   0.00000  -0.00000   0.00000  -0.00000   2.09950
   A105       2.09923  -0.00000   0.00001   0.00000   0.00001   2.09924
   A106       2.08445  -0.00000  -0.00000  -0.00000  -0.00001   2.08444
   A107       2.10443   0.00000  -0.00000   0.00000   0.00000   2.10443
   A108       2.11151  -0.00000   0.00001  -0.00000   0.00001   2.11152
   A109       2.06724  -0.00000  -0.00001  -0.00000  -0.00001   2.06723
   A110       2.10411   0.00000  -0.00001   0.00001   0.00001   2.10412
   A111       2.09364  -0.00000   0.00001  -0.00001  -0.00000   2.09364
   A112       2.08534  -0.00000   0.00000  -0.00000  -0.00000   2.08534
   A113       2.09178  -0.00000  -0.00000  -0.00000  -0.00001   2.09178
   A114       2.10017   0.00000   0.00000   0.00000   0.00000   2.10018
   A115       2.09121  -0.00000   0.00000   0.00000   0.00000   2.09122
   A116       1.40540   0.00000   0.00003   0.00001   0.00004   1.40544
   A117       1.78557   0.00002   0.00011   0.00015   0.00026   1.78582
   A118       1.91585  -0.00001  -0.00011  -0.00009  -0.00020   1.91565
   A119       1.65973  -0.00000  -0.00003  -0.00006  -0.00009   1.65964
   A120       1.92111   0.00001   0.00014   0.00008   0.00022   1.92133
   A121       2.47332  -0.00001  -0.00006  -0.00006  -0.00012   2.47320
    D1        0.01621  -0.00000   0.00005  -0.00004   0.00000   0.01621
    D2       -3.12118  -0.00000   0.00005  -0.00007  -0.00003  -3.12120
    D3       -3.13719  -0.00000   0.00004   0.00001   0.00005  -3.13714
    D4        0.00861  -0.00000   0.00004  -0.00002   0.00002   0.00863
    D5       -0.00793   0.00000  -0.00005   0.00003  -0.00002  -0.00796
    D6        3.12765   0.00000  -0.00007   0.00004  -0.00003   3.12762
    D7       -3.13774  -0.00000  -0.00005  -0.00002  -0.00007  -3.13781
    D8       -0.00215  -0.00000  -0.00006  -0.00001  -0.00008  -0.00223
    D9       -0.00653  -0.00000   0.00001  -0.00001   0.00000  -0.00653
   D10       -3.10936  -0.00000   0.00009  -0.00014  -0.00005  -3.10940
   D11        3.13091   0.00000   0.00001   0.00002   0.00003   3.13094
   D12        0.02808  -0.00000   0.00010  -0.00011  -0.00002   0.02806
   D13        3.09175   0.00000  -0.00016  -0.00003  -0.00020   3.09155
   D14       -0.01130   0.00000  -0.00007   0.00008   0.00001  -0.01129
   D15       -0.08940   0.00000  -0.00025   0.00010  -0.00015  -0.08955
   D16        3.09074   0.00001  -0.00015   0.00021   0.00006   3.09080
   D17        0.36458   0.00001  -0.00006   0.00047   0.00041   0.36499
   D18       -1.69388   0.00000  -0.00003   0.00037   0.00033  -1.69354
   D19        2.43041   0.00001  -0.00003   0.00046   0.00044   2.43084
   D20       -2.81527   0.00000  -0.00016   0.00036   0.00021  -2.81506
   D21        1.40946  -0.00000  -0.00013   0.00025   0.00013   1.40959
   D22       -0.74944   0.00001  -0.00012   0.00035   0.00023  -0.74921
   D23        0.01957  -0.00000   0.00006  -0.00009  -0.00003   0.01954
   D24       -3.13657  -0.00000   0.00006  -0.00006  -0.00000  -3.13658
   D25       -3.08448  -0.00000   0.00016   0.00002   0.00017  -3.08431
   D26        0.04256  -0.00000   0.00015   0.00004   0.00020   0.04276
   D27       -2.43459   0.00001  -0.00002  -0.00001  -0.00003  -2.43462
   D28        0.62368   0.00001  -0.00023   0.00005  -0.00018   0.62350
   D29       -0.25080   0.00000  -0.00006   0.00003  -0.00003  -0.25083
   D30        2.80746   0.00000  -0.00027   0.00009  -0.00018   2.80729
   D31        1.75482   0.00000  -0.00007  -0.00002  -0.00009   1.75474
   D32       -1.47010   0.00000  -0.00028   0.00004  -0.00024  -1.47033
   D33        2.49161   0.00001   0.00008   0.00012   0.00020   2.49181
   D34        0.50071   0.00001   0.00006   0.00013   0.00018   0.50090
   D35       -1.78635   0.00001   0.00006   0.00010   0.00016  -1.78619
   D36        0.32393  -0.00000   0.00011  -0.00006   0.00005   0.32398
   D37       -1.66697  -0.00000   0.00009  -0.00005   0.00004  -1.66693
   D38        2.32915  -0.00001   0.00010  -0.00008   0.00002   2.32917
   D39       -1.63802   0.00000   0.00011   0.00002   0.00013  -1.63789
   D40        2.65427   0.00000   0.00008   0.00003   0.00011   2.65438
   D41        0.36720  -0.00000   0.00009  -0.00000   0.00009   0.36729
   D42       -3.12676  -0.00000  -0.00020   0.00000  -0.00019  -3.12695
   D43        0.06684   0.00000  -0.00003   0.00001  -0.00002   0.06682
   D44        0.07326   0.00000  -0.00005  -0.00004  -0.00009   0.07317
   D45       -3.01632   0.00000   0.00011  -0.00003   0.00008  -3.01623
   D46       -3.10841   0.00000   0.00040   0.00001   0.00041  -3.10800
   D47       -1.48183  -0.00000   0.00036  -0.00007   0.00029  -1.48155
   D48        1.28906  -0.00001   0.00024  -0.00008   0.00016   1.28922
   D49       -0.05215  -0.00000   0.00018   0.00007   0.00026  -0.05189
   D50        1.57443  -0.00001   0.00014  -0.00001   0.00013   1.57456
   D51       -1.93787  -0.00001   0.00002  -0.00002   0.00000  -1.93786
   D52        3.12548  -0.00000  -0.00007  -0.00006  -0.00013   3.12535
   D53       -0.05266   0.00000  -0.00021  -0.00004  -0.00025  -0.05291
   D54       -0.06936  -0.00000  -0.00024  -0.00007  -0.00031  -0.06967
   D55        3.03568   0.00000  -0.00038  -0.00005  -0.00043   3.03525
   D56        0.16602  -0.00000   0.00011  -0.00006   0.00005   0.16607
   D57       -2.92382  -0.00000   0.00027  -0.00005   0.00022  -2.92360
   D58        3.10937   0.00000  -0.00012  -0.00001  -0.00013   3.10924
   D59       -0.03584   0.00000  -0.00009  -0.00001  -0.00010  -0.03595
   D60        0.00770   0.00000   0.00003  -0.00002   0.00001   0.00770
   D61       -3.13752  -0.00000   0.00006  -0.00003   0.00003  -3.13749
   D62       -3.07460  -0.00000   0.00008   0.00001   0.00009  -3.07452
   D63        0.00286  -0.00000   0.00035   0.00010   0.00046   0.00331
   D64        0.03154  -0.00000  -0.00005   0.00002  -0.00003   0.03150
   D65        3.10900   0.00000   0.00022   0.00012   0.00034   3.10933
   D66       -0.02789   0.00000  -0.00000   0.00000  -0.00000  -0.02789
   D67        3.12345  -0.00000   0.00002   0.00001   0.00002   3.12347
   D68        3.11740   0.00000  -0.00004   0.00001  -0.00003   3.11738
   D69       -0.01444   0.00000  -0.00002   0.00001  -0.00001  -0.01445
   D70        0.01041  -0.00000   0.00001   0.00001   0.00002   0.01043
   D71       -3.11889  -0.00000  -0.00001   0.00003   0.00003  -3.11886
   D72       -3.14088   0.00000  -0.00001   0.00001  -0.00000  -3.14088
   D73        0.01301   0.00000  -0.00003   0.00003   0.00001   0.01302
   D74        0.02892  -0.00000  -0.00003  -0.00001  -0.00004   0.02888
   D75       -3.11033   0.00000  -0.00000   0.00001   0.00001  -3.11031
   D76       -3.12485  -0.00000  -0.00002  -0.00003  -0.00005  -3.12490
   D77        0.01909   0.00000   0.00001  -0.00001   0.00000   0.01909
   D78       -2.83323  -0.00000  -0.00002  -0.00005  -0.00007  -2.83330
   D79        1.34101  -0.00000  -0.00003  -0.00005  -0.00008   1.34093
   D80       -0.67169   0.00000  -0.00005  -0.00004  -0.00009  -0.67178
   D81        0.32097  -0.00000  -0.00004  -0.00002  -0.00006   0.32091
   D82       -1.78799  -0.00000  -0.00005  -0.00002  -0.00007  -1.78805
   D83        2.48250   0.00000  -0.00006  -0.00002  -0.00008   2.48242
   D84       -0.04994   0.00000   0.00006  -0.00001   0.00005  -0.04989
   D85       -3.11915  -0.00000  -0.00026  -0.00011  -0.00037  -3.11952
   D86        3.08947   0.00000   0.00003  -0.00003  -0.00000   3.08947
   D87        0.02027  -0.00000  -0.00029  -0.00013  -0.00042   0.01985
   D88        0.19996  -0.00000   0.00002   0.00004   0.00006   0.20003
   D89       -1.93904   0.00000   0.00003   0.00007   0.00010  -1.93894
   D90        2.35398   0.00000   0.00006   0.00007   0.00012   2.35410
   D91       -2.93939   0.00000   0.00005   0.00006   0.00011  -2.93928
   D92        1.20479   0.00000   0.00006   0.00009   0.00015   1.20494
   D93       -0.78537   0.00000   0.00009   0.00009   0.00017  -0.78520
   D94        0.02534   0.00000  -0.00030  -0.00010  -0.00040   0.02494
   D95       -1.74890  -0.00002  -0.00042  -0.00026  -0.00068  -1.74958
   D96        1.90515  -0.00001  -0.00042  -0.00019  -0.00062   1.90453
   D97        3.09908   0.00000  -0.00001   0.00000  -0.00001   3.09907
   D98        1.32484  -0.00001  -0.00012  -0.00016  -0.00028   1.32456
   D99       -1.30430  -0.00000  -0.00013  -0.00009  -0.00022  -1.30452
   D100      -0.74820   0.00000  -0.00001  -0.00004  -0.00005  -0.74825
   D101      -2.88827  -0.00000   0.00001  -0.00004  -0.00003  -2.88829
   D102       1.35531  -0.00000  -0.00000  -0.00004  -0.00004   1.35527
   D103       1.36213  -0.00000  -0.00003  -0.00006  -0.00009   1.36204
   D104      -0.77794  -0.00000  -0.00001  -0.00006  -0.00006  -0.77800
   D105      -2.81754  -0.00000  -0.00002  -0.00006  -0.00008  -2.81762
   D106      -2.85915   0.00000  -0.00001  -0.00005  -0.00006  -2.85921
   D107       1.28396  -0.00000   0.00001  -0.00005  -0.00004   1.28393
   D108      -0.75564  -0.00000  -0.00000  -0.00005  -0.00005  -0.75570
   D109       1.10117  -0.00000   0.00000   0.00001   0.00001   1.10118
   D110      -1.00499  -0.00000   0.00001   0.00001   0.00002  -1.00498
   D111      -3.06206  -0.00000   0.00001   0.00001   0.00002  -3.06204
   D112      -3.05571  -0.00000   0.00001   0.00001   0.00001  -3.05570
   D113       1.12131  -0.00000   0.00001   0.00001   0.00002   1.12133
   D114      -0.93576  -0.00000   0.00002   0.00001   0.00002  -0.93573
   D115      -1.00789   0.00000  -0.00002   0.00001  -0.00000  -1.00789
   D116      -3.11406   0.00000  -0.00001   0.00001   0.00000  -3.11405
   D117       1.11206   0.00000  -0.00000   0.00001   0.00001   1.11207
   D118      -0.86859  -0.00000   0.00003   0.00002   0.00005  -0.86855
   D119       1.23501  -0.00000   0.00004   0.00002   0.00006   1.23507
   D120      -3.01451   0.00000   0.00003   0.00002   0.00005  -3.01446
   D121       1.23663  -0.00000   0.00002   0.00002   0.00004   1.23667
   D122      -2.94295  -0.00000   0.00004   0.00002   0.00006  -2.94289
   D123      -0.90928   0.00000   0.00003   0.00002   0.00004  -0.90924
   D124      -3.00290   0.00000   0.00001   0.00002   0.00004  -3.00286
   D125      -0.89929  -0.00000   0.00003   0.00002   0.00005  -0.89924
   D126       1.13437   0.00000   0.00002   0.00002   0.00004   1.13441
   D127      -0.29608   0.00000  -0.00013   0.00007  -0.00006  -0.29614
   D128       1.74076  -0.00000  -0.00013   0.00003  -0.00010   1.74066
   D129      -2.43572   0.00001  -0.00011   0.00009  -0.00003  -2.43575
   D130       1.46548   0.00000  -0.00017   0.00038   0.00021   1.46569
   D131      -1.57703   0.00000  -0.00018   0.00052   0.00033  -1.57670
   D132      -0.45756   0.00000  -0.00016   0.00039   0.00023  -0.45733
   D133       2.78312   0.00000  -0.00018   0.00053   0.00035   2.78347
   D134      -2.49241   0.00000  -0.00018   0.00038   0.00020  -2.49221
   D135       0.74826   0.00000  -0.00020   0.00052   0.00032   0.74858
   D136      -3.05537  -0.00000  -0.00017   0.00005  -0.00012  -3.05550
   D137       0.08272  -0.00000  -0.00026  -0.00002  -0.00028   0.08243
   D138      -1.09667   0.00000  -0.00020   0.00004  -0.00016  -1.09683
   D139       2.04142  -0.00000  -0.00029  -0.00003  -0.00032   2.04110
   D140       0.95255   0.00000  -0.00016   0.00006  -0.00010   0.95245
   D141      -2.19255   0.00000  -0.00025  -0.00001  -0.00026  -2.19281
   D142      -3.03693   0.00000   0.00001   0.00005   0.00006  -3.03686
   D143       0.09953   0.00000  -0.00001   0.00006   0.00005   0.09958
   D144       0.00576  -0.00000   0.00002  -0.00008  -0.00006   0.00571
   D145      -3.14096  -0.00000   0.00001  -0.00007  -0.00007  -3.14103
   D146       3.03329  -0.00000  -0.00002  -0.00005  -0.00007   3.03322
   D147      -0.09104  -0.00000  -0.00000  -0.00004  -0.00004  -0.09108
   D148      -0.01168   0.00000  -0.00003   0.00008   0.00005  -0.01163
   D149      -3.13601   0.00000  -0.00002   0.00010   0.00008  -3.13593
   D150       0.00378   0.00000   0.00000   0.00002   0.00003   0.00380
   D151       3.13712   0.00000  -0.00000   0.00002   0.00002   3.13714
   D152      -3.13275  -0.00000   0.00002   0.00001   0.00004  -3.13272
   D153       0.00059   0.00000   0.00002   0.00001   0.00003   0.00061
   D154      -0.00748   0.00000  -0.00002   0.00004   0.00002  -0.00746
   D155       3.13394   0.00000  -0.00001  -0.00000  -0.00001   3.13393
   D156      -3.14075   0.00000  -0.00001   0.00004   0.00003  -3.14073
   D157       0.00067  -0.00000  -0.00000  -0.00000  -0.00000   0.00067
   D158       0.00159  -0.00000   0.00001  -0.00004  -0.00003   0.00156
   D159       3.14087  -0.00000   0.00000  -0.00004  -0.00004   3.14083
   D160      -3.13984   0.00000  -0.00000   0.00000  -0.00000  -3.13984
   D161      -0.00056   0.00000  -0.00001   0.00000  -0.00001  -0.00057
   D162       0.00807  -0.00000   0.00002  -0.00002  -0.00000   0.00806
   D163       3.13237  -0.00000   0.00000  -0.00004  -0.00004   3.13234
   D164      -3.13123  -0.00000   0.00003  -0.00002   0.00001  -3.13122
   D165      -0.00692  -0.00000   0.00001  -0.00003  -0.00003  -0.00695
   D166       3.13047  -0.00000  -0.00009  -0.00003  -0.00012   3.13035
   D167      -0.01593  -0.00000  -0.00010  -0.00003  -0.00013  -0.01606
   D168      -0.00782   0.00000  -0.00000   0.00004   0.00003  -0.00779
   D169       3.12897   0.00000  -0.00001   0.00003   0.00002   3.12899
   D170       3.14032   0.00000   0.00009   0.00003   0.00013   3.14044
   D171       0.00222   0.00000   0.00010   0.00006   0.00015   0.00237
   D172      -0.00483  -0.00000   0.00000  -0.00004  -0.00003  -0.00486
   D173       3.14027  -0.00000   0.00001  -0.00001  -0.00001   3.14026
   D174       0.01381  -0.00000   0.00000  -0.00002  -0.00001   0.01380
   D175      -3.13541  -0.00000   0.00002  -0.00001   0.00000  -3.13540
   D176      -3.12293  -0.00000   0.00001  -0.00001   0.00000  -3.12293
   D177       0.01104  -0.00000   0.00003  -0.00001   0.00002   0.01106
   D178      -0.00703   0.00000  -0.00000  -0.00000  -0.00000  -0.00703
   D179       3.13230   0.00000  -0.00000   0.00000   0.00000   3.13230
   D180      -3.14096   0.00000  -0.00001  -0.00001  -0.00002  -3.14098
   D181      -0.00164   0.00000  -0.00001   0.00000  -0.00001  -0.00165
   D182      -0.00553  -0.00000  -0.00000   0.00000   0.00000  -0.00553
   D183       3.13954   0.00000  -0.00001   0.00000  -0.00001   3.13953
   D184       3.13833  -0.00000  -0.00000  -0.00000  -0.00001   3.13832
   D185       0.00022   0.00000  -0.00001  -0.00000  -0.00001   0.00021
   D186       0.01153   0.00000  -0.00000   0.00002   0.00002   0.01155
   D187      -3.13347  -0.00000  -0.00000  -0.00000  -0.00001  -3.13348
   D188      -3.13352   0.00000   0.00001   0.00001   0.00002  -3.13349
   D189       0.00467  -0.00000   0.00001  -0.00001   0.00000   0.00467
   D190      -0.00991   0.00000  -0.00000   0.00004   0.00004  -0.00987
   D191       3.13766   0.00000   0.00002   0.00003   0.00004   3.13770
   D192      -3.13702   0.00000   0.00000   0.00001   0.00001  -3.13701
   D193       0.01054  -0.00000   0.00002  -0.00000   0.00002   0.01056
         Item               Value     Threshold  Converged?
 Maximum Force            0.000019     0.000450     YES
 RMS     Force            0.000003     0.000300     YES
 Maximum Displacement     0.002630     0.001800     NO 
 RMS     Displacement     0.000509     0.001200     YES
 Predicted change in Energy=-2.731853D-08
 GradGradGradGradGradGradGradGradGradGradGradGradGradGradGradGradGradGrad

 Stoichiometry    C30H26F2N2NiO(3)
 Framework group  C1[X(C30H26F2N2NiO)]
 Deg. of freedom   180
 Full point group                 C1      NOp   1
 Largest Abelian subgroup         C1      NOp   1
 Largest concise Abelian subgroup C1      NOp   1
                         Standard orientation:                         
 ---------------------------------------------------------------------
 Center     Atomic      Atomic             Coordinates (Angstroms)
 Number     Number       Type             X           Y           Z
 ---------------------------------------------------------------------
      1          6           0        3.101254    4.121724   -0.169662
      2          6           0        1.833633    3.819306    0.326421
      3          6           0        1.235294    2.587290    0.056702
      4          6           0        1.914217    1.648763   -0.727686
      5          6           0        1.336583    0.278243   -0.994230
      6          7           0       -0.113404    0.198023   -0.801952
      7          6           0       -0.383280   -0.913781   -0.223204
      8          6           0       -1.766001   -1.289529    0.087687
      9          6           0       -2.150443   -2.478583    0.694474
     10          6           0       -3.508587   -2.656136    0.952521
     11          6           0       -4.431256   -1.655282    0.639429
     12          6           0       -3.947943   -0.471651    0.045383
     13          7           0       -2.650288   -0.329517   -0.238694
     14          6           0       -4.830170    0.699707   -0.305675
     15          6           0       -6.235441    0.589704    0.295577
     16          6           0       -6.778826   -0.835661    0.150074
     17          6           0       -5.905151   -1.818637    0.938933
     18          8           0        0.634431   -1.697591    0.145837
     19          6           0        1.870339   -0.877880   -0.046880
     20          6           0        2.273691   -0.328942    1.313821
     21          6           0        1.333789   -0.131489    2.329524
     22          6           0        1.704494    0.488023    3.523072
     23          6           0        3.015583    0.920607    3.712939
     24          6           0        3.959170    0.722085    2.704043
     25          6           0        3.591735    0.097621    1.515420
     26          6           0        2.911890   -1.814617   -0.628594
     27          6           0        3.311205   -2.902339    0.163323
     28          6           0        4.251457   -3.815152   -0.301715
     29          6           0        4.824493   -3.647909   -1.565277
     30          6           0        4.441087   -2.567864   -2.355533
     31          6           0        3.484873   -1.659910   -1.892531
     32          6           0        3.177146    1.961337   -1.242823
     33          6           0        3.772669    3.188995   -0.961795
     34          1           0        3.560327    5.081911    0.049243
     35          1           0        1.294864    4.545804    0.928040
     36          1           0        0.233074    2.390027    0.431279
     37          1           0        1.521071    0.010715   -2.039333
     38          1           0       -1.410391   -3.228955    0.947162
     39          1           0       -3.856747   -3.578339    1.410580
     40          1           0       -4.880915    0.764735   -1.401588
     41          1           0       -4.315176    1.607758    0.032239
     42          1           0       -6.899120    1.311777   -0.190746
     43          1           0       -6.203708    0.855921    1.360804
     44          1           0       -6.786851   -1.119057   -0.911231
     45          1           0       -7.812938   -0.898137    0.505705
     46          1           0       -6.063340   -1.656050    2.015314
     47          1           0       -6.203763   -2.855267    0.740964
     48          1           0        0.307399   -0.452527    2.199632
     49          1           0        0.960822    0.637422    4.300291
     50          1           0        3.301158    1.409240    4.639989
     51          1           0        4.983792    1.055484    2.840122
     52          1           0        4.327784   -0.045722    0.732287
     53          1           0        2.878666   -3.022057    1.151569
     54          1           0        4.543581   -4.653895    0.323549
     55          1           0        5.565517   -4.354643   -1.927375
     56          1           0        4.880200   -2.425474   -3.338541
     57          1           0        3.203176   -0.834744   -2.535224
     58          1           0        3.707071    1.237894   -1.856639
     59          1           0        4.755299    3.417739   -1.365099
     60         28           0       -1.777568    1.345229   -1.070820
     61          9           0       -1.823662    2.344710    0.485308
     62          9           0       -2.175625    1.442506   -2.834711
 ---------------------------------------------------------------------
 Rotational constants (GHZ):           0.1628290           0.0755254           0.0661590
 Basis read from rwf:  (6D, 7F)
 Pseudo-potential data read from rwf file.
 There are   654 symmetry adapted cartesian basis functions of A   symmetry.
 There are   651 symmetry adapted basis functions of A   symmetry.
   651 basis functions,  1238 primitive gaussians,   654 cartesian basis functions
   133 alpha electrons      131 beta electrons
       nuclear repulsion energy      4226.2115931384 Hartrees.
 NAtoms=   62 NActive=   62 NUniq=   62 SFac= 1.00D+00 NAtFMM=   60 NAOKFM=T Big=T
 Integral buffers will be    131072 words long.
 Raffenetti 2 integral format.
 Two-electron integral symmetry is turned on.
 Nuclear repulsion after empirical dispersion term =     4226.0445111715 Hartrees.
 One-electron integrals computed using PRISM.
 PrsmSu:  requested number of processors reduced to:  12 ShMem   1 Linda.
   1 Symmetry operations used in ECPInt.
 ECPInt:  NShTT=   22791 NPrTT=  142008 LenC2=   18123 LenP2D=   59669.
 LDataN:  DoStor=T MaxTD1= 6 Len=  172
 Number of processors reduced to  11 by ecpmxn.
 NBasis=   651 RedAO= T EigKep=  1.01D-06  NBF=   651
 NBsUse=   651 1.00D-06 EigRej= -1.00D+00 NBFU=   651
 Initial guess from the checkpoint file:  "Lig2120_xyz_3.chk"
 B after Tr=     0.000000   -0.000000   -0.000000
         Rot=    1.000000    0.000061    0.000032    0.000004 Ang=   0.01 deg.
 Initial guess <Sx>= 0.0000 <Sy>= 0.0000 <Sz>= 1.0000 <S**2>= 2.0069 S= 1.0023
 Requested convergence on RMS density matrix=1.00D-08 within 128 cycles.
 Requested convergence on MAX density matrix=1.00D-06.
 Requested convergence on             energy=1.00D-06.
 No special actions if energy rises.
 Restarting incremental Fock formation.
 SCF Done:  E(UB3LYP) =  -1712.90146073     A.U. after   25 cycles
            NFock= 25  Conv=0.14D-08     -V/T= 2.0467
 <Sx>= 0.0000 <Sy>= 0.0000 <Sz>= 1.0000 <S**2>= 2.0069 S= 1.0023
 <L.S>=  0.00000000000    
 Annihilation of the first spin contaminant:
 S**2 before annihilation     2.0069,   after     2.0000
 PrsmSu:  requested number of processors reduced to:  12 ShMem   1 Linda.
   1 Symmetry operations used in ECPInt.
 ECPInt:  NShTT=   22791 NPrTT=  142008 LenC2=   18123 LenP2D=   59669.
 LDataN:  DoStor=T MaxTD1= 7 Len=  274
 Number of processors reduced to  13 by ecpmxn.
 Calling FoFJK, ICntrl=      2127 FMM=T ISym2X=0 I1Cent= 0 IOpClX= 1 NMat=1 NMatS=1 NMatT=0.
 ***** Axes restored to original set *****
 -------------------------------------------------------------------
 Center     Atomic                   Forces (Hartrees/Bohr)
 Number     Number              X              Y              Z
 -------------------------------------------------------------------
      1        6          -0.000000520    0.000004317   -0.000005646
      2        6          -0.000001356    0.000000773   -0.000005884
      3        6           0.000003260    0.000004480   -0.000011922
      4        6           0.000010541    0.000006928    0.000003471
      5        6           0.000012194   -0.000002562   -0.000009498
      6        7          -0.000024993    0.000011266   -0.000009352
      7        6           0.000015017   -0.000011849    0.000008470
      8        6          -0.000007316    0.000003165    0.000010150
      9        6           0.000007669   -0.000004711    0.000007652
     10        6          -0.000005462    0.000004057    0.000010599
     11        6          -0.000004361   -0.000011860   -0.000006409
     12        6           0.000004283    0.000001186    0.000012712
     13        7           0.000006670   -0.000002925   -0.000008435
     14        6          -0.000014363   -0.000002371   -0.000004101
     15        6           0.000010299   -0.000000712    0.000003392
     16        6          -0.000002917   -0.000004647    0.000005086
     17        6           0.000003872   -0.000006011   -0.000001009
     18        8          -0.000011411    0.000009172    0.000011877
     19        6          -0.000000107    0.000004768   -0.000009016
     20        6           0.000000580    0.000003308    0.000002066
     21        6          -0.000004819   -0.000008130    0.000010191
     22        6           0.000002683    0.000001360   -0.000010663
     23        6          -0.000013568   -0.000003412   -0.000007264
     24        6           0.000001317   -0.000007707    0.000005603
     25        6           0.000007662    0.000003898   -0.000005716
     26        6           0.000008710    0.000009998    0.000021658
     27        6           0.000002213   -0.000010480   -0.000000278
     28        6          -0.000002194    0.000006024   -0.000004948
     29        6           0.000003134    0.000009401    0.000015253
     30        6           0.000007673   -0.000006467    0.000003828
     31        6          -0.000004861    0.000013128   -0.000007245
     32        6          -0.000000301   -0.000003346   -0.000008272
     33        6           0.000003213    0.000006897   -0.000007181
     34        1          -0.000000408    0.000003624   -0.000012692
     35        1          -0.000000533    0.000002081   -0.000009124
     36        1          -0.000001123    0.000004245   -0.000005804
     37        1           0.000000782   -0.000000695   -0.000001796
     38        1          -0.000004199   -0.000003804    0.000001948
     39        1           0.000002312   -0.000007432    0.000005501
     40        1           0.000004825    0.000000871    0.000000979
     41        1          -0.000000539   -0.000000684   -0.000001092
     42        1          -0.000003944   -0.000004098   -0.000001605
     43        1          -0.000004041   -0.000004535    0.000001217
     44        1           0.000000357   -0.000002868    0.000002931
     45        1          -0.000001095   -0.000005366    0.000004020
     46        1          -0.000003881   -0.000008375    0.000007456
     47        1          -0.000003259   -0.000005416    0.000007089
     48        1          -0.000000043    0.000001255   -0.000003627
     49        1          -0.000002787   -0.000006679   -0.000002320
     50        1          -0.000001383   -0.000004783   -0.000004659
     51        1          -0.000002601    0.000001465   -0.000007264
     52        1          -0.000001376    0.000001090   -0.000000407
     53        1           0.000001924   -0.000000557    0.000003645
     54        1           0.000000851    0.000000567    0.000007736
     55        1           0.000003513    0.000005121    0.000006400
     56        1           0.000004147    0.000008034    0.000003223
     57        1           0.000003306    0.000006528    0.000001620
     58        1           0.000001208    0.000008419   -0.000002273
     59        1          -0.000000247    0.000007778   -0.000005557
     60       28          -0.000007024   -0.000013061    0.000011594
     61        9           0.000007328   -0.000000881   -0.000013067
     62        9          -0.000004508    0.000001217   -0.000003248
 -------------------------------------------------------------------
 Cartesian Forces:  Max     0.000024993 RMS     0.000006736

 GradGradGradGradGradGradGradGradGradGradGradGradGradGradGradGradGradGrad
 Berny optimization.
 Using GEDIIS/GDIIS optimizer.
 FormGI is forming the generalized inverse of G from B-inverse, IUseBI=4.
 Internal  Forces:  Max     0.000023076 RMS     0.000003792
 Search for a local minimum.
 Step number   4 out of a maximum of  372
 All quantities printed in internal units (Hartrees-Bohrs-Radians)
 Mixed Optimization -- En-DIIS/RFO-DIIS
 Swapping is turned off.
 Update second derivatives using D2CorX and points    1    2    3    4
 DE= -1.43D-07 DEPred=-2.73D-08 R= 5.24D+00
 Trust test= 5.24D+00 RLast= 2.25D-03 DXMaxT set to 1.50D-01
 ITU=  0  0 -1  0
     Eigenvalues ---    0.00307   0.00517   0.00543   0.00618   0.00660
     Eigenvalues ---    0.00778   0.01004   0.01138   0.01333   0.01465
     Eigenvalues ---    0.01484   0.01565   0.01631   0.01648   0.01855
     Eigenvalues ---    0.01897   0.02073   0.02093   0.02119   0.02128
     Eigenvalues ---    0.02130   0.02135   0.02137   0.02140   0.02143
     Eigenvalues ---    0.02146   0.02150   0.02150   0.02153   0.02154
     Eigenvalues ---    0.02157   0.02159   0.02161   0.02162   0.02164
     Eigenvalues ---    0.02166   0.02168   0.02169   0.02174   0.02183
     Eigenvalues ---    0.02198   0.02210   0.02215   0.02239   0.02370
     Eigenvalues ---    0.02756   0.03031   0.04077   0.04265   0.04464
     Eigenvalues ---    0.04894   0.05050   0.05225   0.05421   0.05670
     Eigenvalues ---    0.05998   0.06070   0.06919   0.06992   0.07310
     Eigenvalues ---    0.07915   0.08025   0.08292   0.09311   0.09471
     Eigenvalues ---    0.09672   0.11286   0.11607   0.12157   0.12643
     Eigenvalues ---    0.13382   0.13523   0.14305   0.15616   0.15931
     Eigenvalues ---    0.15998   0.15998   0.15999   0.15999   0.15999
     Eigenvalues ---    0.16000   0.16000   0.16000   0.16000   0.16000
     Eigenvalues ---    0.16000   0.16000   0.16000   0.16000   0.16141
     Eigenvalues ---    0.17127   0.17938   0.18504   0.19243   0.19606
     Eigenvalues ---    0.21024   0.21999   0.21999   0.22000   0.22000
     Eigenvalues ---    0.22043   0.22068   0.22666   0.23402   0.23452
     Eigenvalues ---    0.23481   0.23663   0.24165   0.24241   0.24576
     Eigenvalues ---    0.24794   0.24888   0.24906   0.24958   0.25302
     Eigenvalues ---    0.26850   0.27946   0.28372   0.28651   0.29455
     Eigenvalues ---    0.30350   0.30590   0.30703   0.31149   0.31566
     Eigenvalues ---    0.32851   0.33720   0.33789   0.33848   0.33866
     Eigenvalues ---    0.33991   0.34042   0.34203   0.34275   0.34345
     Eigenvalues ---    0.35055   0.35166   0.35213   0.35217   0.35245
     Eigenvalues ---    0.35249   0.35261   0.35261   0.35265   0.35274
     Eigenvalues ---    0.35278   0.35302   0.35354   0.35363   0.35499
     Eigenvalues ---    0.35543   0.35610   0.35650   0.39511   0.40129
     Eigenvalues ---    0.41858   0.42007   0.42067   0.42124   0.42250
     Eigenvalues ---    0.42653   0.43117   0.45505   0.45804   0.45930
     Eigenvalues ---    0.46025   0.46112   0.46152   0.46271   0.46399
     Eigenvalues ---    0.46529   0.46643   0.46678   0.46868   0.46883
     Eigenvalues ---    0.47659   0.51028   0.54710   0.56614   0.63200
 En-DIIS/RFO-DIIS/Sim-DIIS IScMMF=       -3 using points:     4    3    2    1
 RFO step:  Lambda=-1.64196061D-08.
 DIIS inversion failure, remove point   4.
 RFO-DIIS uses    3 points instead of    4
 DidBck=F Rises=F RFO-DIIS coefs:    1.00918    0.24903   -0.25821    0.00000
 Iteration  1 RMS(Cart)=  0.00022295 RMS(Int)=  0.00000001
 Iteration  2 RMS(Cart)=  0.00000001 RMS(Int)=  0.00000000
 Variable       Old X    -DE/DX   Delta X   Delta X   Delta X     New X
                                 (Linear)    (Quad)   (Total)
    R1        2.63508   0.00000   0.00000  -0.00000   0.00000   2.63508
    R2        2.63768   0.00000  -0.00000   0.00000   0.00000   2.63768
    R3        2.05331   0.00000  -0.00000   0.00000   0.00000   2.05331
    R4        2.63793   0.00000  -0.00000   0.00000  -0.00000   2.63793
    R5        2.05278  -0.00000  -0.00000  -0.00000  -0.00000   2.05278
    R6        2.64361  -0.00001   0.00000  -0.00001  -0.00001   2.64361
    R7        2.05595  -0.00000   0.00000  -0.00000  -0.00000   2.05595
    R8        2.85532  -0.00001  -0.00000  -0.00001  -0.00001   2.85531
    R9        2.64431   0.00000  -0.00000   0.00000   0.00000   2.64431
   R10        2.76822  -0.00002   0.00001  -0.00003  -0.00002   2.76820
   R11        2.99924   0.00001  -0.00001   0.00004   0.00003   2.99927
   R12        2.06823  -0.00000   0.00000  -0.00000  -0.00000   2.06823
   R13        2.42290   0.00000   0.00000   0.00000   0.00001   2.42290
   R14        3.85329   0.00001  -0.00003   0.00004   0.00002   3.85331
   R15        2.77073  -0.00000   0.00000  -0.00000  -0.00000   2.77072
   R16        2.52566   0.00001  -0.00001   0.00002   0.00001   2.52567
   R17        2.62518  -0.00000  -0.00000   0.00000  -0.00000   2.62518
   R18        2.54245   0.00001  -0.00000   0.00001   0.00001   2.54245
   R19        2.63389  -0.00000   0.00000  -0.00000  -0.00000   2.63389
   R20        2.04805   0.00000  -0.00000   0.00000   0.00000   2.04805
   R21        2.63957   0.00001  -0.00000   0.00001   0.00000   2.63958
   R22        2.05407  -0.00000   0.00000  -0.00000  -0.00000   2.05406
   R23        2.66409  -0.00001   0.00000  -0.00001  -0.00001   2.66408
   R24        2.85890   0.00000  -0.00000   0.00000  -0.00000   2.85890
   R25        2.52461   0.00000  -0.00000   0.00000  -0.00000   2.52461
   R26        2.84945  -0.00000   0.00000  -0.00000  -0.00000   2.84944
   R27        3.89982   0.00001  -0.00004   0.00004   0.00000   3.89983
   R28        2.89590   0.00001  -0.00001   0.00001   0.00001   2.89591
   R29        2.07683   0.00000   0.00000   0.00000   0.00000   2.07683
   R30        2.07351  -0.00000   0.00000  -0.00000  -0.00000   2.07351
   R31        2.89573  -0.00000   0.00000  -0.00000  -0.00000   2.89572
   R32        2.06868   0.00000   0.00000   0.00000   0.00000   2.06868
   R33        2.07577   0.00000  -0.00000   0.00000   0.00000   2.07577
   R34        2.89804  -0.00000   0.00000  -0.00000  -0.00000   2.89803
   R35        2.07590   0.00000  -0.00000   0.00000   0.00000   2.07590
   R36        2.06989   0.00000  -0.00000   0.00000   0.00000   2.06989
   R37        2.07875   0.00000  -0.00000   0.00001   0.00001   2.07875
   R38        2.07264  -0.00000   0.00000  -0.00000  -0.00000   2.07264
   R39        2.82609  -0.00000   0.00001  -0.00000   0.00000   2.82610
   R40        2.87557   0.00000  -0.00000   0.00000   0.00000   2.87558
   R41        2.86634   0.00000   0.00000   0.00000   0.00000   2.86635
   R42        2.64160   0.00000  -0.00000   0.00000  -0.00000   2.64160
   R43        2.64551  -0.00000   0.00000  -0.00001  -0.00000   2.64551
   R44        2.63600  -0.00000   0.00000  -0.00001  -0.00000   2.63600
   R45        2.04703   0.00000  -0.00000   0.00000   0.00000   2.04703
   R46        2.63353   0.00001  -0.00000   0.00001   0.00000   2.63353
   R47        2.05228   0.00000  -0.00000   0.00000   0.00000   2.05228
   R48        2.63726  -0.00001   0.00000  -0.00001  -0.00000   2.63726
   R49        2.05254   0.00000   0.00000   0.00000   0.00000   2.05254
   R50        2.63058   0.00000  -0.00000   0.00001   0.00000   2.63059
   R51        2.05235   0.00000  -0.00000   0.00000   0.00000   2.05235
   R52        2.04895  -0.00000   0.00000  -0.00000  -0.00000   2.04895
   R53        2.65217  -0.00001   0.00001  -0.00001  -0.00001   2.65217
   R54        2.63871   0.00001  -0.00001   0.00001   0.00001   2.63872
   R55        2.62771   0.00001  -0.00000   0.00001   0.00000   2.62772
   R56        2.05107   0.00000  -0.00000   0.00000  -0.00000   2.05107
   R57        2.64084  -0.00001   0.00000  -0.00001  -0.00001   2.64083
   R58        2.05258   0.00000  -0.00000   0.00000   0.00000   2.05258
   R59        2.63073   0.00001  -0.00000   0.00001   0.00000   2.63073
   R60        2.05251   0.00000  -0.00000   0.00000   0.00000   2.05251
   R61        2.64095  -0.00001   0.00000  -0.00001  -0.00001   2.64095
   R62        2.05225   0.00000  -0.00000   0.00000   0.00000   2.05225
   R63        2.04694  -0.00000  -0.00000  -0.00000  -0.00000   2.04694
   R64        2.63260  -0.00000   0.00000  -0.00000  -0.00000   2.63260
   R65        2.05360   0.00000  -0.00000   0.00001   0.00000   2.05360
   R66        2.05324   0.00000  -0.00000   0.00000   0.00000   2.05324
   R67        3.49606  -0.00001   0.00001  -0.00002  -0.00001   3.49605
   R68        3.42203  -0.00000  -0.00000  -0.00000  -0.00000   3.42203
    A1        2.08778  -0.00000   0.00000  -0.00000  -0.00000   2.08778
    A2        2.09908   0.00000  -0.00000   0.00000   0.00000   2.09909
    A3        2.09626  -0.00000   0.00000  -0.00000  -0.00000   2.09626
    A4        2.10868  -0.00000  -0.00000  -0.00000  -0.00000   2.10868
    A5        2.09770   0.00000  -0.00000   0.00001   0.00000   2.09770
    A6        2.07679   0.00000   0.00000  -0.00000  -0.00000   2.07679
    A7        2.08567   0.00000  -0.00000   0.00001   0.00000   2.08567
    A8        2.08100   0.00000   0.00001  -0.00000   0.00000   2.08100
    A9        2.11585  -0.00000  -0.00000  -0.00000  -0.00001   2.11585
   A10        2.11988  -0.00002  -0.00001  -0.00001  -0.00002   2.11986
   A11        2.08813   0.00000   0.00000  -0.00000  -0.00000   2.08813
   A12        2.07454   0.00001   0.00000   0.00002   0.00002   2.07456
   A13        1.98769  -0.00002  -0.00001  -0.00005  -0.00006   1.98763
   A14        2.01182   0.00002  -0.00001   0.00006   0.00005   2.01186
   A15        1.90258  -0.00000   0.00002  -0.00002  -0.00001   1.90257
   A16        1.78712   0.00000   0.00000  -0.00001  -0.00001   1.78711
   A17        1.85335   0.00001   0.00001   0.00000   0.00001   1.85336
   A18        1.91264  -0.00000  -0.00001   0.00003   0.00002   1.91267
   A19        1.89134   0.00001  -0.00001   0.00001   0.00001   1.89135
   A20        2.43368  -0.00001   0.00000  -0.00002  -0.00001   2.43367
   A21        1.95584   0.00000   0.00000   0.00000   0.00000   1.95584
   A22        2.11349  -0.00000  -0.00001   0.00000  -0.00000   2.11348
   A23        2.06338  -0.00000   0.00000  -0.00000  -0.00000   2.06338
   A24        2.10513   0.00000  -0.00000   0.00000   0.00000   2.10513
   A25        2.18090  -0.00000   0.00001  -0.00001   0.00000   2.18090
   A26        1.96659  -0.00000  -0.00001   0.00000  -0.00000   1.96658
   A27        2.13509   0.00000  -0.00000   0.00001   0.00000   2.13510
   A28        2.04830   0.00000  -0.00000   0.00000   0.00000   2.04830
   A29        2.10075  -0.00001   0.00001  -0.00002  -0.00001   2.10073
   A30        2.13413   0.00001  -0.00001   0.00002   0.00001   2.13414
   A31        2.10701  -0.00000   0.00000  -0.00001  -0.00001   2.10700
   A32        2.09233   0.00001  -0.00001   0.00002   0.00001   2.09234
   A33        2.08380  -0.00000   0.00000  -0.00001  -0.00000   2.08380
   A34        2.05962   0.00000  -0.00000   0.00001   0.00001   2.05962
   A35        2.11976  -0.00001   0.00001  -0.00001  -0.00001   2.11975
   A36        2.10375   0.00000  -0.00000   0.00000   0.00000   2.10375
   A37        2.10822   0.00000  -0.00000   0.00000   0.00000   2.10822
   A38        2.15285   0.00000   0.00000  -0.00000   0.00000   2.15285
   A39        2.02211  -0.00000   0.00000  -0.00000  -0.00000   2.02211
   A40        2.10705  -0.00001   0.00001  -0.00001  -0.00001   2.10704
   A41        1.98115   0.00000   0.00001   0.00000   0.00001   1.98115
   A42        2.19302   0.00000  -0.00001   0.00001  -0.00000   2.19302
   A43        1.97080  -0.00000  -0.00000  -0.00001  -0.00001   1.97079
   A44        1.88088   0.00000  -0.00000   0.00001   0.00001   1.88089
   A45        1.87190  -0.00000  -0.00001   0.00001  -0.00000   1.87190
   A46        1.93173  -0.00000  -0.00000  -0.00002  -0.00002   1.93171
   A47        1.94870   0.00000   0.00001   0.00000   0.00001   1.94872
   A48        1.85438   0.00000  -0.00000   0.00002   0.00001   1.85439
   A49        1.93338   0.00000  -0.00000  -0.00000  -0.00000   1.93338
   A50        1.91166  -0.00000   0.00001  -0.00001  -0.00001   1.91165
   A51        1.91409  -0.00000   0.00000  -0.00001  -0.00001   1.91409
   A52        1.93519   0.00000  -0.00001   0.00002   0.00001   1.93520
   A53        1.90473   0.00000   0.00000  -0.00000   0.00000   1.90473
   A54        1.86343   0.00000  -0.00000   0.00001   0.00001   1.86343
   A55        1.92341  -0.00000   0.00000  -0.00001  -0.00000   1.92341
   A56        1.91165   0.00000  -0.00000  -0.00000  -0.00000   1.91165
   A57        1.93587   0.00000  -0.00000   0.00000   0.00000   1.93587
   A58        1.91322   0.00000  -0.00000   0.00001   0.00000   1.91322
   A59        1.91164   0.00000  -0.00000  -0.00000  -0.00000   1.91164
   A60        1.86718  -0.00000  -0.00000   0.00000   0.00000   1.86718
   A61        1.96490   0.00000  -0.00000   0.00001   0.00001   1.96491
   A62        1.89427  -0.00000   0.00000  -0.00002  -0.00001   1.89425
   A63        1.90876  -0.00000   0.00000  -0.00001  -0.00001   1.90875
   A64        1.90358   0.00000   0.00000  -0.00000  -0.00000   1.90358
   A65        1.93677   0.00000  -0.00001   0.00002   0.00001   1.93678
   A66        1.85164   0.00000  -0.00000  -0.00000  -0.00000   1.85163
   A67        1.84653  -0.00001  -0.00000  -0.00001  -0.00001   1.84652
   A68        1.77038   0.00000   0.00000  -0.00000  -0.00000   1.77038
   A69        1.93918   0.00000  -0.00001   0.00003   0.00002   1.93920
   A70        2.03966   0.00000  -0.00001   0.00004   0.00003   2.03969
   A71        1.87712  -0.00001   0.00002  -0.00007  -0.00005   1.87707
   A72        1.85292   0.00000  -0.00000  -0.00000  -0.00001   1.85291
   A73        1.96461  -0.00000   0.00001  -0.00001  -0.00000   1.96460
   A74        2.12053  -0.00000   0.00000  -0.00000  -0.00000   2.12053
   A75        2.08088   0.00000  -0.00001   0.00001   0.00000   2.08089
   A76        2.07758  -0.00000   0.00000  -0.00000  -0.00000   2.07758
   A77        2.10106   0.00000   0.00000   0.00000   0.00000   2.10106
   A78        2.10377  -0.00001   0.00001  -0.00002  -0.00001   2.10376
   A79        2.07834   0.00000  -0.00001   0.00002   0.00001   2.07835
   A80        2.09955   0.00000  -0.00000   0.00001   0.00000   2.09955
   A81        2.08457  -0.00000  -0.00000  -0.00000  -0.00000   2.08456
   A82        2.09904  -0.00000   0.00000  -0.00000  -0.00000   2.09904
   A83        2.08684  -0.00000   0.00000  -0.00001  -0.00001   2.08684
   A84        2.09819  -0.00000   0.00000  -0.00000  -0.00000   2.09819
   A85        2.09815   0.00000  -0.00001   0.00001   0.00001   2.09816
   A86        2.09743   0.00000  -0.00000   0.00000   0.00000   2.09743
   A87        2.09859   0.00000  -0.00001   0.00001   0.00001   2.09860
   A88        2.08716  -0.00000   0.00001  -0.00001  -0.00001   2.08715
   A89        2.10384   0.00000  -0.00000   0.00000   0.00000   2.10385
   A90        2.08845   0.00000  -0.00000   0.00001   0.00000   2.08845
   A91        2.09076  -0.00000   0.00000  -0.00001  -0.00001   2.09076
   A92        2.04610   0.00000  -0.00000   0.00000  -0.00000   2.04610
   A93        2.16578   0.00000   0.00000   0.00000   0.00001   2.16579
   A94        2.07130  -0.00000   0.00000  -0.00001  -0.00001   2.07129
   A95        2.10883   0.00000   0.00000   0.00000   0.00000   2.10883
   A96        2.07814  -0.00000  -0.00000  -0.00000  -0.00000   2.07814
   A97        2.09620  -0.00000   0.00000  -0.00000   0.00000   2.09620
   A98        2.09566   0.00000  -0.00000   0.00000   0.00000   2.09566
   A99        2.09007  -0.00000   0.00000  -0.00000  -0.00000   2.09007
   A100       2.09743  -0.00000  -0.00000  -0.00000  -0.00000   2.09743
   A101       2.08654  -0.00000   0.00000  -0.00001  -0.00000   2.08654
   A102       2.09824   0.00000  -0.00000   0.00000   0.00000   2.09824
   A103       2.09841   0.00000   0.00000   0.00000   0.00000   2.09841
   A104       2.09950   0.00000  -0.00000   0.00000   0.00000   2.09950
   A105       2.09924  -0.00000   0.00000  -0.00000  -0.00000   2.09924
   A106       2.08444  -0.00000  -0.00000  -0.00000  -0.00000   2.08444
   A107       2.10443   0.00000  -0.00000   0.00000   0.00000   2.10443
   A108       2.11152  -0.00000   0.00000  -0.00000   0.00000   2.11152
   A109       2.06723  -0.00000  -0.00000  -0.00000  -0.00000   2.06723
   A110       2.10412  -0.00000  -0.00000   0.00000  -0.00000   2.10412
   A111       2.09364  -0.00000   0.00000  -0.00000  -0.00000   2.09364
   A112       2.08534   0.00000   0.00000   0.00000   0.00000   2.08534
   A113       2.09178   0.00000  -0.00000   0.00000   0.00000   2.09178
   A114       2.10018  -0.00000   0.00000  -0.00000   0.00000   2.10018
   A115       2.09122  -0.00000   0.00000  -0.00000  -0.00000   2.09122
   A116       1.40544  -0.00000   0.00001  -0.00001  -0.00001   1.40543
   A117       1.78582   0.00001   0.00003   0.00007   0.00010   1.78592
   A118       1.91565  -0.00000  -0.00003  -0.00004  -0.00007   1.91558
   A119       1.65964   0.00000  -0.00001  -0.00001  -0.00002   1.65962
   A120       1.92133   0.00000   0.00004   0.00003   0.00007   1.92139
   A121       2.47320  -0.00001  -0.00002  -0.00003  -0.00005   2.47316
    D1        0.01621  -0.00000   0.00001  -0.00001   0.00000   0.01621
    D2       -3.12120   0.00000   0.00001   0.00000   0.00001  -3.12119
    D3       -3.13714  -0.00000   0.00001  -0.00003  -0.00002  -3.13716
    D4        0.00863  -0.00000   0.00001  -0.00002  -0.00001   0.00862
    D5       -0.00796   0.00000  -0.00001   0.00002   0.00001  -0.00795
    D6        3.12762   0.00000  -0.00002   0.00002   0.00001   3.12763
    D7       -3.13781   0.00000  -0.00001   0.00004   0.00003  -3.13778
    D8       -0.00223   0.00000  -0.00002   0.00004   0.00003  -0.00220
    D9       -0.00653   0.00000  -0.00000   0.00001   0.00001  -0.00651
   D10       -3.10940   0.00000   0.00003  -0.00003   0.00000  -3.10940
   D11        3.13094  -0.00000  -0.00000  -0.00000  -0.00000   3.13094
   D12        0.02806   0.00000   0.00003  -0.00004  -0.00001   0.02805
   D13        3.09155   0.00000  -0.00004   0.00010   0.00006   3.09161
   D14       -0.01129  -0.00000  -0.00001  -0.00002  -0.00003  -0.01132
   D15       -0.08955   0.00000  -0.00007   0.00014   0.00007  -0.08948
   D16        3.09080  -0.00000  -0.00004   0.00002  -0.00002   3.09077
   D17        0.36499  -0.00000  -0.00008  -0.00006  -0.00013   0.36486
   D18       -1.69354  -0.00000  -0.00006  -0.00004  -0.00010  -1.69365
   D19        2.43084  -0.00001  -0.00006  -0.00010  -0.00016   2.43068
   D20       -2.81506   0.00000  -0.00011   0.00006  -0.00004  -2.81510
   D21        1.40959   0.00000  -0.00009   0.00008  -0.00001   1.40958
   D22       -0.74921  -0.00001  -0.00009   0.00001  -0.00007  -0.74928
   D23        0.01954   0.00000   0.00001   0.00003   0.00004   0.01958
   D24       -3.13658   0.00000   0.00001   0.00001   0.00002  -3.13656
   D25       -3.08431  -0.00000   0.00004  -0.00009  -0.00005  -3.08436
   D26        0.04276  -0.00000   0.00004  -0.00011  -0.00007   0.04269
   D27       -2.43462  -0.00001   0.00003  -0.00006  -0.00003  -2.43465
   D28        0.62350  -0.00001  -0.00004  -0.00006  -0.00010   0.62340
   D29       -0.25083   0.00000   0.00001  -0.00002  -0.00002  -0.25085
   D30        2.80729  -0.00000  -0.00006  -0.00002  -0.00009   2.80720
   D31        1.75474   0.00000   0.00001   0.00000   0.00001   1.75474
   D32       -1.47033  -0.00000  -0.00007   0.00000  -0.00006  -1.47040
   D33        2.49181  -0.00001  -0.00002   0.00001  -0.00002   2.49179
   D34        0.50090  -0.00001  -0.00004   0.00007   0.00003   0.50093
   D35       -1.78619  -0.00001  -0.00003   0.00002  -0.00001  -1.78620
   D36        0.32398   0.00000  -0.00000   0.00005   0.00004   0.32403
   D37       -1.66693   0.00001  -0.00002   0.00011   0.00009  -1.66684
   D38        2.32917   0.00001  -0.00001   0.00006   0.00005   2.32922
   D39       -1.63789  -0.00001  -0.00001   0.00004   0.00003  -1.63787
   D40        2.65438   0.00000  -0.00003   0.00011   0.00008   2.65445
   D41        0.36729  -0.00000  -0.00002   0.00005   0.00003   0.36732
   D42       -3.12695   0.00000  -0.00006   0.00005  -0.00001  -3.12696
   D43        0.06682  -0.00000  -0.00001  -0.00001  -0.00002   0.06681
   D44        0.07317   0.00000  -0.00001   0.00005   0.00004   0.07322
   D45       -3.01623   0.00000   0.00004  -0.00001   0.00003  -3.01620
   D46       -3.10800  -0.00000   0.00012  -0.00006   0.00005  -3.10795
   D47       -1.48155  -0.00000   0.00010  -0.00009   0.00002  -1.48153
   D48        1.28922  -0.00001   0.00007  -0.00009  -0.00002   1.28920
   D49       -0.05189  -0.00000   0.00004  -0.00006  -0.00002  -0.05191
   D50        1.57456  -0.00000   0.00003  -0.00009  -0.00006   1.57450
   D51       -1.93786  -0.00001  -0.00000  -0.00009  -0.00009  -1.93795
   D52        3.12535  -0.00000  -0.00002  -0.00004  -0.00006   3.12529
   D53       -0.05291   0.00000  -0.00005   0.00000  -0.00005  -0.05297
   D54       -0.06967  -0.00000  -0.00007   0.00002  -0.00005  -0.06972
   D55        3.03525   0.00000  -0.00010   0.00007  -0.00004   3.03521
   D56        0.16607   0.00000   0.00001   0.00004   0.00005   0.16612
   D57       -2.92360   0.00000   0.00005  -0.00002   0.00004  -2.92356
   D58        3.10924   0.00000  -0.00003   0.00002  -0.00001   3.10923
   D59       -0.03595   0.00000  -0.00002   0.00000  -0.00002  -0.03596
   D60        0.00770  -0.00000   0.00001  -0.00003  -0.00003   0.00768
   D61       -3.13749  -0.00000   0.00001  -0.00005  -0.00003  -3.13752
   D62       -3.07452  -0.00000   0.00002   0.00001   0.00004  -3.07448
   D63        0.00331  -0.00000   0.00009  -0.00006   0.00003   0.00334
   D64        0.03150   0.00000  -0.00001   0.00006   0.00005   0.03155
   D65        3.10933  -0.00000   0.00005  -0.00001   0.00004   3.10938
   D66       -0.02789   0.00000  -0.00000  -0.00000  -0.00001  -0.02789
   D67        3.12347  -0.00000   0.00000  -0.00000  -0.00000   3.12347
   D68        3.11738   0.00000  -0.00001   0.00001   0.00000   3.11738
   D69       -0.01445   0.00000  -0.00000   0.00001   0.00001  -0.01444
   D70        0.01043   0.00000   0.00000   0.00001   0.00002   0.01045
   D71       -3.11886   0.00000   0.00000   0.00005   0.00005  -3.11881
   D72       -3.14088   0.00000  -0.00000   0.00001   0.00001  -3.14087
   D73        0.01302   0.00000  -0.00000   0.00005   0.00004   0.01306
   D74        0.02888   0.00000  -0.00001   0.00001   0.00000   0.02888
   D75       -3.11031   0.00000   0.00000   0.00002   0.00002  -3.11029
   D76       -3.12490  -0.00000  -0.00001  -0.00002  -0.00003  -3.12493
   D77        0.01909   0.00000   0.00000  -0.00001  -0.00001   0.01908
   D78       -2.83330  -0.00000  -0.00001  -0.00005  -0.00006  -2.83336
   D79        1.34093  -0.00000  -0.00001  -0.00004  -0.00005   1.34087
   D80       -0.67178   0.00000  -0.00001  -0.00003  -0.00004  -0.67183
   D81        0.32091  -0.00000  -0.00001  -0.00001  -0.00002   0.32088
   D82       -1.78805  -0.00000  -0.00001  -0.00001  -0.00002  -1.78807
   D83        2.48242   0.00000  -0.00002   0.00001  -0.00001   2.48241
   D84       -0.04989  -0.00000   0.00001  -0.00005  -0.00004  -0.04993
   D85       -3.11952   0.00000  -0.00006   0.00003  -0.00003  -3.11955
   D86        3.08947  -0.00000   0.00000  -0.00005  -0.00005   3.08942
   D87        0.01985   0.00000  -0.00007   0.00003  -0.00005   0.01980
   D88        0.20003  -0.00000   0.00001   0.00004   0.00005   0.20007
   D89       -1.93894   0.00000   0.00001   0.00007   0.00007  -1.93887
   D90        2.35410  -0.00000   0.00002   0.00004   0.00006   2.35416
   D91       -2.93928   0.00000   0.00001   0.00005   0.00006  -2.93921
   D92        1.20494   0.00000   0.00002   0.00007   0.00009   1.20503
   D93       -0.78520   0.00000   0.00002   0.00005   0.00007  -0.78512
   D94        0.02494   0.00000  -0.00007   0.00007  -0.00001   0.02493
   D95       -1.74958  -0.00001  -0.00010  -0.00001  -0.00011  -1.74969
   D96        1.90453  -0.00000  -0.00011   0.00002  -0.00009   1.90444
   D97        3.09907   0.00000  -0.00000  -0.00001  -0.00001   3.09906
   D98        1.32456  -0.00001  -0.00003  -0.00009  -0.00012   1.32444
   D99       -1.30452  -0.00000  -0.00003  -0.00006  -0.00009  -1.30461
   D100      -0.74825  -0.00000  -0.00000  -0.00004  -0.00005  -0.74830
   D101      -2.88829  -0.00000   0.00000  -0.00005  -0.00005  -2.88835
   D102       1.35527  -0.00000  -0.00000  -0.00005  -0.00005   1.35522
   D103       1.36204  -0.00000  -0.00001  -0.00005  -0.00006   1.36198
   D104      -0.77800  -0.00000  -0.00000  -0.00006  -0.00007  -0.77807
   D105      -2.81762  -0.00000  -0.00001  -0.00006  -0.00007  -2.81769
   D106      -2.85921   0.00000  -0.00000  -0.00004  -0.00005  -2.85926
   D107       1.28393  -0.00000   0.00000  -0.00006  -0.00005   1.28387
   D108      -0.75570   0.00000  -0.00000  -0.00005  -0.00005  -0.75575
   D109       1.10118  -0.00000   0.00000   0.00001   0.00001   1.10119
   D110      -1.00498  -0.00000   0.00000   0.00001   0.00001  -1.00497
   D111      -3.06204  -0.00000   0.00000   0.00000   0.00001  -3.06203
   D112      -3.05570  -0.00000   0.00000   0.00001   0.00001  -3.05569
   D113       1.12133  -0.00000   0.00000   0.00000   0.00001   1.12133
   D114      -0.93573  -0.00000   0.00000  -0.00000   0.00000  -0.93573
   D115      -1.00789   0.00000  -0.00000   0.00002   0.00002  -1.00787
   D116      -3.11405   0.00000  -0.00000   0.00002   0.00002  -3.11404
   D117       1.11207   0.00000  -0.00000   0.00002   0.00002   1.11209
   D118      -0.86855   0.00000   0.00001   0.00002   0.00002  -0.86852
   D119       1.23507  -0.00000   0.00001   0.00000   0.00001   1.23508
   D120      -3.01446   0.00000   0.00001   0.00001   0.00002  -3.01444
   D121       1.23667  -0.00000   0.00001   0.00002   0.00002   1.23670
   D122      -2.94289  -0.00000   0.00001   0.00000   0.00001  -2.94288
   D123      -0.90924   0.00000   0.00001   0.00001   0.00002  -0.90922
   D124      -3.00286   0.00000   0.00000   0.00002   0.00003  -3.00284
   D125      -0.89924  -0.00000   0.00001   0.00001   0.00001  -0.89923
   D126       1.13441   0.00000   0.00001   0.00001   0.00002   1.13443
   D127      -0.29614  -0.00000  -0.00000  -0.00005  -0.00005  -0.29619
   D128       1.74066   0.00000  -0.00001  -0.00005  -0.00005   1.74061
   D129      -2.43575  -0.00001   0.00001  -0.00009  -0.00008  -2.43583
   D130       1.46569  -0.00000   0.00004   0.00009   0.00012   1.46581
   D131      -1.57670  -0.00000   0.00006   0.00006   0.00012  -1.57658
   D132      -0.45733   0.00000   0.00003   0.00011   0.00014  -0.45718
   D133       2.78347   0.00000   0.00005   0.00009   0.00014   2.78361
   D134      -2.49221   0.00000   0.00002   0.00016   0.00018  -2.49203
   D135       0.74858   0.00000   0.00004   0.00014   0.00018   0.74876
   D136      -3.05550  -0.00000  -0.00004  -0.00009  -0.00013  -3.05563
   D137       0.08243  -0.00000  -0.00008  -0.00002  -0.00009   0.08234
   D138      -1.09683   0.00000  -0.00005  -0.00007  -0.00012  -1.09696
   D139       2.04110   0.00000  -0.00008  -0.00000  -0.00009   2.04101
   D140       0.95245  -0.00001  -0.00002  -0.00016  -0.00019   0.95226
   D141      -2.19281  -0.00000  -0.00006  -0.00009  -0.00015  -2.19296
   D142      -3.03686   0.00000   0.00001   0.00002   0.00002  -3.03684
   D143       0.09958   0.00000   0.00001   0.00001   0.00002   0.09961
   D144       0.00571   0.00000  -0.00001   0.00004   0.00003   0.00573
   D145      -3.14103   0.00000  -0.00001   0.00004   0.00003  -3.14100
   D146       3.03322  -0.00000  -0.00001  -0.00001  -0.00002   3.03320
   D147      -0.09108  -0.00000  -0.00000  -0.00001  -0.00001  -0.09109
   D148      -0.01163  -0.00000   0.00001  -0.00003  -0.00002  -0.01166
   D149      -3.13593  -0.00000   0.00002  -0.00003  -0.00001  -3.13595
   D150       0.00380  -0.00000   0.00001  -0.00002  -0.00001   0.00379
   D151       3.13714  -0.00000   0.00000  -0.00002  -0.00001   3.13713
   D152      -3.13272  -0.00000   0.00001  -0.00002  -0.00001  -3.13273
   D153       0.00061  -0.00000   0.00001  -0.00001  -0.00001   0.00060
   D154      -0.00746  -0.00000   0.00000  -0.00001  -0.00001  -0.00747
   D155       3.13393   0.00000  -0.00000   0.00000   0.00000   3.13393
   D156      -3.14073  -0.00000   0.00000  -0.00001  -0.00001  -3.14073
   D157       0.00067   0.00000  -0.00000   0.00000   0.00000   0.00067
   D158       0.00156   0.00000  -0.00000   0.00002   0.00001   0.00157
   D159       3.14083   0.00000  -0.00001   0.00002   0.00001   3.14084
   D160      -3.13984   0.00000  -0.00000   0.00000   0.00000  -3.13983
   D161      -0.00057   0.00000  -0.00000   0.00001   0.00000  -0.00056
   D162       0.00806   0.00000  -0.00000   0.00000   0.00000   0.00807
   D163       3.13234  -0.00000  -0.00001   0.00000  -0.00001   3.13233
   D164      -3.13122  -0.00000   0.00000   0.00000   0.00000  -3.13122
   D165      -0.00695  -0.00000  -0.00000  -0.00000  -0.00001  -0.00695
   D166       3.13035   0.00000  -0.00003   0.00005   0.00003   3.13038
   D167      -0.01606   0.00000  -0.00003   0.00006   0.00003  -0.01603
   D168      -0.00779  -0.00000   0.00001  -0.00001  -0.00001  -0.00779
   D169       3.12899   0.00000   0.00000  -0.00001  -0.00000   3.12899
   D170       3.14044  -0.00000   0.00003  -0.00005  -0.00003   3.14042
   D171       0.00237  -0.00000   0.00003  -0.00005  -0.00002   0.00235
   D172      -0.00486   0.00000  -0.00001   0.00002   0.00001  -0.00485
   D173       3.14026   0.00000  -0.00001   0.00002   0.00001   3.14027
   D174       0.01380  -0.00000  -0.00000  -0.00000  -0.00000   0.01379
   D175      -3.13540  -0.00000   0.00000  -0.00001  -0.00001  -3.13541
   D176      -3.12293  -0.00000   0.00000  -0.00001  -0.00001  -3.12294
   D177       0.01106  -0.00000   0.00001  -0.00002  -0.00001   0.01104
   D178      -0.00703   0.00000  -0.00000   0.00001   0.00001  -0.00702
   D179       3.13230   0.00000   0.00000   0.00000   0.00000   3.13230
   D180      -3.14098   0.00000  -0.00001   0.00002   0.00001  -3.14097
   D181      -0.00165   0.00000  -0.00000   0.00001   0.00001  -0.00165
   D182      -0.00553  -0.00000   0.00000  -0.00001  -0.00001  -0.00554
   D183       3.13953   0.00000   0.00000  -0.00000  -0.00000   3.13953
   D184       3.13832   0.00000  -0.00000   0.00000   0.00000   3.13832
   D185       0.00021   0.00000  -0.00000   0.00001   0.00000   0.00021
   D186       0.01155  -0.00000   0.00000  -0.00001  -0.00000   0.01154
   D187      -3.13348   0.00000   0.00000  -0.00001  -0.00001  -3.13349
   D188      -3.13349  -0.00000   0.00000  -0.00001  -0.00001  -3.13350
   D189       0.00467  -0.00000   0.00000  -0.00001  -0.00001   0.00466
   D190      -0.00987  -0.00000  -0.00000  -0.00003  -0.00003  -0.00990
   D191       3.13770  -0.00000   0.00000  -0.00003  -0.00003   3.13767
   D192      -3.13701  -0.00000  -0.00000  -0.00000  -0.00001  -3.13702
   D193       0.01056  -0.00000   0.00001  -0.00001  -0.00001   0.01055
         Item               Value     Threshold  Converged?
 Maximum Force            0.000023     0.000450     YES
 RMS     Force            0.000004     0.000300     YES
 Maximum Displacement     0.000916     0.001800     YES
 RMS     Displacement     0.000223     0.001200     YES
 Predicted change in Energy=-1.201490D-08
 Optimization completed.
    -- Stationary point found.
                           ----------------------------
                           !   Optimized Parameters   !
                           ! (Angstroms and Degrees)  !
 --------------------------                            --------------------------
 ! Name  Definition              Value          Derivative Info.                !
 --------------------------------------------------------------------------------
 ! R1    R(1,2)                  1.3944         -DE/DX =    0.0                 !
 ! R2    R(1,33)                 1.3958         -DE/DX =    0.0                 !
 ! R3    R(1,34)                 1.0866         -DE/DX =    0.0                 !
 ! R4    R(2,3)                  1.3959         -DE/DX =    0.0                 !
 ! R5    R(2,35)                 1.0863         -DE/DX =    0.0                 !
 ! R6    R(3,4)                  1.3989         -DE/DX =    0.0                 !
 ! R7    R(3,36)                 1.088          -DE/DX =    0.0                 !
 ! R8    R(4,5)                  1.511          -DE/DX =    0.0                 !
 ! R9    R(4,32)                 1.3993         -DE/DX =    0.0                 !
 ! R10   R(5,6)                  1.4649         -DE/DX =    0.0                 !
 ! R11   R(5,19)                 1.5871         -DE/DX =    0.0                 !
 ! R12   R(5,37)                 1.0945         -DE/DX =    0.0                 !
 ! R13   R(6,7)                  1.2821         -DE/DX =    0.0                 !
 ! R14   R(6,60)                 2.0391         -DE/DX =    0.0                 !
 ! R15   R(7,8)                  1.4662         -DE/DX =    0.0                 !
 ! R16   R(7,18)                 1.3365         -DE/DX =    0.0                 !
 ! R17   R(8,9)                  1.3892         -DE/DX =    0.0                 !
 ! R18   R(8,13)                 1.3454         -DE/DX =    0.0                 !
 ! R19   R(9,10)                 1.3938         -DE/DX =    0.0                 !
 ! R20   R(9,38)                 1.0838         -DE/DX =    0.0                 !
 ! R21   R(10,11)                1.3968         -DE/DX =    0.0                 !
 ! R22   R(10,39)                1.087          -DE/DX =    0.0                 !
 ! R23   R(11,12)                1.4098         -DE/DX =    0.0                 !
 ! R24   R(11,17)                1.5129         -DE/DX =    0.0                 !
 ! R25   R(12,13)                1.336          -DE/DX =    0.0                 !
 ! R26   R(12,14)                1.5079         -DE/DX =    0.0                 !
 ! R27   R(13,60)                2.0637         -DE/DX =    0.0                 !
 ! R28   R(14,15)                1.5324         -DE/DX =    0.0                 !
 ! R29   R(14,40)                1.099          -DE/DX =    0.0                 !
 ! R30   R(14,41)                1.0973         -DE/DX =    0.0                 !
 ! R31   R(15,16)                1.5324         -DE/DX =    0.0                 !
 ! R32   R(15,42)                1.0947         -DE/DX =    0.0                 !
 ! R33   R(15,43)                1.0984         -DE/DX =    0.0                 !
 ! R34   R(16,17)                1.5336         -DE/DX =    0.0                 !
 ! R35   R(16,44)                1.0985         -DE/DX =    0.0                 !
 ! R36   R(16,45)                1.0953         -DE/DX =    0.0                 !
 ! R37   R(17,46)                1.1            -DE/DX =    0.0                 !
 ! R38   R(17,47)                1.0968         -DE/DX =    0.0                 !
 ! R39   R(18,19)                1.4955         -DE/DX =    0.0                 !
 ! R40   R(19,20)                1.5217         -DE/DX =    0.0                 !
 ! R41   R(19,26)                1.5168         -DE/DX =    0.0                 !
 ! R42   R(20,21)                1.3979         -DE/DX =    0.0                 !
 ! R43   R(20,25)                1.3999         -DE/DX =    0.0                 !
 ! R44   R(21,22)                1.3949         -DE/DX =    0.0                 !
 ! R45   R(21,48)                1.0832         -DE/DX =    0.0                 !
 ! R46   R(22,23)                1.3936         -DE/DX =    0.0                 !
 ! R47   R(22,49)                1.086          -DE/DX =    0.0                 !
 ! R48   R(23,24)                1.3956         -DE/DX =    0.0                 !
 ! R49   R(23,50)                1.0862         -DE/DX =    0.0                 !
 ! R50   R(24,25)                1.392          -DE/DX =    0.0                 !
 ! R51   R(24,51)                1.0861         -DE/DX =    0.0                 !
 ! R52   R(25,52)                1.0843         -DE/DX =    0.0                 !
 ! R53   R(26,27)                1.4035         -DE/DX =    0.0                 !
 ! R54   R(26,31)                1.3963         -DE/DX =    0.0                 !
 ! R55   R(27,28)                1.3905         -DE/DX =    0.0                 !
 ! R56   R(27,53)                1.0854         -DE/DX =    0.0                 !
 ! R57   R(28,29)                1.3975         -DE/DX =    0.0                 !
 ! R58   R(28,54)                1.0862         -DE/DX =    0.0                 !
 ! R59   R(29,30)                1.3921         -DE/DX =    0.0                 !
 ! R60   R(29,55)                1.0861         -DE/DX =    0.0                 !
 ! R61   R(30,31)                1.3975         -DE/DX =    0.0                 !
 ! R62   R(30,56)                1.086          -DE/DX =    0.0                 !
 ! R63   R(31,57)                1.0832         -DE/DX =    0.0                 !
 ! R64   R(32,33)                1.3931         -DE/DX =    0.0                 !
 ! R65   R(32,58)                1.0867         -DE/DX =    0.0                 !
 ! R66   R(33,59)                1.0865         -DE/DX =    0.0                 !
 ! R67   R(60,61)                1.85           -DE/DX =    0.0                 !
 ! R68   R(60,62)                1.8109         -DE/DX =    0.0                 !
 ! A1    A(2,1,33)             119.6208         -DE/DX =    0.0                 !
 ! A2    A(2,1,34)             120.2687         -DE/DX =    0.0                 !
 ! A3    A(33,1,34)            120.1071         -DE/DX =    0.0                 !
 ! A4    A(1,2,3)              120.8187         -DE/DX =    0.0                 !
 ! A5    A(1,2,35)             120.1894         -DE/DX =    0.0                 !
 ! A6    A(3,2,35)             118.9915         -DE/DX =    0.0                 !
 ! A7    A(2,3,4)              119.5001         -DE/DX =    0.0                 !
 ! A8    A(2,3,36)             119.2322         -DE/DX =    0.0                 !
 ! A9    A(4,3,36)             121.2295         -DE/DX =    0.0                 !
 ! A10   A(3,4,5)              121.46           -DE/DX =    0.0                 !
 ! A11   A(3,4,32)             119.6413         -DE/DX =    0.0                 !
 ! A12   A(5,4,32)             118.8623         -DE/DX =    0.0                 !
 ! A13   A(4,5,6)              113.8864         -DE/DX =    0.0                 !
 ! A14   A(4,5,19)             115.2687         -DE/DX =    0.0                 !
 ! A15   A(4,5,37)             109.0096         -DE/DX =    0.0                 !
 ! A16   A(6,5,19)             102.3947         -DE/DX =    0.0                 !
 ! A17   A(6,5,37)             106.1889         -DE/DX =    0.0                 !
 ! A18   A(19,5,37)            109.5864         -DE/DX =    0.0                 !
 ! A19   A(5,6,7)              108.3659         -DE/DX =    0.0                 !
 ! A20   A(5,6,60)             139.4399         -DE/DX =    0.0                 !
 ! A21   A(7,6,60)             112.0613         -DE/DX =    0.0                 !
 ! A22   A(6,7,8)              121.0938         -DE/DX =    0.0                 !
 ! A23   A(6,7,18)             118.2229         -DE/DX =    0.0                 !
 ! A24   A(8,7,18)             120.6149         -DE/DX =    0.0                 !
 ! A25   A(7,8,9)              124.9563         -DE/DX =    0.0                 !
 ! A26   A(7,8,13)             112.6773         -DE/DX =    0.0                 !
 ! A27   A(9,8,13)             122.3319         -DE/DX =    0.0                 !
 ! A28   A(8,9,10)             117.359          -DE/DX =    0.0                 !
 ! A29   A(8,9,38)             120.3639         -DE/DX =    0.0                 !
 ! A30   A(10,9,38)            122.2768         -DE/DX =    0.0                 !
 ! A31   A(9,10,11)            120.7229         -DE/DX =    0.0                 !
 ! A32   A(9,10,39)            119.8817         -DE/DX =    0.0                 !
 ! A33   A(11,10,39)           119.3931         -DE/DX =    0.0                 !
 ! A34   A(10,11,12)           118.0073         -DE/DX =    0.0                 !
 ! A35   A(10,11,17)           121.453          -DE/DX =    0.0                 !
 ! A36   A(12,11,17)           120.5358         -DE/DX =    0.0                 !
 ! A37   A(11,12,13)           120.792          -DE/DX =    0.0                 !
 ! A38   A(11,12,14)           123.3492         -DE/DX =    0.0                 !
 ! A39   A(13,12,14)           115.8586         -DE/DX =    0.0                 !
 ! A40   A(8,13,12)            120.725          -DE/DX =    0.0                 !
 ! A41   A(8,13,60)            113.5113         -DE/DX =    0.0                 !
 ! A42   A(12,13,60)           125.6507         -DE/DX =    0.0                 !
 ! A43   A(12,14,15)           112.9184         -DE/DX =    0.0                 !
 ! A44   A(12,14,40)           107.7667         -DE/DX =    0.0                 !
 ! A45   A(12,14,41)           107.252          -DE/DX =    0.0                 !
 ! A46   A(15,14,40)           110.68           -DE/DX =    0.0                 !
 ! A47   A(15,14,41)           111.6523         -DE/DX =    0.0                 !
 ! A48   A(40,14,41)           106.2482         -DE/DX =    0.0                 !
 ! A49   A(14,15,16)           110.7748         -DE/DX =    0.0                 !
 ! A50   A(14,15,42)           109.5301         -DE/DX =    0.0                 !
 ! A51   A(14,15,43)           109.6695         -DE/DX =    0.0                 !
 ! A52   A(16,15,42)           110.8783         -DE/DX =    0.0                 !
 ! A53   A(16,15,43)           109.133          -DE/DX =    0.0                 !
 ! A54   A(42,15,43)           106.7664         -DE/DX =    0.0                 !
 ! A55   A(15,16,17)           110.2035         -DE/DX =    0.0                 !
 ! A56   A(15,16,44)           109.5297         -DE/DX =    0.0                 !
 ! A57   A(15,16,45)           110.9169         -DE/DX =    0.0                 !
 ! A58   A(17,16,44)           109.6194         -DE/DX =    0.0                 !
 ! A59   A(17,16,45)           109.5289         -DE/DX =    0.0                 !
 ! A60   A(44,16,45)           106.9817         -DE/DX =    0.0                 !
 ! A61   A(11,17,16)           112.5803         -DE/DX =    0.0                 !
 ! A62   A(11,17,46)           108.5335         -DE/DX =    0.0                 !
 ! A63   A(11,17,47)           109.3639         -DE/DX =    0.0                 !
 ! A64   A(16,17,46)           109.0669         -DE/DX =    0.0                 !
 ! A65   A(16,17,47)           110.9687         -DE/DX =    0.0                 !
 ! A66   A(46,17,47)           106.0909         -DE/DX =    0.0                 !
 ! A67   A(7,18,19)            105.7986         -DE/DX =    0.0                 !
 ! A68   A(5,19,18)            101.4353         -DE/DX =    0.0                 !
 ! A69   A(5,19,20)            111.107          -DE/DX =    0.0                 !
 ! A70   A(5,19,26)            116.8641         -DE/DX =    0.0                 !
 ! A71   A(18,19,20)           107.551          -DE/DX =    0.0                 !
 ! A72   A(18,19,26)           106.1646         -DE/DX =    0.0                 !
 ! A73   A(20,19,26)           112.5636         -DE/DX =    0.0                 !
 ! A74   A(19,20,21)           121.4976         -DE/DX =    0.0                 !
 ! A75   A(19,20,25)           119.2257         -DE/DX =    0.0                 !
 ! A76   A(21,20,25)           119.0367         -DE/DX =    0.0                 !
 ! A77   A(20,21,22)           120.3818         -DE/DX =    0.0                 !
 ! A78   A(20,21,48)           120.5374         -DE/DX =    0.0                 !
 ! A79   A(22,21,48)           119.0801         -DE/DX =    0.0                 !
 ! A80   A(21,22,23)           120.2951         -DE/DX =    0.0                 !
 ! A81   A(21,22,49)           119.4368         -DE/DX =    0.0                 !
 ! A82   A(23,22,49)           120.2664         -DE/DX =    0.0                 !
 ! A83   A(22,23,24)           119.5673         -DE/DX =    0.0                 !
 ! A84   A(22,23,50)           120.2174         -DE/DX =    0.0                 !
 ! A85   A(24,23,50)           120.2153         -DE/DX =    0.0                 !
 ! A86   A(23,24,25)           120.1741         -DE/DX =    0.0                 !
 ! A87   A(23,24,51)           120.2405         -DE/DX =    0.0                 !
 ! A88   A(25,24,51)           119.5853         -DE/DX =    0.0                 !
 ! A89   A(20,25,24)           120.5414         -DE/DX =    0.0                 !
 ! A90   A(20,25,52)           119.6594         -DE/DX =    0.0                 !
 ! A91   A(24,25,52)           119.7919         -DE/DX =    0.0                 !
 ! A92   A(19,26,27)           117.2328         -DE/DX =    0.0                 !
 ! A93   A(19,26,31)           124.0901         -DE/DX =    0.0                 !
 ! A94   A(27,26,31)           118.6767         -DE/DX =    0.0                 !
 ! A95   A(26,27,28)           120.827          -DE/DX =    0.0                 !
 ! A96   A(26,27,53)           119.0688         -DE/DX =    0.0                 !
 ! A97   A(28,27,53)           120.1036         -DE/DX =    0.0                 !
 ! A98   A(27,28,29)           120.0726         -DE/DX =    0.0                 !
 ! A99   A(27,28,54)           119.7522         -DE/DX =    0.0                 !
 ! A100  A(29,28,54)           120.1738         -DE/DX =    0.0                 !
 ! A101  A(28,29,30)           119.5499         -DE/DX =    0.0                 !
 ! A102  A(28,29,55)           120.2201         -DE/DX =    0.0                 !
 ! A103  A(30,29,55)           120.2298         -DE/DX =    0.0                 !
 ! A104  A(29,30,31)           120.2926         -DE/DX =    0.0                 !
 ! A105  A(29,30,56)           120.2776         -DE/DX =    0.0                 !
 ! A106  A(31,30,56)           119.4295         -DE/DX =    0.0                 !
 ! A107  A(26,31,30)           120.5751         -DE/DX =    0.0                 !
 ! A108  A(26,31,57)           120.9811         -DE/DX =    0.0                 !
 ! A109  A(30,31,57)           118.4435         -DE/DX =    0.0                 !
 ! A110  A(4,32,33)            120.5572         -DE/DX =    0.0                 !
 ! A111  A(4,32,58)            119.9566         -DE/DX =    0.0                 !
 ! A112  A(33,32,58)           119.4811         -DE/DX =    0.0                 !
 ! A113  A(1,33,32)            119.85           -DE/DX =    0.0                 !
 ! A114  A(1,33,59)            120.3312         -DE/DX =    0.0                 !
 ! A115  A(32,33,59)           119.8179         -DE/DX =    0.0                 !
 ! A116  A(6,60,13)             80.5257         -DE/DX =    0.0                 !
 ! A117  A(6,60,61)            102.3202         -DE/DX =    0.0                 !
 ! A118  A(6,60,62)            109.7588         -DE/DX =    0.0                 !
 ! A119  A(13,60,61)            95.0904         -DE/DX =    0.0                 !
 ! A120  A(13,60,62)           110.084          -DE/DX =    0.0                 !
 ! A121  A(61,60,62)           141.704          -DE/DX =    0.0                 !
 ! D1    D(33,1,2,3)             0.9288         -DE/DX =    0.0                 !
 ! D2    D(33,1,2,35)         -178.8317         -DE/DX =    0.0                 !
 ! D3    D(34,1,2,3)          -179.7449         -DE/DX =    0.0                 !
 ! D4    D(34,1,2,35)            0.4946         -DE/DX =    0.0                 !
 ! D5    D(2,1,33,32)           -0.4559         -DE/DX =    0.0                 !
 ! D6    D(2,1,33,59)          179.1996         -DE/DX =    0.0                 !
 ! D7    D(34,1,33,32)        -179.7833         -DE/DX =    0.0                 !
 ! D8    D(34,1,33,59)          -0.1277         -DE/DX =    0.0                 !
 ! D9    D(1,2,3,4)             -0.3739         -DE/DX =    0.0                 !
 ! D10   D(1,2,3,36)          -178.1556         -DE/DX =    0.0                 !
 ! D11   D(35,2,3,4)           179.3895         -DE/DX =    0.0                 !
 ! D12   D(35,2,3,36)            1.6078         -DE/DX =    0.0                 !
 ! D13   D(2,3,4,5)            177.1329         -DE/DX =    0.0                 !
 ! D14   D(2,3,4,32)            -0.6467         -DE/DX =    0.0                 !
 ! D15   D(36,3,4,5)            -5.1309         -DE/DX =    0.0                 !
 ! D16   D(36,3,4,32)          177.0895         -DE/DX =    0.0                 !
 ! D17   D(3,4,5,6)             20.9125         -DE/DX =    0.0                 !
 ! D18   D(3,4,5,19)           -97.0329         -DE/DX =    0.0                 !
 ! D19   D(3,4,5,37)           139.277          -DE/DX =    0.0                 !
 ! D20   D(32,4,5,6)          -161.291          -DE/DX =    0.0                 !
 ! D21   D(32,4,5,19)           80.7636         -DE/DX =    0.0                 !
 ! D22   D(32,4,5,37)          -42.9266         -DE/DX =    0.0                 !
 ! D23   D(3,4,32,33)            1.1194         -DE/DX =    0.0                 !
 ! D24   D(3,4,32,58)         -179.7125         -DE/DX =    0.0                 !
 ! D25   D(5,4,32,33)         -176.718          -DE/DX =    0.0                 !
 ! D26   D(5,4,32,58)            2.4501         -DE/DX =    0.0                 !
 ! D27   D(4,5,6,7)           -139.4932         -DE/DX =    0.0                 !
 ! D28   D(4,5,6,60)            35.7239         -DE/DX =    0.0                 !
 ! D29   D(19,5,6,7)           -14.3715         -DE/DX =    0.0                 !
 ! D30   D(19,5,6,60)          160.8456         -DE/DX =    0.0                 !
 ! D31   D(37,5,6,7)           100.539          -DE/DX =    0.0                 !
 ! D32   D(37,5,6,60)          -84.2439         -DE/DX =    0.0                 !
 ! D33   D(4,5,19,18)          142.7702         -DE/DX =    0.0                 !
 ! D34   D(4,5,19,20)           28.6992         -DE/DX =    0.0                 !
 ! D35   D(4,5,19,26)         -102.341          -DE/DX =    0.0                 !
 ! D36   D(6,5,19,18)           18.5628         -DE/DX =    0.0                 !
 ! D37   D(6,5,19,20)          -95.5082         -DE/DX =    0.0                 !
 ! D38   D(6,5,19,26)          133.4516         -DE/DX =    0.0                 !
 ! D39   D(37,5,19,18)         -93.8444         -DE/DX =    0.0                 !
 ! D40   D(37,5,19,20)         152.0846         -DE/DX =    0.0                 !
 ! D41   D(37,5,19,26)          21.0444         -DE/DX =    0.0                 !
 ! D42   D(5,6,7,8)           -179.1613         -DE/DX =    0.0                 !
 ! D43   D(5,6,7,18)             3.8288         -DE/DX =    0.0                 !
 ! D44   D(60,6,7,8)             4.1925         -DE/DX =    0.0                 !
 ! D45   D(60,6,7,18)         -172.8174         -DE/DX =    0.0                 !
 ! D46   D(5,6,60,13)         -178.0752         -DE/DX =    0.0                 !
 ! D47   D(5,6,60,61)          -84.8863         -DE/DX =    0.0                 !
 ! D48   D(5,6,60,62)           73.8668         -DE/DX =    0.0                 !
 ! D49   D(7,6,60,13)           -2.9733         -DE/DX =    0.0                 !
 ! D50   D(7,6,60,61)           90.2155         -DE/DX =    0.0                 !
 ! D51   D(7,6,60,62)         -111.0314         -DE/DX =    0.0                 !
 ! D52   D(6,7,8,9)            179.0696         -DE/DX =    0.0                 !
 ! D53   D(6,7,8,13)            -3.0318         -DE/DX =    0.0                 !
 ! D54   D(18,7,8,9)            -3.9918         -DE/DX =    0.0                 !
 ! D55   D(18,7,8,13)          173.9069         -DE/DX =    0.0                 !
 ! D56   D(6,7,18,19)            9.5151         -DE/DX =    0.0                 !
 ! D57   D(8,7,18,19)         -167.5097         -DE/DX =    0.0                 !
 ! D58   D(7,8,9,10)           178.1466         -DE/DX =    0.0                 !
 ! D59   D(7,8,9,38)            -2.0595         -DE/DX =    0.0                 !
 ! D60   D(13,8,9,10)            0.4414         -DE/DX =    0.0                 !
 ! D61   D(13,8,9,38)         -179.7648         -DE/DX =    0.0                 !
 ! D62   D(7,8,13,12)         -176.1567         -DE/DX =    0.0                 !
 ! D63   D(7,8,13,60)            0.1899         -DE/DX =    0.0                 !
 ! D64   D(9,8,13,12)            1.805          -DE/DX =    0.0                 !
 ! D65   D(9,8,13,60)          178.1517         -DE/DX =    0.0                 !
 ! D66   D(8,9,10,11)           -1.5978         -DE/DX =    0.0                 !
 ! D67   D(8,9,10,39)          178.9618         -DE/DX =    0.0                 !
 ! D68   D(38,9,10,11)         178.6125         -DE/DX =    0.0                 !
 ! D69   D(38,9,10,39)          -0.8278         -DE/DX =    0.0                 !
 ! D70   D(9,10,11,12)           0.5976         -DE/DX =    0.0                 !
 ! D71   D(9,10,11,17)        -178.6973         -DE/DX =    0.0                 !
 ! D72   D(39,10,11,12)       -179.9593         -DE/DX =    0.0                 !
 ! D73   D(39,10,11,17)          0.7458         -DE/DX =    0.0                 !
 ! D74   D(10,11,12,13)          1.6546         -DE/DX =    0.0                 !
 ! D75   D(10,11,12,14)       -178.2078         -DE/DX =    0.0                 !
 ! D76   D(17,11,12,13)       -179.0436         -DE/DX =    0.0                 !
 ! D77   D(17,11,12,14)          1.0939         -DE/DX =    0.0                 !
 ! D78   D(10,11,17,16)       -162.3361         -DE/DX =    0.0                 !
 ! D79   D(10,11,17,46)         76.8294         -DE/DX =    0.0                 !
 ! D80   D(10,11,17,47)        -38.4904         -DE/DX =    0.0                 !
 ! D81   D(12,11,17,16)         18.3866         -DE/DX =    0.0                 !
 ! D82   D(12,11,17,46)       -102.4479         -DE/DX =    0.0                 !
 ! D83   D(12,11,17,47)        142.2322         -DE/DX =    0.0                 !
 ! D84   D(11,12,13,8)          -2.8587         -DE/DX =    0.0                 !
 ! D85   D(11,12,13,60)       -178.7352         -DE/DX =    0.0                 !
 ! D86   D(14,12,13,8)         177.0137         -DE/DX =    0.0                 !
 ! D87   D(14,12,13,60)          1.1371         -DE/DX =    0.0                 !
 ! D88   D(11,12,14,15)         11.4606         -DE/DX =    0.0                 !
 ! D89   D(11,12,14,40)       -111.0932         -DE/DX =    0.0                 !
 ! D90   D(11,12,14,41)        134.8802         -DE/DX =    0.0                 !
 ! D91   D(13,12,14,15)       -168.4081         -DE/DX =    0.0                 !
 ! D92   D(13,12,14,40)         69.0381         -DE/DX =    0.0                 !
 ! D93   D(13,12,14,41)        -44.9885         -DE/DX =    0.0                 !
 ! D94   D(8,13,60,6)            1.4291         -DE/DX =    0.0                 !
 ! D95   D(8,13,60,61)        -100.2434         -DE/DX =    0.0                 !
 ! D96   D(8,13,60,62)         109.1216         -DE/DX =    0.0                 !
 ! D97   D(12,13,60,6)         177.5639         -DE/DX =    0.0                 !
 ! D98   D(12,13,60,61)         75.8914         -DE/DX =    0.0                 !
 ! D99   D(12,13,60,62)        -74.7435         -DE/DX =    0.0                 !
 ! D100  D(12,14,15,16)        -42.8715         -DE/DX =    0.0                 !
 ! D101  D(12,14,15,42)       -165.487          -DE/DX =    0.0                 !
 ! D102  D(12,14,15,43)         77.6512         -DE/DX =    0.0                 !
 ! D103  D(40,14,15,16)         78.0394         -DE/DX =    0.0                 !
 ! D104  D(40,14,15,42)        -44.5761         -DE/DX =    0.0                 !
 ! D105  D(40,14,15,43)       -161.4379         -DE/DX =    0.0                 !
 ! D106  D(41,14,15,16)       -163.8209         -DE/DX =    0.0                 !
 ! D107  D(41,14,15,42)         73.5636         -DE/DX =    0.0                 !
 ! D108  D(41,14,15,43)        -43.2982         -DE/DX =    0.0                 !
 ! D109  D(14,15,16,17)         63.0931         -DE/DX =    0.0                 !
 ! D110  D(14,15,16,44)        -57.581          -DE/DX =    0.0                 !
 ! D111  D(14,15,16,45)       -175.4419         -DE/DX =    0.0                 !
 ! D112  D(42,15,16,17)       -175.0786         -DE/DX =    0.0                 !
 ! D113  D(42,15,16,44)         64.2473         -DE/DX =    0.0                 !
 ! D114  D(42,15,16,45)        -53.6136         -DE/DX =    0.0                 !
 ! D115  D(43,15,16,17)        -57.7481         -DE/DX =    0.0                 !
 ! D116  D(43,15,16,44)       -178.4222         -DE/DX =    0.0                 !
 ! D117  D(43,15,16,45)         63.7169         -DE/DX =    0.0                 !
 ! D118  D(15,16,17,11)        -49.764          -DE/DX =    0.0                 !
 ! D119  D(15,16,17,46)         70.7644         -DE/DX =    0.0                 !
 ! D120  D(15,16,17,47)       -172.7158         -DE/DX =    0.0                 !
 ! D121  D(44,16,17,11)         70.8563         -DE/DX =    0.0                 !
 ! D122  D(44,16,17,46)       -168.6153         -DE/DX =    0.0                 !
 ! D123  D(44,16,17,47)        -52.0955         -DE/DX =    0.0                 !
 ! D124  D(45,16,17,11)       -172.0513         -DE/DX =    0.0                 !
 ! D125  D(45,16,17,46)        -51.5229         -DE/DX =    0.0                 !
 ! D126  D(45,16,17,47)         64.997          -DE/DX =    0.0                 !
 ! D127  D(7,18,19,5)          -16.9675         -DE/DX =    0.0                 !
 ! D128  D(7,18,19,20)          99.7324         -DE/DX =    0.0                 !
 ! D129  D(7,18,19,26)        -139.5583         -DE/DX =    0.0                 !
 ! D130  D(5,19,20,21)          83.9778         -DE/DX =    0.0                 !
 ! D131  D(5,19,20,25)         -90.3381         -DE/DX =    0.0                 !
 ! D132  D(18,19,20,21)        -26.2028         -DE/DX =    0.0                 !
 ! D133  D(18,19,20,25)        159.4812         -DE/DX =    0.0                 !
 ! D134  D(26,19,20,21)       -142.7934         -DE/DX =    0.0                 !
 ! D135  D(26,19,20,25)         42.8907         -DE/DX =    0.0                 !
 ! D136  D(5,19,26,27)        -175.0672         -DE/DX =    0.0                 !
 ! D137  D(5,19,26,31)           4.723          -DE/DX =    0.0                 !
 ! D138  D(18,19,26,27)        -62.8439         -DE/DX =    0.0                 !
 ! D139  D(18,19,26,31)        116.9463         -DE/DX =    0.0                 !
 ! D140  D(20,19,26,27)         54.5711         -DE/DX =    0.0                 !
 ! D141  D(20,19,26,31)       -125.6387         -DE/DX =    0.0                 !
 ! D142  D(19,20,21,22)       -173.9995         -DE/DX =    0.0                 !
 ! D143  D(19,20,21,48)          5.7058         -DE/DX =    0.0                 !
 ! D144  D(25,20,21,22)          0.3269         -DE/DX =    0.0                 !
 ! D145  D(25,20,21,48)       -179.9678         -DE/DX =    0.0                 !
 ! D146  D(19,20,25,24)        173.7907         -DE/DX =    0.0                 !
 ! D147  D(19,20,25,52)         -5.2184         -DE/DX =    0.0                 !
 ! D148  D(21,20,25,24)         -0.6664         -DE/DX =    0.0                 !
 ! D149  D(21,20,25,52)       -179.6756         -DE/DX =    0.0                 !
 ! D150  D(20,21,22,23)          0.218          -DE/DX =    0.0                 !
 ! D151  D(20,21,22,49)        179.7447         -DE/DX =    0.0                 !
 ! D152  D(48,21,22,23)       -179.4916         -DE/DX =    0.0                 !
 ! D153  D(48,21,22,49)          0.0351         -DE/DX =    0.0                 !
 ! D154  D(21,22,23,24)         -0.4276         -DE/DX =    0.0                 !
 ! D155  D(21,22,23,50)        179.561          -DE/DX =    0.0                 !
 ! D156  D(49,22,23,24)       -179.9504         -DE/DX =    0.0                 !
 ! D157  D(49,22,23,50)          0.0382         -DE/DX =    0.0                 !
 ! D158  D(22,23,24,25)          0.0892         -DE/DX =    0.0                 !
 ! D159  D(22,23,24,51)        179.9562         -DE/DX =    0.0                 !
 ! D160  D(50,23,24,25)       -179.8994         -DE/DX =    0.0                 !
 ! D161  D(50,23,24,51)         -0.0324         -DE/DX =    0.0                 !
 ! D162  D(23,24,25,20)          0.4619         -DE/DX =    0.0                 !
 ! D163  D(23,24,25,52)        179.4697         -DE/DX =    0.0                 !
 ! D164  D(51,24,25,20)       -179.4059         -DE/DX =    0.0                 !
 ! D165  D(51,24,25,52)         -0.3981         -DE/DX =    0.0                 !
 ! D166  D(19,26,27,28)        179.3558         -DE/DX =    0.0                 !
 ! D167  D(19,26,27,53)         -0.9202         -DE/DX =    0.0                 !
 ! D168  D(31,26,27,28)         -0.4461         -DE/DX =    0.0                 !
 ! D169  D(31,26,27,53)        179.2778         -DE/DX =    0.0                 !
 ! D170  D(19,26,31,30)        179.9341         -DE/DX =    0.0                 !
 ! D171  D(19,26,31,57)          0.136          -DE/DX =    0.0                 !
 ! D172  D(27,26,31,30)         -0.2785         -DE/DX =    0.0                 !
 ! D173  D(27,26,31,57)        179.9234         -DE/DX =    0.0                 !
 ! D174  D(26,27,28,29)          0.7904         -DE/DX =    0.0                 !
 ! D175  D(26,27,28,54)       -179.6455         -DE/DX =    0.0                 !
 ! D176  D(53,27,28,29)       -178.9307         -DE/DX =    0.0                 !
 ! D177  D(53,27,28,54)          0.6334         -DE/DX =    0.0                 !
 ! D178  D(27,28,29,30)         -0.4028         -DE/DX =    0.0                 !
 ! D179  D(27,28,29,55)        179.4675         -DE/DX =    0.0                 !
 ! D180  D(54,28,29,30)       -179.965          -DE/DX =    0.0                 !
 ! D181  D(54,28,29,55)         -0.0947         -DE/DX =    0.0                 !
 ! D182  D(28,29,30,31)         -0.3171         -DE/DX =    0.0                 !
 ! D183  D(28,29,30,56)        179.8821         -DE/DX =    0.0                 !
 ! D184  D(55,29,30,31)        179.8127         -DE/DX =    0.0                 !
 ! D185  D(55,29,30,56)          0.0118         -DE/DX =    0.0                 !
 ! D186  D(29,30,31,26)          0.6616         -DE/DX =    0.0                 !
 ! D187  D(29,30,31,57)       -179.5352         -DE/DX =    0.0                 !
 ! D188  D(56,30,31,26)       -179.5359         -DE/DX =    0.0                 !
 ! D189  D(56,30,31,57)          0.2673         -DE/DX =    0.0                 !
 ! D190  D(4,32,33,1)           -0.5656         -DE/DX =    0.0                 !
 ! D191  D(4,32,33,59)         179.777          -DE/DX =    0.0                 !
 ! D192  D(58,32,33,1)        -179.7376         -DE/DX =    0.0                 !
 ! D193  D(58,32,33,59)          0.605          -DE/DX =    0.0                 !
 --------------------------------------------------------------------------------
 GradGradGradGradGradGradGradGradGradGradGradGradGradGradGradGradGradGrad

 Stoichiometry    C30H26F2N2NiO(3)
 Framework group  C1[X(C30H26F2N2NiO)]
 Deg. of freedom   180
 Full point group                 C1      NOp   1
 Largest Abelian subgroup         C1      NOp   1
 Largest concise Abelian subgroup C1      NOp   1
                         Standard orientation:                         
 ---------------------------------------------------------------------
 Center     Atomic      Atomic             Coordinates (Angstroms)
 Number     Number       Type             X           Y           Z
 ---------------------------------------------------------------------
      1          6           0        3.101254    4.121724   -0.169662
      2          6           0        1.833633    3.819306    0.326421
      3          6           0        1.235294    2.587290    0.056702
      4          6           0        1.914217    1.648763   -0.727686
      5          6           0        1.336583    0.278243   -0.994230
      6          7           0       -0.113404    0.198023   -0.801952
      7          6           0       -0.383280   -0.913781   -0.223204
      8          6           0       -1.766001   -1.289529    0.087687
      9          6           0       -2.150443   -2.478583    0.694474
     10          6           0       -3.508587   -2.656136    0.952521
     11          6           0       -4.431256   -1.655282    0.639429
     12          6           0       -3.947943   -0.471651    0.045383
     13          7           0       -2.650288   -0.329517   -0.238694
     14          6           0       -4.830170    0.699707   -0.305675
     15          6           0       -6.235441    0.589704    0.295577
     16          6           0       -6.778826   -0.835661    0.150074
     17          6           0       -5.905151   -1.818637    0.938933
     18          8           0        0.634431   -1.697591    0.145837
     19          6           0        1.870339   -0.877880   -0.046880
     20          6           0        2.273691   -0.328942    1.313821
     21          6           0        1.333789   -0.131489    2.329524
     22          6           0        1.704494    0.488023    3.523072
     23          6           0        3.015583    0.920607    3.712939
     24          6           0        3.959170    0.722085    2.704043
     25          6           0        3.591735    0.097621    1.515420
     26          6           0        2.911890   -1.814617   -0.628594
     27          6           0        3.311205   -2.902339    0.163323
     28          6           0        4.251457   -3.815152   -0.301715
     29          6           0        4.824493   -3.647909   -1.565277
     30          6           0        4.441087   -2.567864   -2.355533
     31          6           0        3.484873   -1.659910   -1.892531
     32          6           0        3.177146    1.961337   -1.242823
     33          6           0        3.772669    3.188995   -0.961795
     34          1           0        3.560327    5.081911    0.049243
     35          1           0        1.294864    4.545804    0.928040
     36          1           0        0.233074    2.390027    0.431279
     37          1           0        1.521071    0.010715   -2.039333
     38          1           0       -1.410391   -3.228955    0.947162
     39          1           0       -3.856747   -3.578339    1.410580
     40          1           0       -4.880915    0.764735   -1.401588
     41          1           0       -4.315176    1.607758    0.032239
     42          1           0       -6.899120    1.311777   -0.190746
     43          1           0       -6.203708    0.855921    1.360804
     44          1           0       -6.786851   -1.119057   -0.911231
     45          1           0       -7.812938   -0.898137    0.505705
     46          1           0       -6.063340   -1.656050    2.015314
     47          1           0       -6.203763   -2.855267    0.740964
     48          1           0        0.307399   -0.452527    2.199632
     49          1           0        0.960822    0.637422    4.300291
     50          1           0        3.301158    1.409240    4.639989
     51          1           0        4.983792    1.055484    2.840122
     52          1           0        4.327784   -0.045722    0.732287
     53          1           0        2.878666   -3.022057    1.151569
     54          1           0        4.543581   -4.653895    0.323549
     55          1           0        5.565517   -4.354643   -1.927375
     56          1           0        4.880200   -2.425474   -3.338541
     57          1           0        3.203176   -0.834744   -2.535224
     58          1           0        3.707071    1.237894   -1.856639
     59          1           0        4.755299    3.417739   -1.365099
     60         28           0       -1.777568    1.345229   -1.070820
     61          9           0       -1.823662    2.344710    0.485308
     62          9           0       -2.175625    1.442506   -2.834711
 ---------------------------------------------------------------------
 Rotational constants (GHZ):           0.1628290           0.0755254           0.0661590

 **********************************************************************

            Population analysis using the SCF Density.

 **********************************************************************

 Orbital symmetries:
 Alpha Orbitals:
       Occupied  (A) (A) (A) (A) (A) (A) (A) (A) (A) (A) (A) (A)
                 (A) (A) (A) (A) (A) (A) (A) (A) (A) (A) (A) (A)
                 (A) (A) (A) (A) (A) (A) (A) (A) (A) (A) (A) (A)
                 (A) (A) (A) (A) (A) (A) (A) (A) (A) (A) (A) (A)
                 (A) (A) (A) (A) (A) (A) (A) (A) (A) (A) (A) (A)
                 (A) (A) (A) (A) (A) (A) (A) (A) (A) (A) (A) (A)
                 (A) (A) (A) (A) (A) (A) (A) (A) (A) (A) (A) (A)
                 (A) (A) (A) (A) (A) (A) (A) (A) (A) (A) (A) (A)
                 (A) (A) (A) (A) (A) (A) (A) (A) (A) (A) (A) (A)
                 (A) (A) (A) (A) (A) (A) (A) (A) (A) (A) (A) (A)
                 (A) (A) (A) (A) (A) (A) (A) (A) (A) (A) (A) (A)
                 (A)
       Virtual   (A) (A) (A) (A) (A) (A) (A) (A) (A) (A) (A) (A)
                 (A) (A) (A) (A) (A) (A) (A) (A) (A) (A) (A) (A)
                 (A) (A) (A) (A) (A) (A) (A) (A) (A) (A) (A) (A)
                 (A) (A) (A) (A) (A) (A) (A) (A) (A) (A) (A) (A)
                 (A) (A) (A) (A) (A) (A) (A) (A) (A) (A) (A) (A)
                 (A) (A) (A) (A) (A) (A) (A) (A) (A) (A) (A) (A)
                 (A) (A) (A) (A) (A) (A) (A) (A) (A) (A) (A) (A)
                 (A) (A) (A) (A) (A) (A) (A) (A) (A) (A) (A) (A)
                 (A) (A) (A) (A) (A) (A) (A) (A) (A) (A) (A) (A)
                 (A) (A) (A) (A) (A) (A) (A) (A) (A) (A) (A) (A)
                 (A) (A) (A) (A) (A) (A) (A) (A) (A) (A) (A) (A)
                 (A) (A) (A) (A) (A) (A) (A) (A) (A) (A) (A) (A)
                 (A) (A) (A) (A) (A) (A) (A) (A) (A) (A) (A) (A)
                 (A) (A) (A) (A) (A) (A) (A) (A) (A) (A) (A) (A)
                 (A) (A) (A) (A) (A) (A) (A) (A) (A) (A) (A) (A)
                 (A) (A) (A) (A) (A) (A) (A) (A) (A) (A) (A) (A)
                 (A) (A) (A) (A) (A) (A) (A) (A) (A) (A) (A) (A)
                 (A) (A) (A) (A) (A) (A) (A) (A) (A) (A) (A) (A)
                 (A) (A) (A) (A) (A) (A) (A) (A) (A) (A) (A) (A)
                 (A) (A) (A) (A) (A) (A) (A) (A) (A) (A) (A) (A)
                 (A) (A) (A) (A) (A) (A) (A) (A) (A) (A) (A) (A)
                 (A) (A) (A) (A) (A) (A) (A) (A) (A) (A) (A) (A)
                 (A) (A) (A) (A) (A) (A) (A) (A) (A) (A) (A) (A)
                 (A) (A) (A) (A) (A) (A) (A) (A) (A) (A) (A) (A)
                 (A) (A) (A) (A) (A) (A) (A) (A) (A) (A) (A) (A)
                 (A) (A) (A) (A) (A) (A) (A) (A) (A) (A) (A) (A)
                 (A) (A) (A) (A) (A) (A) (A) (A) (A) (A) (A) (A)
                 (A) (A) (A) (A) (A) (A) (A) (A) (A) (A) (A) (A)
                 (A) (A) (A) (A) (A) (A) (A) (A) (A) (A) (A) (A)
                 (A) (A) (A) (A) (A) (A) (A) (A) (A) (A) (A) (A)
                 (A) (A) (A) (A) (A) (A) (A) (A) (A) (A) (A) (A)
                 (A) (A) (A) (A) (A) (A) (A) (A) (A) (A) (A) (A)
                 (A) (A) (A) (A) (A) (A) (A) (A) (A) (A) (A) (A)
                 (A) (A) (A) (A) (A) (A) (A) (A) (A) (A) (A) (A)
                 (A) (A) (A) (A) (A) (A) (A) (A) (A) (A) (A) (A)
                 (A) (A) (A) (A) (A) (A) (A) (A) (A) (A) (A) (A)
                 (A) (A) (A) (A) (A) (A) (A) (A) (A) (A) (A) (A)
                 (A) (A) (A) (A) (A) (A) (A) (A) (A) (A) (A) (A)
                 (A) (A) (A) (A) (A) (A) (A) (A) (A) (A) (A) (A)
                 (A) (A) (A) (A) (A) (A) (A) (A) (A) (A) (A) (A)
                 (A) (A) (A) (A) (A) (A) (A) (A) (A) (A) (A) (A)
                 (A) (A) (A) (A) (A) (A) (A) (A) (A) (A) (A) (A)
                 (A) (A) (A) (A) (A) (A) (A) (A) (A) (A) (A) (A)
                 (A) (A)
 Beta  Orbitals:
       Occupied  (A) (A) (A) (A) (A) (A) (A) (A) (A) (A) (A) (A)
                 (A) (A) (A) (A) (A) (A) (A) (A) (A) (A) (A) (A)
                 (A) (A) (A) (A) (A) (A) (A) (A) (A) (A) (A) (A)
                 (A) (A) (A) (A) (A) (A) (A) (A) (A) (A) (A) (A)
                 (A) (A) (A) (A) (A) (A) (A) (A) (A) (A) (A) (A)
                 (A) (A) (A) (A) (A) (A) (A) (A) (A) (A) (A) (A)
                 (A) (A) (A) (A) (A) (A) (A) (A) (A) (A) (A) (A)
                 (A) (A) (A) (A) (A) (A) (A) (A) (A) (A) (A) (A)
                 (A) (A) (A) (A) (A) (A) (A) (A) (A) (A) (A) (A)
                 (A) (A) (A) (A) (A) (A) (A) (A) (A) (A) (A) (A)
                 (A) (A) (A) (A) (A) (A) (A) (A) (A) (A) (A)
       Virtual   (A) (A) (A) (A) (A) (A) (A) (A) (A) (A) (A) (A)
                 (A) (A) (A) (A) (A) (A) (A) (A) (A) (A) (A) (A)
                 (A) (A) (A) (A) (A) (A) (A) (A) (A) (A) (A) (A)
                 (A) (A) (A) (A) (A) (A) (A) (A) (A) (A) (A) (A)
                 (A) (A) (A) (A) (A) (A) (A) (A) (A) (A) (A) (A)
                 (A) (A) (A) (A) (A) (A) (A) (A) (A) (A) (A) (A)
                 (A) (A) (A) (A) (A) (A) (A) (A) (A) (A) (A) (A)
                 (A) (A) (A) (A) (A) (A) (A) (A) (A) (A) (A) (A)
                 (A) (A) (A) (A) (A) (A) (A) (A) (A) (A) (A) (A)
                 (A) (A) (A) (A) (A) (A) (A) (A) (A) (A) (A) (A)
                 (A) (A) (A) (A) (A) (A) (A) (A) (A) (A) (A) (A)
                 (A) (A) (A) (A) (A) (A) (A) (A) (A) (A) (A) (A)
                 (A) (A) (A) (A) (A) (A) (A) (A) (A) (A) (A) (A)
                 (A) (A) (A) (A) (A) (A) (A) (A) (A) (A) (A) (A)
                 (A) (A) (A) (A) (A) (A) (A) (A) (A) (A) (A) (A)
                 (A) (A) (A) (A) (A) (A) (A) (A) (A) (A) (A) (A)
                 (A) (A) (A) (A) (A) (A) (A) (A) (A) (A) (A) (A)
                 (A) (A) (A) (A) (A) (A) (A) (A) (A) (A) (A) (A)
                 (A) (A) (A) (A) (A) (A) (A) (A) (A) (A) (A) (A)
                 (A) (A) (A) (A) (A) (A) (A) (A) (A) (A) (A) (A)
                 (A) (A) (A) (A) (A) (A) (A) (A) (A) (A) (A) (A)
                 (A) (A) (A) (A) (A) (A) (A) (A) (A) (A) (A) (A)
                 (A) (A) (A) (A) (A) (A) (A) (A) (A) (A) (A) (A)
                 (A) (A) (A) (A) (A) (A) (A) (A) (A) (A) (A) (A)
                 (A) (A) (A) (A) (A) (A) (A) (A) (A) (A) (A) (A)
                 (A) (A) (A) (A) (A) (A) (A) (A) (A) (A) (A) (A)
                 (A) (A) (A) (A) (A) (A) (A) (A) (A) (A) (A) (A)
                 (A) (A) (A) (A) (A) (A) (A) (A) (A) (A) (A) (A)
                 (A) (A) (A) (A) (A) (A) (A) (A) (A) (A) (A) (A)
                 (A) (A) (A) (A) (A) (A) (A) (A) (A) (A) (A) (A)
                 (A) (A) (A) (A) (A) (A) (A) (A) (A) (A) (A) (A)
                 (A) (A) (A) (A) (A) (A) (A) (A) (A) (A) (A) (A)
                 (A) (A) (A) (A) (A) (A) (A) (A) (A) (A) (A) (A)
                 (A) (A) (A) (A) (A) (A) (A) (A) (A) (A) (A) (A)
                 (A) (A) (A) (A) (A) (A) (A) (A) (A) (A) (A) (A)
                 (A) (A) (A) (A) (A) (A) (A) (A) (A) (A) (A) (A)
                 (A) (A) (A) (A) (A) (A) (A) (A) (A) (A) (A) (A)
                 (A) (A) (A) (A) (A) (A) (A) (A) (A) (A) (A) (A)
                 (A) (A) (A) (A) (A) (A) (A) (A) (A) (A) (A) (A)
                 (A) (A) (A) (A) (A) (A) (A) (A) (A) (A) (A) (A)
                 (A) (A) (A) (A) (A) (A) (A) (A) (A) (A) (A) (A)
                 (A) (A) (A) (A) (A) (A) (A) (A) (A) (A) (A) (A)
                 (A) (A) (A) (A) (A) (A) (A) (A) (A) (A) (A) (A)
                 (A) (A) (A) (A)
 The electronic state is 3-A.
 Alpha  occ. eigenvalues --  -24.54714 -24.54493 -19.21417 -14.38159 -14.36091
 Alpha  occ. eigenvalues --  -10.31160 -10.28339 -10.26694 -10.25831 -10.24433
 Alpha  occ. eigenvalues --  -10.23407 -10.23266 -10.23120 -10.21447 -10.21211
 Alpha  occ. eigenvalues --  -10.20659 -10.20428 -10.20367 -10.20328 -10.20291
 Alpha  occ. eigenvalues --  -10.20260 -10.19920 -10.19495 -10.19453 -10.19338
 Alpha  occ. eigenvalues --  -10.19258 -10.19230 -10.19180 -10.19154 -10.19071
 Alpha  occ. eigenvalues --  -10.18333 -10.18198 -10.17953 -10.17560 -10.16815
 Alpha  occ. eigenvalues --   -4.08705  -2.69648  -2.69028  -2.68207  -1.12123
 Alpha  occ. eigenvalues --   -1.00655  -1.00167  -0.99173  -0.94159  -0.88086
 Alpha  occ. eigenvalues --   -0.86090  -0.85725  -0.84523  -0.83649  -0.81627
 Alpha  occ. eigenvalues --   -0.78484  -0.76347  -0.75945  -0.75674  -0.75077
 Alpha  occ. eigenvalues --   -0.74666  -0.73293  -0.72055  -0.67987  -0.67223
 Alpha  occ. eigenvalues --   -0.65328  -0.63999  -0.62445  -0.61601  -0.61242
 Alpha  occ. eigenvalues --   -0.60190  -0.59648  -0.58359  -0.57623  -0.56778
 Alpha  occ. eigenvalues --   -0.55058  -0.53645  -0.53422  -0.51950  -0.50713
 Alpha  occ. eigenvalues --   -0.49799  -0.49140  -0.48570  -0.47392  -0.46947
 Alpha  occ. eigenvalues --   -0.46207  -0.45964  -0.45475  -0.45308  -0.44982
 Alpha  occ. eigenvalues --   -0.44796  -0.44337  -0.43482  -0.43345  -0.43126
 Alpha  occ. eigenvalues --   -0.42480  -0.42118  -0.41654  -0.41196  -0.41065
 Alpha  occ. eigenvalues --   -0.40619  -0.40430  -0.39709  -0.39419  -0.38918
 Alpha  occ. eigenvalues --   -0.37949  -0.37625  -0.37043  -0.36809  -0.36223
 Alpha  occ. eigenvalues --   -0.35557  -0.35423  -0.35171  -0.34942  -0.34558
 Alpha  occ. eigenvalues --   -0.34417  -0.34197  -0.33969  -0.33585  -0.33386
 Alpha  occ. eigenvalues --   -0.32967  -0.32203  -0.31253  -0.29656  -0.29060
 Alpha  occ. eigenvalues --   -0.28293  -0.28064  -0.26741  -0.26542  -0.26435
 Alpha  occ. eigenvalues --   -0.25535  -0.25191  -0.24669  -0.24036  -0.23647
 Alpha  occ. eigenvalues --   -0.23294  -0.22924  -0.22713
 Alpha virt. eigenvalues --   -0.08160  -0.04710  -0.02590  -0.01830  -0.01055
 Alpha virt. eigenvalues --   -0.00290   0.00359   0.01273   0.01996   0.02766
 Alpha virt. eigenvalues --    0.03397   0.03761   0.04405   0.07965   0.08547
 Alpha virt. eigenvalues --    0.09407   0.09523   0.10089   0.10670   0.11246
 Alpha virt. eigenvalues --    0.11578   0.12354   0.12850   0.13214   0.13462
 Alpha virt. eigenvalues --    0.13748   0.14278   0.14431   0.14792   0.14959
 Alpha virt. eigenvalues --    0.15231   0.15718   0.15760   0.16282   0.16457
 Alpha virt. eigenvalues --    0.16916   0.17217   0.17387   0.17825   0.18249
 Alpha virt. eigenvalues --    0.18290   0.18502   0.18857   0.19025   0.20184
 Alpha virt. eigenvalues --    0.20505   0.20946   0.21460   0.21933   0.22354
 Alpha virt. eigenvalues --    0.23287   0.23674   0.24251   0.24678   0.25074
 Alpha virt. eigenvalues --    0.25911   0.26178   0.26728   0.26970   0.27616
 Alpha virt. eigenvalues --    0.28110   0.28844   0.29118   0.30073   0.30546
 Alpha virt. eigenvalues --    0.30848   0.31069   0.31846   0.33118   0.33558
 Alpha virt. eigenvalues --    0.33799   0.34236   0.35114   0.35439   0.35731
 Alpha virt. eigenvalues --    0.36334   0.36832   0.37182   0.39068   0.39497
 Alpha virt. eigenvalues --    0.42018   0.44884   0.45804   0.46020   0.46476
 Alpha virt. eigenvalues --    0.47664   0.47736   0.49386   0.49650   0.50783
 Alpha virt. eigenvalues --    0.51152   0.51529   0.52237   0.52490   0.53132
 Alpha virt. eigenvalues --    0.53344   0.53481   0.53666   0.54319   0.54732
 Alpha virt. eigenvalues --    0.55176   0.55649   0.55670   0.56479   0.56531
 Alpha virt. eigenvalues --    0.56772   0.56988   0.57797   0.58381   0.58812
 Alpha virt. eigenvalues --    0.59120   0.59431   0.59649   0.59678   0.59972
 Alpha virt. eigenvalues --    0.60199   0.60660   0.60814   0.60972   0.61169
 Alpha virt. eigenvalues --    0.61518   0.61775   0.62275   0.62587   0.62799
 Alpha virt. eigenvalues --    0.62999   0.63364   0.64433   0.64582   0.65053
 Alpha virt. eigenvalues --    0.65172   0.65290   0.65753   0.66299   0.66379
 Alpha virt. eigenvalues --    0.66717   0.67352   0.67714   0.68333   0.69354
 Alpha virt. eigenvalues --    0.69696   0.70297   0.70707   0.71162   0.72605
 Alpha virt. eigenvalues --    0.73397   0.74736   0.75269   0.76210   0.76877
 Alpha virt. eigenvalues --    0.77200   0.78276   0.79489   0.79693   0.80411
 Alpha virt. eigenvalues --    0.80990   0.81051   0.81842   0.81992   0.82641
 Alpha virt. eigenvalues --    0.82732   0.83417   0.83775   0.83847   0.84474
 Alpha virt. eigenvalues --    0.84864   0.85092   0.85497   0.85778   0.85984
 Alpha virt. eigenvalues --    0.86450   0.86867   0.87462   0.88149   0.89030
 Alpha virt. eigenvalues --    0.89167   0.89680   0.90712   0.90970   0.91501
 Alpha virt. eigenvalues --    0.91750   0.92389   0.92643   0.92804   0.94062
 Alpha virt. eigenvalues --    0.94423   0.94987   0.95136   0.95545   0.95809
 Alpha virt. eigenvalues --    0.96347   0.96594   0.97069   0.97715   0.98119
 Alpha virt. eigenvalues --    0.99768   1.00146   1.00701   1.01640   1.02376
 Alpha virt. eigenvalues --    1.03287   1.03798   1.04646   1.05464   1.06463
 Alpha virt. eigenvalues --    1.06560   1.07076   1.07261   1.08307   1.08882
 Alpha virt. eigenvalues --    1.09035   1.10646   1.11837   1.12110   1.13419
 Alpha virt. eigenvalues --    1.13960   1.15337   1.16238   1.16538   1.16740
 Alpha virt. eigenvalues --    1.17656   1.18387   1.18530   1.19765   1.20162
 Alpha virt. eigenvalues --    1.20792   1.21284   1.21823   1.22635   1.24844
 Alpha virt. eigenvalues --    1.25285   1.27321   1.27607   1.29431   1.30497
 Alpha virt. eigenvalues --    1.30760   1.32036   1.33749   1.35291   1.36194
 Alpha virt. eigenvalues --    1.37586   1.37966   1.40184   1.41052   1.41711
 Alpha virt. eigenvalues --    1.41957   1.42299   1.42700   1.43355   1.43495
 Alpha virt. eigenvalues --    1.43789   1.44152   1.44910   1.45463   1.45753
 Alpha virt. eigenvalues --    1.46240   1.47192   1.48012   1.48603   1.49032
 Alpha virt. eigenvalues --    1.49577   1.49834   1.50189   1.50565   1.51280
 Alpha virt. eigenvalues --    1.51397   1.52026   1.52157   1.52737   1.53381
 Alpha virt. eigenvalues --    1.54567   1.55749   1.58283   1.59741   1.60862
 Alpha virt. eigenvalues --    1.61878   1.64105   1.64642   1.65132   1.67952
 Alpha virt. eigenvalues --    1.68939   1.69125   1.69985   1.71450   1.72501
 Alpha virt. eigenvalues --    1.73093   1.74212   1.75689   1.77014   1.77474
 Alpha virt. eigenvalues --    1.77783   1.78399   1.79895   1.81256   1.81936
 Alpha virt. eigenvalues --    1.82330   1.82947   1.83562   1.84213   1.84647
 Alpha virt. eigenvalues --    1.84950   1.85782   1.86779   1.87381   1.88399
 Alpha virt. eigenvalues --    1.88996   1.89106   1.90348   1.90517   1.90934
 Alpha virt. eigenvalues --    1.91150   1.91324   1.92871   1.93173   1.93300
 Alpha virt. eigenvalues --    1.93697   1.94078   1.94919   1.95056   1.96717
 Alpha virt. eigenvalues --    1.97371   1.98094   1.98636   1.98798   1.99728
 Alpha virt. eigenvalues --    1.99830   2.01003   2.01413   2.02439   2.04104
 Alpha virt. eigenvalues --    2.05120   2.05523   2.06483   2.06819   2.07166
 Alpha virt. eigenvalues --    2.08044   2.08372   2.09034   2.09279   2.12428
 Alpha virt. eigenvalues --    2.13149   2.13469   2.13828   2.14099   2.14747
 Alpha virt. eigenvalues --    2.15295   2.15414   2.15543   2.15778   2.16722
 Alpha virt. eigenvalues --    2.17485   2.17826   2.18366   2.18855   2.19440
 Alpha virt. eigenvalues --    2.19840   2.20152   2.20464   2.21059   2.22440
 Alpha virt. eigenvalues --    2.22692   2.24697   2.25731   2.26956   2.27037
 Alpha virt. eigenvalues --    2.28384   2.28450   2.28881   2.29909   2.30446
 Alpha virt. eigenvalues --    2.31067   2.31256   2.32038   2.32414   2.33055
 Alpha virt. eigenvalues --    2.34719   2.35244   2.36264   2.37326   2.38004
 Alpha virt. eigenvalues --    2.38589   2.39980   2.41421   2.42040   2.43263
 Alpha virt. eigenvalues --    2.44255   2.45218   2.46630   2.48269   2.49719
 Alpha virt. eigenvalues --    2.50734   2.53276   2.54999   2.56122   2.56988
 Alpha virt. eigenvalues --    2.57234   2.57865   2.58318   2.59085   2.59491
 Alpha virt. eigenvalues --    2.59600   2.61060   2.61782   2.62478   2.63103
 Alpha virt. eigenvalues --    2.63788   2.64337   2.65145   2.66123   2.66679
 Alpha virt. eigenvalues --    2.67888   2.68909   2.69432   2.70792   2.71467
 Alpha virt. eigenvalues --    2.71928   2.72668   2.72786   2.73615   2.73945
 Alpha virt. eigenvalues --    2.74694   2.75606   2.75777   2.75984   2.77557
 Alpha virt. eigenvalues --    2.77983   2.78162   2.78908   2.80237   2.82631
 Alpha virt. eigenvalues --    2.83569   2.85697   2.87215   2.88102   2.91097
 Alpha virt. eigenvalues --    2.92812   2.92866   2.96133   2.98266   3.00100
 Alpha virt. eigenvalues --    3.04727   3.06800   3.09746   3.10515   3.16204
 Alpha virt. eigenvalues --    3.18029   3.30626   3.37713   3.40291   3.41956
 Alpha virt. eigenvalues --    3.42780   3.44919   3.53135   3.58804   3.75162
 Alpha virt. eigenvalues --    4.01626   4.07884   4.08126   4.09116   4.10122
 Alpha virt. eigenvalues --    4.11437   4.11735   4.12355   4.13388   4.15115
 Alpha virt. eigenvalues --    4.16436   4.17233   4.19539   4.21750   4.24830
 Alpha virt. eigenvalues --    4.26416   4.27417   4.30216   4.33216   4.35590
 Alpha virt. eigenvalues --    4.37769   4.39244   4.40833   4.45260   4.48488
 Alpha virt. eigenvalues --    4.50189   4.51700   4.54319   4.57998   4.60471
 Alpha virt. eigenvalues --    4.70974   4.74031   4.77422   4.78367   4.85767
 Alpha virt. eigenvalues --    4.99746   5.12604   5.93390   5.99889   6.06982
 Alpha virt. eigenvalues --    6.08513   6.30815  11.33599  17.52171  17.70111
 Alpha virt. eigenvalues --   17.94800  18.04467  18.85460  22.82050  22.93569
 Alpha virt. eigenvalues --   23.11995  26.30187  57.01593 118.92135 118.97179
 Alpha virt. eigenvalues --  119.04962 134.97962 381.86309 927.06464 927.32104
 Alpha virt. eigenvalues --  928.329881467.71377**********
  Beta  occ. eigenvalues --  -24.54437 -24.54292 -19.21419 -14.37956 -14.35899
  Beta  occ. eigenvalues --  -10.31178 -10.28331 -10.26702 -10.25841 -10.24425
  Beta  occ. eigenvalues --  -10.23415 -10.23257 -10.23114 -10.21446 -10.21209
  Beta  occ. eigenvalues --  -10.20659 -10.20428 -10.20367 -10.20328 -10.20292
  Beta  occ. eigenvalues --  -10.20259 -10.19920 -10.19489 -10.19452 -10.19337
  Beta  occ. eigenvalues --  -10.19257 -10.19230 -10.19180 -10.19154 -10.19069
  Beta  occ. eigenvalues --  -10.18334 -10.18198 -10.17953 -10.17560 -10.16815
  Beta  occ. eigenvalues --   -3.97782  -2.57787  -2.57715  -2.56764  -1.12104
  Beta  occ. eigenvalues --   -1.00047  -0.99589  -0.98964  -0.93960  -0.88082
  Beta  occ. eigenvalues --   -0.86081  -0.85703  -0.84510  -0.83615  -0.81621
  Beta  occ. eigenvalues --   -0.78472  -0.76334  -0.75941  -0.75655  -0.75074
  Beta  occ. eigenvalues --   -0.74665  -0.73292  -0.72044  -0.67960  -0.67194
  Beta  occ. eigenvalues --   -0.65298  -0.63932  -0.62424  -0.61598  -0.61224
  Beta  occ. eigenvalues --   -0.60183  -0.59642  -0.58342  -0.57573  -0.56723
  Beta  occ. eigenvalues --   -0.54950  -0.53603  -0.53329  -0.51928  -0.50683
  Beta  occ. eigenvalues --   -0.49762  -0.49119  -0.48519  -0.47365  -0.46906
  Beta  occ. eigenvalues --   -0.46112  -0.45890  -0.45437  -0.45240  -0.44974
  Beta  occ. eigenvalues --   -0.44767  -0.44048  -0.43435  -0.43337  -0.42974
  Beta  occ. eigenvalues --   -0.42454  -0.41936  -0.41530  -0.41162  -0.41042
  Beta  occ. eigenvalues --   -0.40513  -0.40383  -0.39399  -0.37924  -0.37624
  Beta  occ. eigenvalues --   -0.37207  -0.36774  -0.36175  -0.35442  -0.35264
  Beta  occ. eigenvalues --   -0.34930  -0.34823  -0.34471  -0.34315  -0.34025
  Beta  occ. eigenvalues --   -0.33600  -0.33362  -0.33276  -0.32371  -0.31674
  Beta  occ. eigenvalues --   -0.31591  -0.30478  -0.29007  -0.28805  -0.27405
  Beta  occ. eigenvalues --   -0.27072  -0.26605  -0.26521  -0.26262  -0.26047
  Beta  occ. eigenvalues --   -0.25265  -0.24787  -0.23643  -0.23278  -0.21895
  Beta  occ. eigenvalues --   -0.20709
  Beta virt. eigenvalues --   -0.08010  -0.04698  -0.03040  -0.02553  -0.01828
  Beta virt. eigenvalues --   -0.01399  -0.00876  -0.00267   0.00373   0.01323
  Beta virt. eigenvalues --    0.02042   0.02838   0.03421   0.03979   0.04472
  Beta virt. eigenvalues --    0.08088   0.08609   0.09458   0.09626   0.10141
  Beta virt. eigenvalues --    0.10747   0.11560   0.12136   0.12413   0.12910
  Beta virt. eigenvalues --    0.13253   0.13580   0.13785   0.14452   0.14542
  Beta virt. eigenvalues --    0.14810   0.15043   0.15276   0.15727   0.15789
  Beta virt. eigenvalues --    0.16321   0.16484   0.16938   0.17242   0.17438
  Beta virt. eigenvalues --    0.17829   0.18276   0.18377   0.18517   0.18907
  Beta virt. eigenvalues --    0.19038   0.20240   0.20546   0.21021   0.21588
  Beta virt. eigenvalues --    0.22061   0.22380   0.23324   0.23714   0.24407
  Beta virt. eigenvalues --    0.24712   0.25143   0.25965   0.26345   0.26981
  Beta virt. eigenvalues --    0.27035   0.27706   0.28486   0.28898   0.29242
  Beta virt. eigenvalues --    0.30105   0.30552   0.30989   0.31374   0.31881
  Beta virt. eigenvalues --    0.33192   0.33615   0.33876   0.34323   0.35309
  Beta virt. eigenvalues --    0.35492   0.35945   0.36434   0.36873   0.37247
  Beta virt. eigenvalues --    0.39190   0.39658   0.42128   0.44931   0.45854
  Beta virt. eigenvalues --    0.46041   0.46544   0.47721   0.47947   0.49486
  Beta virt. eigenvalues --    0.49658   0.50820   0.51207   0.51550   0.52251
  Beta virt. eigenvalues --    0.52516   0.53240   0.53427   0.53493   0.53749
  Beta virt. eigenvalues --    0.54405   0.54774   0.55240   0.55700   0.55709
  Beta virt. eigenvalues --    0.56511   0.56585   0.56816   0.57075   0.57875
  Beta virt. eigenvalues --    0.58450   0.58821   0.59199   0.59450   0.59701
  Beta virt. eigenvalues --    0.59708   0.60006   0.60223   0.60684   0.60868
  Beta virt. eigenvalues --    0.60993   0.61229   0.61547   0.61803   0.62335
  Beta virt. eigenvalues --    0.62621   0.62892   0.63063   0.63464   0.64523
  Beta virt. eigenvalues --    0.64683   0.65182   0.65326   0.65483   0.65816
  Beta virt. eigenvalues --    0.66427   0.66703   0.66786   0.67537   0.67786
  Beta virt. eigenvalues --    0.68436   0.69457   0.69744   0.70547   0.70724
  Beta virt. eigenvalues --    0.71386   0.72676   0.73493   0.74877   0.75478
  Beta virt. eigenvalues --    0.76298   0.76895   0.77280   0.78376   0.79550
  Beta virt. eigenvalues --    0.79748   0.80589   0.81108   0.81269   0.81995
  Beta virt. eigenvalues --    0.82082   0.82650   0.82749   0.83493   0.83782
  Beta virt. eigenvalues --    0.83866   0.84496   0.84875   0.85144   0.85571
  Beta virt. eigenvalues --    0.85838   0.86064   0.86561   0.87006   0.87563
  Beta virt. eigenvalues --    0.88206   0.89120   0.89209   0.89806   0.90841
  Beta virt. eigenvalues --    0.91030   0.91685   0.91805   0.92494   0.92823
  Beta virt. eigenvalues --    0.92940   0.94261   0.94442   0.95012   0.95284
  Beta virt. eigenvalues --    0.95610   0.96148   0.96628   0.96653   0.97292
  Beta virt. eigenvalues --    0.97972   0.98349   0.99821   1.00208   1.00856
  Beta virt. eigenvalues --    1.01754   1.02460   1.03512   1.03984   1.04862
  Beta virt. eigenvalues --    1.05591   1.06569   1.06689   1.07181   1.07315
  Beta virt. eigenvalues --    1.08362   1.09022   1.09354   1.10713   1.12014
  Beta virt. eigenvalues --    1.12643   1.13545   1.14133   1.15363   1.16326
  Beta virt. eigenvalues --    1.16638   1.17273   1.17744   1.18448   1.18593
  Beta virt. eigenvalues --    1.19845   1.20231   1.20848   1.21340   1.21845
  Beta virt. eigenvalues --    1.22734   1.24919   1.25340   1.27375   1.27722
  Beta virt. eigenvalues --    1.29459   1.30563   1.30860   1.32113   1.34017
  Beta virt. eigenvalues --    1.35521   1.36650   1.37807   1.38051   1.40237
  Beta virt. eigenvalues --    1.41135   1.41890   1.41993   1.42347   1.42764
  Beta virt. eigenvalues --    1.43454   1.43586   1.43871   1.44186   1.44999
  Beta virt. eigenvalues --    1.45601   1.45818   1.46396   1.47216   1.48043
  Beta virt. eigenvalues --    1.48670   1.49103   1.49594   1.49844   1.50218
  Beta virt. eigenvalues --    1.50583   1.51304   1.51420   1.52199   1.52327
  Beta virt. eigenvalues --    1.52830   1.53485   1.54681   1.55868   1.58546
  Beta virt. eigenvalues --    1.59938   1.60961   1.61961   1.64255   1.64694
  Beta virt. eigenvalues --    1.65285   1.68035   1.68986   1.69187   1.70115
  Beta virt. eigenvalues --    1.71651   1.72808   1.73208   1.74288   1.75755
  Beta virt. eigenvalues --    1.77131   1.77684   1.77831   1.78579   1.79965
  Beta virt. eigenvalues --    1.81540   1.82009   1.82411   1.83160   1.83593
  Beta virt. eigenvalues --    1.84267   1.84755   1.85085   1.85833   1.86891
  Beta virt. eigenvalues --    1.87502   1.88537   1.89117   1.89231   1.90424
  Beta virt. eigenvalues --    1.90581   1.90969   1.91234   1.91656   1.92937
  Beta virt. eigenvalues --    1.93200   1.93419   1.93997   1.94174   1.95002
  Beta virt. eigenvalues --    1.95561   1.96844   1.97531   1.98144   1.98701
  Beta virt. eigenvalues --    1.99021   1.99771   2.00006   2.01218   2.01494
  Beta virt. eigenvalues --    2.02594   2.04207   2.05179   2.05552   2.06574
  Beta virt. eigenvalues --    2.07142   2.07491   2.08239   2.08458   2.09199
  Beta virt. eigenvalues --    2.09480   2.12537   2.13230   2.13540   2.13871
  Beta virt. eigenvalues --    2.14154   2.14861   2.15387   2.15447   2.15678
  Beta virt. eigenvalues --    2.15864   2.16897   2.17533   2.17951   2.18416
  Beta virt. eigenvalues --    2.18904   2.19639   2.19891   2.20259   2.20562
  Beta virt. eigenvalues --    2.21356   2.22666   2.22827   2.24893   2.25817
  Beta virt. eigenvalues --    2.27042   2.27195   2.28445   2.28539   2.29031
  Beta virt. eigenvalues --    2.29933   2.30467   2.31165   2.31312   2.32200
  Beta virt. eigenvalues --    2.32479   2.33319   2.34993   2.35335   2.36546
  Beta virt. eigenvalues --    2.37649   2.38228   2.39366   2.40286   2.41677
  Beta virt. eigenvalues --    2.42458   2.43465   2.44661   2.45582   2.47032
  Beta virt. eigenvalues --    2.48653   2.50207   2.51477   2.54143   2.55979
  Beta virt. eigenvalues --    2.56761   2.57194   2.58123   2.58191   2.58822
  Beta virt. eigenvalues --    2.59707   2.59860   2.60632   2.61346   2.61894
  Beta virt. eigenvalues --    2.63215   2.63554   2.64197   2.64716   2.65298
  Beta virt. eigenvalues --    2.66562   2.66896   2.68446   2.69215   2.69949
  Beta virt. eigenvalues --    2.71171   2.72012   2.72231   2.73078   2.73466
  Beta virt. eigenvalues --    2.74091   2.74366   2.75416   2.75975   2.76007
  Beta virt. eigenvalues --    2.76393   2.78106   2.78193   2.78874   2.79929
  Beta virt. eigenvalues --    2.80683   2.82968   2.83647   2.87211   2.87463
  Beta virt. eigenvalues --    2.88694   2.91340   2.93039   2.94012   2.96343
  Beta virt. eigenvalues --    2.98965   3.00836   3.05164   3.06983   3.09790
  Beta virt. eigenvalues --    3.10544   3.16473   3.18408   3.30819   3.40297
  Beta virt. eigenvalues --    3.40671   3.41959   3.42812   3.45401   3.55485
  Beta virt. eigenvalues --    3.63221   3.79389   4.04660   4.08020   4.08235
  Beta virt. eigenvalues --    4.09148   4.10154   4.11450   4.11855   4.12502
  Beta virt. eigenvalues --    4.13394   4.15151   4.16625   4.17586   4.20025
  Beta virt. eigenvalues --    4.21848   4.25006   4.26477   4.27502   4.30235
  Beta virt. eigenvalues --    4.33230   4.35597   4.37830   4.39264   4.40956
  Beta virt. eigenvalues --    4.45296   4.48633   4.50220   4.51752   4.54535
  Beta virt. eigenvalues --    4.58320   4.60554   4.70990   4.74094   4.77442
  Beta virt. eigenvalues --    4.78455   4.86021   4.99981   5.15773   5.96372
  Beta virt. eigenvalues --    6.02742   6.09780   6.19737   6.41903  11.39302
  Beta virt. eigenvalues --   17.53783  17.71617  17.96248  18.10488  18.90951
  Beta virt. eigenvalues --   22.94399  23.05196  23.24178  26.39135  57.11618
  Beta virt. eigenvalues --  118.98867 119.02731 119.11699 135.05143 381.28932
  Beta virt. eigenvalues --  923.72220 923.97909 924.786031458.17335**********
          Condensed to atoms (all electrons):
          Atomic-Atomic Spin Densities.
 Mulliken charges and spin densities:
               1          2
     1  C   -0.123311  -0.000197
     2  C   -0.145222   0.000387
     3  C   -0.189925  -0.000459
     4  C    0.144284   0.000981
     5  C   -0.060450   0.000645
     6  N   -0.539021   0.063320
     7  C    0.605986  -0.010798
     8  C    0.336390  -0.004254
     9  C   -0.173305   0.002967
    10  C   -0.155446  -0.006998
    11  C    0.116138   0.004523
    12  C    0.343613  -0.008898
    13  N   -0.628411   0.064953
    14  C   -0.383258   0.002875
    15  C   -0.280875   0.000268
    16  C   -0.276843   0.000052
    17  C   -0.351574   0.000473
    18  O   -0.534245  -0.001281
    19  C    0.101181   0.004256
    20  C    0.146185  -0.000934
    21  C   -0.173290   0.000635
    22  C   -0.129360  -0.000383
    23  C   -0.121981   0.000638
    24  C   -0.134245  -0.000413
    25  C   -0.145706   0.000632
    26  C    0.121000   0.000080
    27  C   -0.153494   0.000153
    28  C   -0.135051   0.000063
    29  C   -0.121284  -0.000014
    30  C   -0.137197  -0.000008
    31  C   -0.188420   0.000040
    32  C   -0.178944  -0.000320
    33  C   -0.136283   0.000369
    34  H    0.125967   0.000004
    35  H    0.143340  -0.000012
    36  H    0.212207  -0.000503
    37  H    0.190096   0.000417
    38  H    0.177737   0.000651
    39  H    0.151984   0.000269
    40  H    0.210929  -0.000443
    41  H    0.223556  -0.000458
    42  H    0.156479   0.000027
    43  H    0.151360  -0.000006
    44  H    0.153884   0.000001
    45  H    0.145362   0.000017
    46  H    0.167768   0.000026
    47  H    0.156875   0.000254
    48  H    0.142745   0.000056
    49  H    0.137747   0.000017
    50  H    0.132638  -0.000031
    51  H    0.133663   0.000013
    52  H    0.140295  -0.000026
    53  H    0.149174  -0.000001
    54  H    0.138059   0.000023
    55  H    0.137656   0.000001
    56  H    0.139889  -0.000002
    57  H    0.147258   0.000008
    58  H    0.118138   0.000010
    59  H    0.125213  -0.000019
    60  Ni   0.628653   1.755698
    61  F   -0.477152   0.055244
    62  F   -0.479149   0.075414
 Sum of Mulliken charges =  -0.00000   2.00000
 Mulliken charges and spin densities with hydrogens summed into heavy atoms:
               1          2
     1  C    0.002656  -0.000192
     2  C   -0.001883   0.000375
     3  C    0.022282  -0.000962
     4  C    0.144284   0.000981
     5  C    0.129645   0.001062
     6  N   -0.539021   0.063320
     7  C    0.605986  -0.010798
     8  C    0.336390  -0.004254
     9  C    0.004432   0.003617
    10  C   -0.003462  -0.006729
    11  C    0.116138   0.004523
    12  C    0.343613  -0.008898
    13  N   -0.628411   0.064953
    14  C    0.051227   0.001974
    15  C    0.026964   0.000289
    16  C    0.022402   0.000070
    17  C   -0.026932   0.000753
    18  O   -0.534245  -0.001281
    19  C    0.101181   0.004256
    20  C    0.146185  -0.000934
    21  C   -0.030546   0.000692
    22  C    0.008386  -0.000366
    23  C    0.010657   0.000607
    24  C   -0.000581  -0.000400
    25  C   -0.005411   0.000606
    26  C    0.121000   0.000080
    27  C   -0.004320   0.000152
    28  C    0.003008   0.000086
    29  C    0.016372  -0.000014
    30  C    0.002692  -0.000009
    31  C   -0.041162   0.000048
    32  C   -0.060806  -0.000310
    33  C   -0.011070   0.000350
    60  Ni   0.628653   1.755698
    61  F   -0.477152   0.055244
    62  F   -0.479149   0.075414
 Electronic spatial extent (au):  <R**2>=          17136.3356
 Charge=             -0.0000 electrons
 Dipole moment (field-independent basis, Debye):
    X=              0.9173    Y=             -7.2078    Z=              4.0068  Tot=              8.2975
 Quadrupole moment (field-independent basis, Debye-Ang):
   XX=           -168.1066   YY=           -207.5851   ZZ=           -218.1106
   XY=             14.7514   XZ=            -16.2343   YZ=              4.6804
 Traceless Quadrupole moment (field-independent basis, Debye-Ang):
   XX=             29.8275   YY=             -9.6510   ZZ=            -20.1765
   XY=             14.7514   XZ=            -16.2343   YZ=              4.6804
 Octapole moment (field-independent basis, Debye-Ang**2):
  XXX=           -208.4866  YYY=             13.3469  ZZZ=             15.2602  XYY=              7.4030
  XXY=            -46.3822  XXZ=             -6.5212  XZZ=             26.5307  YZZ=             -2.2847
  YYZ=              9.8984  XYZ=             22.4017
 Hexadecapole moment (field-independent basis, Debye-Ang**3):
 XXXX=         -13450.2179 YYYY=          -5074.8259 ZZZZ=          -2882.8215 XXXY=            -48.1014
 XXXZ=           -153.7373 YYYX=            -74.2312 YYYZ=            -76.5327 ZZZX=            -31.8811
 ZZZY=             99.5212 XXYY=          -3041.4633 XXZZ=          -2881.5618 YYZZ=          -1411.7914
 XXYZ=             32.6210 YYXZ=            -26.2526 ZZXY=             15.4171
 N-N= 4.226044511171D+03 E-N=-1.245463711050D+04  KE= 1.636463880481D+03
                          Isotropic Fermi Contact Couplings
        Atom                 a.u.       MegaHertz       Gauss      10(-4) cm-1
     1  C(13)             -0.00003      -0.01445      -0.00516      -0.00482
     2  C(13)              0.00003       0.01853       0.00661       0.00618
     3  C(13)             -0.00027      -0.14990      -0.05349      -0.05000
     4  C(13)              0.00075       0.42415       0.15135       0.14148
     5  C(13)              0.00388       2.18330       0.77905       0.72827
     6  N(14)              0.10882      17.57971       6.27288       5.86396
     7  C(13)             -0.00002      -0.01112      -0.00397      -0.00371
     8  C(13)             -0.00136      -0.76297      -0.27225      -0.25450
     9  C(13)              0.00224       1.25644       0.44833       0.41910
    10  C(13)             -0.00057      -0.32165      -0.11477      -0.10729
    11  C(13)              0.00327       1.83927       0.65630       0.61352
    12  C(13)             -0.00046      -0.25580      -0.09128      -0.08533
    13  N(14)              0.10616      17.15029       6.11965       5.72072
    14  C(13)              0.00190       1.06567       0.38026       0.35547
    15  C(13)              0.00015       0.08183       0.02920       0.02730
    16  C(13)              0.00005       0.03060       0.01092       0.01021
    17  C(13)              0.00063       0.35394       0.12630       0.11806
    18  O(17)              0.00191      -0.58037      -0.20709      -0.19359
    19  C(13)              0.00279       1.56694       0.55912       0.52267
    20  C(13)             -0.00023      -0.12826      -0.04577      -0.04278
    21  C(13)              0.00008       0.04391       0.01567       0.01465
    22  C(13)             -0.00005      -0.02973      -0.01061      -0.00992
    23  C(13)              0.00007       0.04024       0.01436       0.01342
    24  C(13)             -0.00006      -0.03501      -0.01249      -0.01168
    25  C(13)              0.00004       0.02276       0.00812       0.00759
    26  C(13)              0.00025       0.14185       0.05062       0.04732
    27  C(13)              0.00034       0.19246       0.06867       0.06420
    28  C(13)              0.00010       0.05852       0.02088       0.01952
    29  C(13)             -0.00000      -0.00112      -0.00040      -0.00037
    30  C(13)             -0.00000      -0.00092      -0.00033      -0.00031
    31  C(13)              0.00010       0.05361       0.01913       0.01788
    32  C(13)             -0.00014      -0.07699      -0.02747      -0.02568
    33  C(13)              0.00002       0.01366       0.00487       0.00456
    34  H(1)               0.00000       0.00313       0.00112       0.00104
    35  H(1)              -0.00000      -0.00908      -0.00324      -0.00303
    36  H(1)               0.00006       0.14307       0.05105       0.04772
    37  H(1)               0.00022       0.48147       0.17180       0.16060
    38  H(1)               0.00027       0.61401       0.21910       0.20481
    39  H(1)               0.00009       0.20195       0.07206       0.06736
    40  H(1)              -0.00015      -0.33920      -0.12104      -0.11315
    41  H(1)              -0.00002      -0.04033      -0.01439      -0.01345
    42  H(1)               0.00003       0.05642       0.02013       0.01882
    43  H(1)              -0.00000      -0.00187      -0.00067      -0.00062
    44  H(1)              -0.00000      -0.00758      -0.00270      -0.00253
    45  H(1)               0.00001       0.01679       0.00599       0.00560
    46  H(1)               0.00001       0.02033       0.00725       0.00678
    47  H(1)               0.00009       0.20005       0.07138       0.06673
    48  H(1)              -0.00001      -0.02864      -0.01022      -0.00955
    49  H(1)               0.00001       0.01143       0.00408       0.00381
    50  H(1)              -0.00001      -0.02206      -0.00787      -0.00736
    51  H(1)               0.00000       0.00811       0.00289       0.00270
    52  H(1)              -0.00001      -0.02130      -0.00760      -0.00711
    53  H(1)               0.00001       0.02037       0.00727       0.00679
    54  H(1)               0.00001       0.01670       0.00596       0.00557
    55  H(1)               0.00000       0.00072       0.00026       0.00024
    56  H(1)              -0.00000      -0.00138      -0.00049      -0.00046
    57  H(1)               0.00000       0.00219       0.00078       0.00073
    58  H(1)               0.00000       0.00354       0.00126       0.00118
    59  H(1)              -0.00001      -0.01310      -0.00467      -0.00437
    60  Ni(61)             0.00000      -0.00030      -0.00011      -0.00010
    61  F(19)              0.02595      54.59908      19.48231      18.21229
    62  F(19)              0.02380      50.07386      17.86760      16.70284
 --------------------------------------------------------
       Center         ----  Spin Dipole Couplings  ----
                      3XX-RR        3YY-RR        3ZZ-RR
 --------------------------------------------------------
     1   Atom        0.001913     -0.000381     -0.001532
     2   Atom        0.002472     -0.000505     -0.001967
     3   Atom        0.008833     -0.003941     -0.004892
     4   Atom        0.010905     -0.005158     -0.005747
     5   Atom        0.020714     -0.009310     -0.011404
     6   Atom        0.025987      0.018469     -0.044457
     7   Atom        0.008048      0.013585     -0.021633
     8   Atom       -0.004640      0.017827     -0.013187
     9   Atom       -0.005047      0.006821     -0.001774
    10   Atom        0.001544      0.004889     -0.006433
    11   Atom       -0.001056      0.003854     -0.002798
    12   Atom        0.014968     -0.000588     -0.014380
    13   Atom       -0.064094      0.093318     -0.029224
    14   Atom        0.015019     -0.006382     -0.008637
    15   Atom        0.004918     -0.002681     -0.002237
    16   Atom        0.002376     -0.000843     -0.001534
    17   Atom        0.001936     -0.000516     -0.001419
    18   Atom        0.003363      0.011537     -0.014901
    19   Atom        0.001712      0.000941     -0.002653
    20   Atom        0.002441     -0.002105     -0.000335
    21   Atom        0.000203     -0.001331      0.001128
    22   Atom        0.000224     -0.001609      0.001385
    23   Atom        0.000198     -0.000523      0.000325
    24   Atom        0.001083     -0.001099      0.000016
    25   Atom        0.001416     -0.000698     -0.000718
    26   Atom        0.001583      0.000261     -0.001844
    27   Atom        0.000643      0.000313     -0.000956
    28   Atom        0.000409      0.000199     -0.000608
    29   Atom        0.000458      0.000054     -0.000512
    30   Atom        0.000763     -0.000123     -0.000640
    31   Atom        0.001562     -0.000358     -0.001204
    32   Atom        0.004586     -0.002104     -0.002482
    33   Atom        0.002388     -0.001087     -0.001301
    34   Atom        0.000969     -0.000043     -0.000926
    35   Atom        0.000568      0.000715     -0.001283
    36   Atom        0.009342     -0.007859     -0.001483
    37   Atom        0.008255     -0.004285     -0.003970
    38   Atom       -0.002289      0.003571     -0.001283
    39   Atom       -0.000612      0.001373     -0.000761
    40   Atom        0.016240     -0.007977     -0.008263
    41   Atom        0.019275     -0.012273     -0.007002
    42   Atom        0.003992     -0.002079     -0.001914
    43   Atom        0.002846     -0.002170     -0.000676
    44   Atom        0.002374     -0.000714     -0.001660
    45   Atom        0.001528     -0.000670     -0.000858
    46   Atom        0.000650     -0.000426     -0.000224
    47   Atom        0.000502      0.000419     -0.000921
    48   Atom       -0.001048     -0.001734      0.002782
    49   Atom       -0.000504     -0.001251      0.001755
    50   Atom        0.000179     -0.000651      0.000472
    51   Atom        0.000750     -0.000620     -0.000130
    52   Atom        0.001778     -0.000958     -0.000820
    53   Atom        0.000349      0.000263     -0.000612
    54   Atom        0.000222      0.000181     -0.000403
    55   Atom        0.000310      0.000045     -0.000356
    56   Atom        0.000631     -0.000195     -0.000436
    57   Atom        0.002238     -0.000972     -0.001266
    58   Atom        0.003380     -0.001729     -0.001651
    59   Atom        0.001579     -0.000667     -0.000912
    60   Atom       -0.404667     -0.196559      0.601226
    61   Atom       -0.130629      0.216786     -0.086157
    62   Atom       -0.019309      0.064606     -0.045297
 --------------------------------------------------------
                        XY            XZ            YZ
 --------------------------------------------------------
     1   Atom        0.002038      0.000537      0.000432
     2   Atom        0.003697      0.002237      0.001338
     3   Atom        0.006329      0.006132      0.002801
     4   Atom        0.002227      0.002164      0.000224
     5   Atom       -0.005859     -0.001611      0.000186
     6   Atom       -0.106396      0.042626     -0.024552
     7   Atom       -0.011977      0.001118     -0.022850
     8   Atom       -0.004584      0.000839     -0.018376
     9   Atom        0.001632     -0.000672     -0.005476
    10   Atom        0.001940     -0.002629     -0.006865
    11   Atom        0.006537     -0.003181     -0.004050
    12   Atom        0.011623     -0.012359     -0.011251
    13   Atom        0.082678     -0.039597     -0.090102
    14   Atom        0.003724     -0.005158     -0.002205
    15   Atom        0.001271     -0.002454     -0.000411
    16   Atom        0.001779     -0.000941     -0.000477
    17   Atom        0.002411     -0.001679     -0.001119
    18   Atom       -0.008500      0.006504     -0.023191
    19   Atom       -0.006027      0.003426     -0.004769
    20   Atom       -0.001853      0.002738     -0.000986
    21   Atom       -0.001690      0.003442     -0.001894
    22   Atom       -0.000313      0.002044     -0.000358
    23   Atom       -0.000339      0.001504     -0.000436
    24   Atom       -0.000097      0.001177      0.000061
    25   Atom       -0.000893      0.001578     -0.000647
    26   Atom       -0.002695      0.000190     -0.000032
    27   Atom       -0.001587      0.000483     -0.000481
    28   Atom       -0.000948      0.000089     -0.000063
    29   Atom       -0.000771     -0.000087      0.000059
    30   Atom       -0.000955     -0.000326      0.000205
    31   Atom       -0.001736     -0.000519      0.000315
    32   Atom        0.001002     -0.000385      0.000068
    33   Atom        0.001227      0.000248     -0.000178
    34   Atom        0.001380      0.000408      0.000295
    35   Atom        0.003142      0.001944      0.002034
    36   Atom        0.010890      0.016220      0.008790
    37   Atom       -0.005644     -0.004936      0.001664
    38   Atom       -0.000679      0.000272     -0.002635
    39   Atom        0.000977     -0.000571     -0.001443
    40   Atom        0.004805      0.002711      0.000324
    41   Atom       -0.002875     -0.014223      0.001451
    42   Atom        0.000017     -0.001036     -0.000035
    43   Atom        0.000549     -0.002823     -0.000284
    44   Atom        0.001994     -0.000093     -0.000066
    45   Atom        0.000921     -0.000657     -0.000246
    46   Atom        0.001400     -0.001487     -0.000975
    47   Atom        0.001639     -0.000700     -0.000618
    48   Atom       -0.002247      0.003958     -0.003595
    49   Atom       -0.000213      0.001568     -0.000409
    50   Atom        0.000009      0.001003      0.000033
    51   Atom       -0.000062      0.000804     -0.000019
    52   Atom       -0.000633      0.000852     -0.000184
    53   Atom       -0.001285      0.000650     -0.000673
    54   Atom       -0.000641      0.000148     -0.000147
    55   Atom       -0.000531     -0.000082      0.000063
    56   Atom       -0.000697     -0.000423      0.000241
    57   Atom       -0.001746     -0.001234      0.000524
    58   Atom       -0.000008     -0.000763     -0.000030
    59   Atom        0.000798     -0.000118     -0.000049
    60   Atom       -0.183485      0.006804     -0.215629
    61   Atom       -0.118601     -0.058658      0.253459
    62   Atom       -0.083666      0.086743     -0.292502
 --------------------------------------------------------


 ---------------------------------------------------------------------------------
              Anisotropic Spin Dipole Couplings in Principal Axis System
 ---------------------------------------------------------------------------------

       Atom             a.u.   MegaHertz   Gauss  10(-4) cm-1        Axes

              Baa    -0.0017    -0.229    -0.082    -0.076  0.2077 -0.5769  0.7900
     1 C(13)  Bbb    -0.0015    -0.201    -0.072    -0.067 -0.4790  0.6442  0.5963
              Bcc     0.0032     0.430     0.153     0.143  0.8529  0.5023  0.1425
 
              Baa    -0.0031    -0.413    -0.147    -0.138 -0.6129  0.6388  0.4650
     2 C(13)  Bbb    -0.0028    -0.370    -0.132    -0.124  0.0427 -0.5608  0.8268
              Bcc     0.0058     0.783     0.280     0.261  0.7890  0.5266  0.3165
 
              Baa    -0.0074    -0.991    -0.353    -0.330 -0.1940 -0.3795  0.9046
     3 C(13)  Bbb    -0.0065    -0.869    -0.310    -0.290 -0.4559  0.8514  0.2594
              Bcc     0.0139     1.860     0.664     0.620  0.8686  0.3621  0.3382
 
              Baa    -0.0060    -0.809    -0.289    -0.270 -0.1394  0.1031  0.9848
     4 C(13)  Bbb    -0.0055    -0.732    -0.261    -0.244 -0.1183  0.9857 -0.1200
              Bcc     0.0115     1.541     0.550     0.514  0.9831  0.1332  0.1252
 
              Baa    -0.0115    -1.543    -0.550    -0.515  0.0670  0.0952  0.9932
     5 C(13)  Bbb    -0.0104    -1.396    -0.498    -0.466  0.1787  0.9782 -0.1058
              Bcc     0.0219     2.938     1.048     0.980  0.9816 -0.1846 -0.0485
 
              Baa    -0.0885    -3.413    -1.218    -1.138  0.7054  0.6250 -0.3344
     6 N(14)  Bbb    -0.0525    -2.026    -0.723    -0.676  0.0655  0.4124  0.9087
              Bcc     0.1410     5.438     1.941     1.814  0.7058 -0.6629  0.2500
 
              Baa    -0.0333    -4.474    -1.596    -1.492  0.1085  0.4575  0.8826
     7 C(13)  Bbb     0.0028     0.378     0.135     0.126  0.8855  0.3590 -0.2950
              Bcc     0.0305     4.095     1.461     1.366 -0.4518  0.8135 -0.3661
 
              Baa    -0.0218    -2.926    -1.044    -0.976  0.0697  0.4262  0.9019
     8 C(13)  Bbb    -0.0052    -0.698    -0.249    -0.233  0.9875  0.0985 -0.1229
              Bcc     0.0270     3.624     1.293     1.209 -0.1412  0.8992 -0.4141
 
              Baa    -0.0053    -0.707    -0.252    -0.236  0.9846 -0.1621 -0.0647
     9 C(13)  Bbb    -0.0044    -0.594    -0.212    -0.198  0.1280  0.4191  0.8989
              Bcc     0.0097     1.301     0.464     0.434  0.1187  0.8933 -0.4334
 
              Baa    -0.0099    -1.327    -0.474    -0.443  0.1398  0.4020  0.9049
    10 C(13)  Bbb     0.0007     0.090     0.032     0.030  0.9240 -0.3813  0.0267
              Bcc     0.0092     1.237     0.442     0.413  0.3558  0.8324 -0.4248
 
              Baa    -0.0057    -0.762    -0.272    -0.254  0.8420 -0.4528  0.2932
    11 C(13)  Bbb    -0.0047    -0.632    -0.225    -0.211 -0.0588  0.4632  0.8843
              Bcc     0.0104     1.394     0.497     0.465  0.5362  0.7618 -0.3634
 
              Baa    -0.0216    -2.904    -1.036    -0.969  0.1844  0.3821  0.9055
    12 C(13)  Bbb    -0.0059    -0.788    -0.281    -0.263 -0.5707  0.7917 -0.2178
              Bcc     0.0275     3.692     1.317     1.232  0.8002  0.4767 -0.3641
 
              Baa    -0.0996    -3.840    -1.370    -1.281  0.9240 -0.3811  0.0319
    13 N(14)  Bbb    -0.0764    -2.947    -1.051    -0.983  0.1384  0.4110  0.9011
              Bcc     0.1760     6.787     2.422     2.264  0.3566  0.8282 -0.4325
 
              Baa    -0.0103    -1.383    -0.494    -0.461  0.1282  0.3905  0.9116
    14 C(13)  Bbb    -0.0065    -0.874    -0.312    -0.292 -0.2410  0.9039 -0.3533
              Bcc     0.0168     2.257     0.805     0.753  0.9620  0.1744 -0.2100
 
              Baa    -0.0030    -0.403    -0.144    -0.134  0.2725  0.1399  0.9519
    15 C(13)  Bbb    -0.0029    -0.387    -0.138    -0.129 -0.1876  0.9781 -0.0901
              Bcc     0.0059     0.790     0.282     0.263  0.9437  0.1541 -0.2928
 
              Baa    -0.0018    -0.239    -0.085    -0.080  0.0404  0.3920  0.9191
    16 C(13)  Bbb    -0.0016    -0.216    -0.077    -0.072 -0.4485  0.8291 -0.3339
              Bcc     0.0034     0.455     0.162     0.152  0.8929  0.3987 -0.2093
 
              Baa    -0.0022    -0.292    -0.104    -0.097  0.0774  0.4773  0.8753
    17 C(13)  Bbb    -0.0020    -0.264    -0.094    -0.088 -0.5961  0.7259 -0.3431
              Bcc     0.0041     0.556     0.198     0.186  0.7992  0.4952 -0.3407
 
              Baa    -0.0284     2.058     0.734     0.686 -0.0455  0.4940  0.8683
    18 O(17)  Bbb    -0.0009     0.066     0.024     0.022  0.9245  0.3502 -0.1508
              Bcc     0.0294    -2.124    -0.758    -0.709 -0.3785  0.7958 -0.4727
 
              Baa    -0.0061    -0.815    -0.291    -0.272  0.1888  0.6581  0.7289
    19 C(13)  Bbb    -0.0039    -0.528    -0.188    -0.176  0.7442  0.3884 -0.5434
              Bcc     0.0100     1.343     0.479     0.448 -0.6407  0.6450 -0.4164
 
              Baa    -0.0028    -0.371    -0.132    -0.124  0.3304  0.9438  0.0106
    20 C(13)  Bbb    -0.0020    -0.268    -0.096    -0.089 -0.4710  0.1551  0.8684
              Bcc     0.0048     0.639     0.228     0.213  0.8179 -0.2919  0.4958
 
              Baa    -0.0028    -0.377    -0.134    -0.126  0.7627  0.0451 -0.6452
    21 C(13)  Bbb    -0.0023    -0.312    -0.111    -0.104  0.2041  0.9298  0.3064
              Bcc     0.0051     0.689     0.246     0.230  0.6137 -0.3654  0.6999
 
              Baa    -0.0017    -0.223    -0.080    -0.074  0.1401  0.9899  0.0224
    22 C(13)  Bbb    -0.0013    -0.177    -0.063    -0.059  0.7874 -0.0977 -0.6086
              Bcc     0.0030     0.400     0.143     0.133  0.6003 -0.1030  0.7932
 
              Baa    -0.0012    -0.168    -0.060    -0.056  0.7075 -0.0898 -0.7010
    23 C(13)  Bbb    -0.0006    -0.086    -0.031    -0.029  0.2190  0.9709  0.0967
              Bcc     0.0019     0.254     0.091     0.085  0.6719 -0.2220  0.7066
 
              Baa    -0.0011    -0.151    -0.054    -0.050  0.1544  0.9654 -0.2101
    24 C(13)  Bbb    -0.0007    -0.096    -0.034    -0.032 -0.5190  0.2602  0.8142
              Bcc     0.0018     0.247     0.088     0.082  0.8407 -0.0167  0.5412
 
              Baa    -0.0016    -0.214    -0.076    -0.071 -0.3897  0.2510  0.8861
    25 C(13)  Bbb    -0.0010    -0.137    -0.049    -0.046  0.3921  0.9158 -0.0869
              Bcc     0.0026     0.351     0.125     0.117  0.8333 -0.3136  0.4553
 
              Baa    -0.0019    -0.261    -0.093    -0.087 -0.4586 -0.5508  0.6973
    26 C(13)  Bbb    -0.0018    -0.236    -0.084    -0.079  0.4131  0.5626  0.7161
              Bcc     0.0037     0.497     0.177     0.166  0.7868 -0.6165  0.0304
 
              Baa    -0.0011    -0.154    -0.055    -0.051  0.4279  0.6672  0.6097
    27 C(13)  Bbb    -0.0011    -0.144    -0.052    -0.048 -0.5399 -0.3523  0.7645
              Bcc     0.0022     0.298     0.106     0.099  0.7249 -0.6563  0.2095
 
              Baa    -0.0007    -0.088    -0.031    -0.029  0.6480  0.6978 -0.3051
    28 C(13)  Bbb    -0.0006    -0.082    -0.029    -0.027  0.1628  0.2644  0.9506
              Bcc     0.0013     0.170     0.061     0.057  0.7440 -0.6657  0.0578
 
              Baa    -0.0005    -0.073    -0.026    -0.024  0.6053  0.7585  0.2413
    29 C(13)  Bbb    -0.0005    -0.069    -0.025    -0.023 -0.0965 -0.2309  0.9682
              Bcc     0.0011     0.142     0.051     0.047  0.7901 -0.6093 -0.0666
 
              Baa    -0.0007    -0.098    -0.035    -0.033  0.5518  0.8266  0.1101
    30 C(13)  Bbb    -0.0007    -0.095    -0.034    -0.032  0.0919 -0.1915  0.9772
              Bcc     0.0014     0.194     0.069     0.065  0.8289 -0.5291 -0.1816
 
              Baa    -0.0014    -0.185    -0.066    -0.062  0.4944  0.8648 -0.0881
    31 C(13)  Bbb    -0.0013    -0.174    -0.062    -0.058  0.1776 -0.0013  0.9841
              Bcc     0.0027     0.360     0.128     0.120  0.8509 -0.5022 -0.1543
 
              Baa    -0.0026    -0.342    -0.122    -0.114  0.1013 -0.3664  0.9249
    32 C(13)  Bbb    -0.0022    -0.295    -0.105    -0.099 -0.1143  0.9193  0.3766
              Bcc     0.0048     0.638     0.228     0.213  0.9883  0.1439 -0.0512
 
              Baa    -0.0017    -0.222    -0.079    -0.074 -0.2689  0.7683  0.5809
    33 C(13)  Bbb    -0.0011    -0.152    -0.054    -0.051  0.1398 -0.5656  0.8127
              Bcc     0.0028     0.374     0.133     0.125  0.9530  0.2998  0.0447
 
              Baa    -0.0010    -0.543    -0.194    -0.181  0.2175 -0.5513  0.8055
    34 H(1)   Bbb    -0.0010    -0.534    -0.191    -0.178 -0.5478  0.6141  0.5682
              Bcc     0.0020     1.077     0.384     0.359  0.8078  0.5648  0.1685
 
              Baa    -0.0026    -1.361    -0.486    -0.454  0.0972 -0.5917  0.8003
    35 H(1)   Bbb    -0.0025    -1.326    -0.473    -0.442  0.7645 -0.4704 -0.4407
              Bcc     0.0050     2.687     0.959     0.896  0.6372  0.6547  0.4067
 
              Baa    -0.0141    -7.508    -2.679    -2.505  0.1265  0.7294 -0.6723
    36 H(1)   Bbb    -0.0126    -6.729    -2.401    -2.245  0.6517 -0.5720 -0.4981
              Bcc     0.0267    14.238     5.080     4.749  0.7478  0.3751  0.5477
 
              Baa    -0.0065    -3.469    -1.238    -1.157  0.4127  0.8828  0.2245
    37 H(1)   Bbb    -0.0056    -2.991    -1.067    -0.998  0.1962 -0.3268  0.9245
              Bcc     0.0121     6.459     2.305     2.155  0.8895 -0.3376 -0.3080
 
              Baa    -0.0024    -1.304    -0.465    -0.435  0.2758  0.4116  0.8686
    38 H(1)   Bbb    -0.0024    -1.258    -0.449    -0.420  0.9557 -0.0210 -0.2935
              Bcc     0.0048     2.562     0.914     0.855 -0.1026  0.9111 -0.3992
 
              Baa    -0.0015    -0.799    -0.285    -0.267  0.1311  0.4092  0.9030
    39 H(1)   Bbb    -0.0010    -0.540    -0.193    -0.180  0.9311 -0.3635  0.0295
              Bcc     0.0025     1.339     0.478     0.447  0.3403  0.8370 -0.4286
 
              Baa    -0.0090    -4.791    -1.710    -1.598 -0.2129  0.8903  0.4025
    40 H(1)   Bbb    -0.0085    -4.518    -1.612    -1.507 -0.0189 -0.4156  0.9093
              Bcc     0.0174     9.309     3.322     3.105  0.9769  0.1860  0.1054
 
              Baa    -0.0133    -7.080    -2.526    -2.362  0.3717 -0.2355  0.8980
    41 H(1)   Bbb    -0.0125    -6.671    -2.380    -2.225  0.1698  0.9682  0.1836
              Bcc     0.0258    13.750     4.906     4.587  0.9127 -0.0842 -0.3998
 
              Baa    -0.0021    -1.129    -0.403    -0.377  0.1267  0.6406  0.7574
    42 H(1)   Bbb    -0.0021    -1.095    -0.391    -0.365 -0.1103  0.7679 -0.6310
              Bcc     0.0042     2.224     0.794     0.742  0.9858  0.0035 -0.1679
 
              Baa    -0.0023    -1.203    -0.429    -0.401  0.4472 -0.5572  0.6997
    43 H(1)   Bbb    -0.0022    -1.182    -0.422    -0.394  0.2043  0.8252  0.5266
              Bcc     0.0045     2.385     0.851     0.796  0.8708  0.0926 -0.4829
 
              Baa    -0.0017    -0.908    -0.324    -0.303 -0.3880  0.8132  0.4338
    44 H(1)   Bbb    -0.0017    -0.882    -0.315    -0.294  0.2093 -0.3807  0.9007
              Bcc     0.0034     1.790     0.639     0.597  0.8976  0.4403 -0.0225
 
              Baa    -0.0010    -0.550    -0.196    -0.183  0.1289  0.3129  0.9410
    45 H(1)   Bbb    -0.0010    -0.535    -0.191    -0.179 -0.3869  0.8896 -0.2428
              Bcc     0.0020     1.085     0.387     0.362  0.9131  0.3327 -0.2357
 
              Baa    -0.0014    -0.747    -0.266    -0.249 -0.6747  0.6782 -0.2912
    46 H(1)   Bbb    -0.0013    -0.691    -0.247    -0.231  0.2132  0.5568  0.8028
              Bcc     0.0027     1.438     0.513     0.480  0.7067  0.4796 -0.5203
 
              Baa    -0.0012    -0.655    -0.234    -0.218  0.6146 -0.3455  0.7091
    47 H(1)   Bbb    -0.0011    -0.607    -0.217    -0.203 -0.3800  0.6581  0.6500
              Bcc     0.0024     1.262     0.450     0.421  0.6913  0.6689 -0.2732
 
              Baa    -0.0037    -1.991    -0.711    -0.664  0.2026  0.9042  0.3760
    48 H(1)   Bbb    -0.0035    -1.884    -0.672    -0.628  0.8534  0.0253 -0.5207
              Bcc     0.0073     3.875     1.383     1.293  0.4803 -0.4263  0.7665
 
              Baa    -0.0013    -0.699    -0.249    -0.233  0.7009  0.6600 -0.2705
    49 H(1)   Bbb    -0.0013    -0.696    -0.248    -0.232 -0.5512  0.7419  0.3819
              Bcc     0.0026     1.394     0.498     0.465  0.4527 -0.1185  0.8837
 
              Baa    -0.0007    -0.370    -0.132    -0.123  0.7093  0.3358 -0.6197
    50 H(1)   Bbb    -0.0006    -0.345    -0.123    -0.115 -0.2636  0.9418  0.2086
              Bcc     0.0013     0.715     0.255     0.238  0.6537  0.0154  0.7566
 
              Baa    -0.0006    -0.337    -0.120    -0.112  0.2870  0.8574 -0.4273
    51 H(1)   Bbb    -0.0006    -0.319    -0.114    -0.106 -0.4220  0.5136  0.7471
              Bcc     0.0012     0.656     0.234     0.219  0.8600 -0.0341  0.5092
 
              Baa    -0.0011    -0.586    -0.209    -0.195  0.2532  0.9567 -0.1437
    52 H(1)   Bbb    -0.0011    -0.573    -0.204    -0.191 -0.2379  0.2055  0.9493
              Bcc     0.0022     1.158     0.413     0.386  0.9377 -0.2062  0.2797
 
              Baa    -0.0010    -0.533    -0.190    -0.178  0.4420  0.7284  0.5235
    53 H(1)   Bbb    -0.0009    -0.499    -0.178    -0.166 -0.5940 -0.1996  0.7793
              Bcc     0.0019     1.032     0.368     0.344  0.6721 -0.6554  0.3445
 
              Baa    -0.0004    -0.235    -0.084    -0.078  0.5292  0.6683  0.5229
    54 H(1)   Bbb    -0.0004    -0.232    -0.083    -0.078 -0.4665 -0.2856  0.8372
              Bcc     0.0009     0.468     0.167     0.156  0.7088 -0.6869  0.1606
 
              Baa    -0.0004    -0.197    -0.070    -0.066  0.6200  0.7776  0.1042
    55 H(1)   Bbb    -0.0004    -0.195    -0.070    -0.065  0.0095 -0.1403  0.9901
              Bcc     0.0007     0.392     0.140     0.131  0.7845 -0.6129 -0.0944
 
              Baa    -0.0006    -0.316    -0.113    -0.105  0.4845  0.8739 -0.0386
    56 H(1)   Bbb    -0.0006    -0.311    -0.111    -0.104  0.2711 -0.1080  0.9565
              Bcc     0.0012     0.627     0.224     0.209  0.8317 -0.4739 -0.2893
 
              Baa    -0.0017    -0.929    -0.332    -0.310  0.4392  0.8827  0.1675
    57 H(1)   Bbb    -0.0016    -0.880    -0.314    -0.293  0.1796 -0.2689  0.9463
              Bcc     0.0034     1.809     0.645     0.603  0.8803 -0.3855 -0.2766
 
              Baa    -0.0018    -0.951    -0.339    -0.317  0.1275  0.4979  0.8578
    58 H(1)   Bbb    -0.0017    -0.913    -0.326    -0.305 -0.0724  0.8673 -0.4926
              Bcc     0.0035     1.864     0.665     0.622  0.9892 -0.0007 -0.1466
 
              Baa    -0.0009    -0.497    -0.177    -0.166 -0.2056  0.7410  0.6393
    59 H(1)   Bbb    -0.0009    -0.485    -0.173    -0.162  0.2286 -0.5988  0.7676
              Bcc     0.0018     0.982     0.350     0.327  0.9516  0.3040 -0.0462
 
              Baa    -0.5217    24.917     8.891     8.311  0.8374  0.5377  0.0982
    60 Ni(61) Bbb    -0.1367     6.528     2.329     2.178 -0.5443  0.8039  0.2399
              Bcc     0.6584   -31.445   -11.220   -10.489  0.0501 -0.2543  0.9658
 
              Baa    -0.2308  -115.891   -41.353   -38.657 -0.1057 -0.5111  0.8530
    61 F(19)  Bbb    -0.1631   -81.917   -29.230   -27.325  0.9639  0.1581  0.2141
              Bcc     0.3939   197.808    70.583    65.982 -0.2443  0.8449  0.4760
 
              Baa    -0.2887  -144.987   -51.735   -48.363 -0.0543  0.6291  0.7754
    62 F(19)  Bbb    -0.0578   -29.044   -10.364    -9.688  0.9487  0.2747 -0.1564
              Bcc     0.3465   174.031    62.099    58.051 -0.3114  0.7272 -0.6118
 

 ---------------------------------------------------------------------------------

 Unable to Open any file for archive entry.
 1\1\GINC-NOTCH318\FOpt\UB3LYP\Gen\C30H26F2N2Ni1O1(3)\U1365460\06-Mar-2
 026\0\\# B3LYP gen 6D pseudo=read int=(grid=fine) empiricaldispersion=
 GD3BJ opt freq=noraman\\Lig2120.xyz\\0,3\C,-3.6620280123,-3.2570712844
 ,-1.4567035734\C,-2.4453954044,-3.3365202884,-0.7800124443\C,-1.592401
 7043,-2.2337138114,-0.7104315528\C,-1.9610302561,-1.0372337795,-1.3345
 968609\C,-1.1024304691,0.2019780985,-1.2336423063\N,0.2932642475,-0.07
 04481824,-0.8819476453\C,0.6818271528,0.8233911508,-0.0489060323\C,2.0
 508898785,0.8252892868,0.4758992674\C,2.5612737184,1.762984771,1.36475
 86612\C,3.8766487427,1.5907192729,1.7922879255\C,4.628931459,0.4950132
 187,1.3626921017\C,4.0216994747,-0.4186942228,0.4773271921\N,2.7755332
 401,-0.220491822,0.0384684278\C,4.707966589,-1.6615324235,-0.030645858
 1\C,6.0067223929,-1.9751570098,0.7198624105\C,6.8249214067,-0.69956034
 88,0.9468162315\C,6.0480542911,0.2762181552,1.8391077893\O,-0.21187631
 64,1.7209515739,0.3776691615\C,-1.5393357971,1.239619391,-0.1149814016
 \C,-2.2315955238,0.5370631044,1.0437788237\C,-1.5028732822,-0.05111469
 77,2.0815975358\C,-2.1525932616,-0.7958218091,3.0660018144\C,-3.535229
 3539,-0.9646527725,3.0218921336\C,-4.2683120865,-0.3759797873,1.990537
 6219\C,-3.621545791,0.3732152285,1.0116667832\C,-2.2898188967,2.473082
 116,-0.5797799471\C,-2.5865985651,3.4464810247,0.386729771\C,-3.260085
 1836,4.6126251971,0.0401965232\C,-3.6655648216,4.8208952243,-1.2808399
 655\C,-3.3830268581,3.857944968,-2.2456718047\C,-2.6928244451,2.693412
 1753,-1.8984242228\C,-3.1722704953,-0.9648192878,-2.0315282392\C,-4.02
 33394343,-2.0662540707,-2.0888930949\H,-4.3210340044,-4.1198043738,-1.
 5017566662\H,-2.1463956006,-4.2644611392,-0.3009068388\H,-0.6358511187
 ,-2.3331502966,-0.2017190155\H,-1.0799428798,0.700428475,-2.2077516345
 \H,1.9477583897,2.5913782314,1.6993460311\H,4.322865198,2.3096540125,2
 .474575144\H,4.9034253344,-1.5221312565,-1.1031152151\H,3.9872907302,-
 2.4854172761,0.0455290878\H,6.5851897942,-2.7147202545,0.157020482\H,5
 .7715635946,-2.4297424735,1.6917880349\H,7.0397336391,-0.224192087,-0.
 0199452348\H,7.7897131906,-0.9311924964,1.4108062578\H,6.0153342563,-0
 .1221988319,2.8639235574\H,6.5626292034,1.242573239,1.9049272702\H,-0.
 4265120141,0.0605624614,2.1304526155\H,-1.5708991083,-1.2495374398,3.8
 630033196\H,-4.0389945141,-1.5507151601,3.7851009532\H,-5.3461879837,-
 0.5010687633,1.945153149\H,-4.1961239903,0.8206427906,0.2083736201\H,-
 2.2867522536,3.2763462894,1.4159040082\H,-3.4757104298,5.3569826922,0.
 8012615205\H,-4.1993781845,5.7269714419,-1.5524533299\H,-3.6943006004,
 4.0067785262,-3.2754087804\H,-2.4822405425,1.9676731929,-2.6744804265\
 H,-3.4614941275,-0.0393398633,-2.5222381243\H,-4.9626596081,-1.9955911
 9,-2.6303954637\Ni,1.7316876576,-1.4743186822,-1.2253170781\F,1.362556
 7805,-2.7426910665,0.0699032164\F,2.3549725564,-1.3109370603,-2.917665
 6857\\Version=ES64L-G16RevC.01\State=3-A\HF=-1712.9014607\S2=2.006912\
 S2-1=0.\S2A=2.000027\RMSD=1.350e-09\RMSF=6.736e-06\Dipole=-0.0425083,2
 .4860834,2.1152814\Quadrupole=21.1767914,-8.3285327,-12.8482587,2.1085
 75,17.2168582,-4.4604691\PG=C01 [X(C30H26F2N2Ni1O1)]\\@
 The archive entry for this job was punched.


 THOSE WHO ARE UNABLE TO LEARN FROM PAST MEETINGS
 ARE CONDEMNED TO REPEAT THEM.
 Job cpu time:       0 days  6 hours 21 minutes 32.6 seconds.
 Elapsed time:       0 days  0 hours 24 minutes  3.7 seconds.
 File lengths (MBytes):  RWF=    470 Int=      0 D2E=      0 Chk=     44 Scr=      2
 Normal termination of Gaussian 16 at Fri Mar  6 16:49:06 2026.
 Link1:  Proceeding to internal job step number  2.
 ------------------------------------------------------------------
 #N Geom=AllCheck Guess=TCheck SCRF=Check GenChk UB3LYP/ChkBas Freq
 ------------------------------------------------------------------
 1/10=4,29=7,30=1,38=1,40=1/1,3;
 2/12=2,40=1/2;
 3/5=7,6=2,8=2,11=2,14=-4,16=1,17=8,25=1,30=1,67=1,70=2,71=2,74=-5,75=-4,82=7,116=2,124=41,140=1/1,2,3;
 4/5=101/1;
 5/5=2,38=6,98=1/2;
 8/6=4,10=90,11=11/1;
 11/6=1,8=1,9=11,15=111,16=1/1,2,10;
 10/6=1/2;
 6/7=2,8=2,9=2,10=2,28=1/1;
 7/8=1,10=1,25=1/1,2,3,16;
 1/10=4,30=1/3;
 99//99;
 Structure from the checkpoint file:  "Lig2120_xyz_3.chk"
 -----------
 Lig2120.xyz
 -----------
 Charge =  0 Multiplicity = 3
 Redundant internal coordinates found in file.  (old form).
 C,0,-3.6620280123,-3.2570712844,-1.4567035734
 C,0,-2.4453954044,-3.3365202884,-0.7800124443
 C,0,-1.5924017043,-2.2337138114,-0.7104315528
 C,0,-1.9610302561,-1.0372337795,-1.3345968609
 C,0,-1.1024304691,0.2019780985,-1.2336423063
 N,0,0.2932642475,-0.0704481824,-0.8819476453
 C,0,0.6818271528,0.8233911508,-0.0489060323
 C,0,2.0508898785,0.8252892868,0.4758992674
 C,0,2.5612737184,1.762984771,1.3647586612
 C,0,3.8766487427,1.5907192729,1.7922879255
 C,0,4.628931459,0.4950132187,1.3626921017
 C,0,4.0216994747,-0.4186942228,0.4773271921
 N,0,2.7755332401,-0.220491822,0.0384684278
 C,0,4.707966589,-1.6615324235,-0.0306458581
 C,0,6.0067223929,-1.9751570098,0.7198624105
 C,0,6.8249214067,-0.6995603488,0.9468162315
 C,0,6.0480542911,0.2762181552,1.8391077893
 O,0,-0.2118763164,1.7209515739,0.3776691615
 C,0,-1.5393357971,1.239619391,-0.1149814016
 C,0,-2.2315955238,0.5370631044,1.0437788237
 C,0,-1.5028732822,-0.0511146977,2.0815975358
 C,0,-2.1525932616,-0.7958218091,3.0660018144
 C,0,-3.5352293539,-0.9646527725,3.0218921336
 C,0,-4.2683120865,-0.3759797873,1.9905376219
 C,0,-3.621545791,0.3732152285,1.0116667832
 C,0,-2.2898188967,2.473082116,-0.5797799471
 C,0,-2.5865985651,3.4464810247,0.386729771
 C,0,-3.2600851836,4.6126251971,0.0401965232
 C,0,-3.6655648216,4.8208952243,-1.2808399655
 C,0,-3.3830268581,3.857944968,-2.2456718047
 C,0,-2.6928244451,2.6934121753,-1.8984242228
 C,0,-3.1722704953,-0.9648192878,-2.0315282392
 C,0,-4.0233394343,-2.0662540707,-2.0888930949
 H,0,-4.3210340044,-4.1198043738,-1.5017566662
 H,0,-2.1463956006,-4.2644611392,-0.3009068388
 H,0,-0.6358511187,-2.3331502966,-0.2017190155
 H,0,-1.0799428798,0.700428475,-2.2077516345
 H,0,1.9477583897,2.5913782314,1.6993460311
 H,0,4.322865198,2.3096540125,2.474575144
 H,0,4.9034253344,-1.5221312565,-1.1031152151
 H,0,3.9872907302,-2.4854172761,0.0455290878
 H,0,6.5851897942,-2.7147202545,0.157020482
 H,0,5.7715635946,-2.4297424735,1.6917880349
 H,0,7.0397336391,-0.224192087,-0.0199452348
 H,0,7.7897131906,-0.9311924964,1.4108062578
 H,0,6.0153342563,-0.1221988319,2.8639235574
 H,0,6.5626292034,1.242573239,1.9049272702
 H,0,-0.4265120141,0.0605624614,2.1304526155
 H,0,-1.5708991083,-1.2495374398,3.8630033196
 H,0,-4.0389945141,-1.5507151601,3.7851009532
 H,0,-5.3461879837,-0.5010687633,1.945153149
 H,0,-4.1961239903,0.8206427906,0.2083736201
 H,0,-2.2867522536,3.2763462894,1.4159040082
 H,0,-3.4757104298,5.3569826922,0.8012615205
 H,0,-4.1993781845,5.7269714419,-1.5524533299
 H,0,-3.6943006004,4.0067785262,-3.2754087804
 H,0,-2.4822405425,1.9676731929,-2.6744804265
 H,0,-3.4614941275,-0.0393398633,-2.5222381243
 H,0,-4.9626596081,-1.99559119,-2.6303954637
 Ni,0,1.7316876576,-1.4743186822,-1.2253170781
 F,0,1.3625567805,-2.7426910665,0.0699032164
 F,0,2.3549725564,-1.3109370603,-2.9176656857
 Recover connectivity data from disk.

 GradGradGradGradGradGradGradGradGradGradGradGradGradGradGradGradGradGrad
 Berny optimization.
 Initialization pass.
                           ----------------------------
                           !    Initial Parameters    !
                           ! (Angstroms and Degrees)  !
 --------------------------                            --------------------------
 ! Name  Definition              Value          Derivative Info.                !
 --------------------------------------------------------------------------------
 ! R1    R(1,2)                  1.3944         calculate D2E/DX2 analytically  !
 ! R2    R(1,33)                 1.3958         calculate D2E/DX2 analytically  !
 ! R3    R(1,34)                 1.0866         calculate D2E/DX2 analytically  !
 ! R4    R(2,3)                  1.3959         calculate D2E/DX2 analytically  !
 ! R5    R(2,35)                 1.0863         calculate D2E/DX2 analytically  !
 ! R6    R(3,4)                  1.3989         calculate D2E/DX2 analytically  !
 ! R7    R(3,36)                 1.088          calculate D2E/DX2 analytically  !
 ! R8    R(4,5)                  1.511          calculate D2E/DX2 analytically  !
 ! R9    R(4,32)                 1.3993         calculate D2E/DX2 analytically  !
 ! R10   R(5,6)                  1.4649         calculate D2E/DX2 analytically  !
 ! R11   R(5,19)                 1.5871         calculate D2E/DX2 analytically  !
 ! R12   R(5,37)                 1.0945         calculate D2E/DX2 analytically  !
 ! R13   R(6,7)                  1.2821         calculate D2E/DX2 analytically  !
 ! R14   R(6,60)                 2.0391         calculate D2E/DX2 analytically  !
 ! R15   R(7,8)                  1.4662         calculate D2E/DX2 analytically  !
 ! R16   R(7,18)                 1.3365         calculate D2E/DX2 analytically  !
 ! R17   R(8,9)                  1.3892         calculate D2E/DX2 analytically  !
 ! R18   R(8,13)                 1.3454         calculate D2E/DX2 analytically  !
 ! R19   R(9,10)                 1.3938         calculate D2E/DX2 analytically  !
 ! R20   R(9,38)                 1.0838         calculate D2E/DX2 analytically  !
 ! R21   R(10,11)                1.3968         calculate D2E/DX2 analytically  !
 ! R22   R(10,39)                1.087          calculate D2E/DX2 analytically  !
 ! R23   R(11,12)                1.4098         calculate D2E/DX2 analytically  !
 ! R24   R(11,17)                1.5129         calculate D2E/DX2 analytically  !
 ! R25   R(12,13)                1.336          calculate D2E/DX2 analytically  !
 ! R26   R(12,14)                1.5079         calculate D2E/DX2 analytically  !
 ! R27   R(13,60)                2.0637         calculate D2E/DX2 analytically  !
 ! R28   R(14,15)                1.5324         calculate D2E/DX2 analytically  !
 ! R29   R(14,40)                1.099          calculate D2E/DX2 analytically  !
 ! R30   R(14,41)                1.0973         calculate D2E/DX2 analytically  !
 ! R31   R(15,16)                1.5324         calculate D2E/DX2 analytically  !
 ! R32   R(15,42)                1.0947         calculate D2E/DX2 analytically  !
 ! R33   R(15,43)                1.0984         calculate D2E/DX2 analytically  !
 ! R34   R(16,17)                1.5336         calculate D2E/DX2 analytically  !
 ! R35   R(16,44)                1.0985         calculate D2E/DX2 analytically  !
 ! R36   R(16,45)                1.0953         calculate D2E/DX2 analytically  !
 ! R37   R(17,46)                1.1            calculate D2E/DX2 analytically  !
 ! R38   R(17,47)                1.0968         calculate D2E/DX2 analytically  !
 ! R39   R(18,19)                1.4955         calculate D2E/DX2 analytically  !
 ! R40   R(19,20)                1.5217         calculate D2E/DX2 analytically  !
 ! R41   R(19,26)                1.5168         calculate D2E/DX2 analytically  !
 ! R42   R(20,21)                1.3979         calculate D2E/DX2 analytically  !
 ! R43   R(20,25)                1.3999         calculate D2E/DX2 analytically  !
 ! R44   R(21,22)                1.3949         calculate D2E/DX2 analytically  !
 ! R45   R(21,48)                1.0832         calculate D2E/DX2 analytically  !
 ! R46   R(22,23)                1.3936         calculate D2E/DX2 analytically  !
 ! R47   R(22,49)                1.086          calculate D2E/DX2 analytically  !
 ! R48   R(23,24)                1.3956         calculate D2E/DX2 analytically  !
 ! R49   R(23,50)                1.0862         calculate D2E/DX2 analytically  !
 ! R50   R(24,25)                1.392          calculate D2E/DX2 analytically  !
 ! R51   R(24,51)                1.0861         calculate D2E/DX2 analytically  !
 ! R52   R(25,52)                1.0843         calculate D2E/DX2 analytically  !
 ! R53   R(26,27)                1.4035         calculate D2E/DX2 analytically  !
 ! R54   R(26,31)                1.3963         calculate D2E/DX2 analytically  !
 ! R55   R(27,28)                1.3905         calculate D2E/DX2 analytically  !
 ! R56   R(27,53)                1.0854         calculate D2E/DX2 analytically  !
 ! R57   R(28,29)                1.3975         calculate D2E/DX2 analytically  !
 ! R58   R(28,54)                1.0862         calculate D2E/DX2 analytically  !
 ! R59   R(29,30)                1.3921         calculate D2E/DX2 analytically  !
 ! R60   R(29,55)                1.0861         calculate D2E/DX2 analytically  !
 ! R61   R(30,31)                1.3975         calculate D2E/DX2 analytically  !
 ! R62   R(30,56)                1.086          calculate D2E/DX2 analytically  !
 ! R63   R(31,57)                1.0832         calculate D2E/DX2 analytically  !
 ! R64   R(32,33)                1.3931         calculate D2E/DX2 analytically  !
 ! R65   R(32,58)                1.0867         calculate D2E/DX2 analytically  !
 ! R66   R(33,59)                1.0865         calculate D2E/DX2 analytically  !
 ! R67   R(60,61)                1.85           calculate D2E/DX2 analytically  !
 ! R68   R(60,62)                1.8109         calculate D2E/DX2 analytically  !
 ! A1    A(2,1,33)             119.6208         calculate D2E/DX2 analytically  !
 ! A2    A(2,1,34)             120.2687         calculate D2E/DX2 analytically  !
 ! A3    A(33,1,34)            120.1071         calculate D2E/DX2 analytically  !
 ! A4    A(1,2,3)              120.8187         calculate D2E/DX2 analytically  !
 ! A5    A(1,2,35)             120.1894         calculate D2E/DX2 analytically  !
 ! A6    A(3,2,35)             118.9915         calculate D2E/DX2 analytically  !
 ! A7    A(2,3,4)              119.5001         calculate D2E/DX2 analytically  !
 ! A8    A(2,3,36)             119.2322         calculate D2E/DX2 analytically  !
 ! A9    A(4,3,36)             121.2295         calculate D2E/DX2 analytically  !
 ! A10   A(3,4,5)              121.46           calculate D2E/DX2 analytically  !
 ! A11   A(3,4,32)             119.6413         calculate D2E/DX2 analytically  !
 ! A12   A(5,4,32)             118.8623         calculate D2E/DX2 analytically  !
 ! A13   A(4,5,6)              113.8864         calculate D2E/DX2 analytically  !
 ! A14   A(4,5,19)             115.2687         calculate D2E/DX2 analytically  !
 ! A15   A(4,5,37)             109.0096         calculate D2E/DX2 analytically  !
 ! A16   A(6,5,19)             102.3947         calculate D2E/DX2 analytically  !
 ! A17   A(6,5,37)             106.1889         calculate D2E/DX2 analytically  !
 ! A18   A(19,5,37)            109.5864         calculate D2E/DX2 analytically  !
 ! A19   A(5,6,7)              108.3659         calculate D2E/DX2 analytically  !
 ! A20   A(5,6,60)             139.4399         calculate D2E/DX2 analytically  !
 ! A21   A(7,6,60)             112.0613         calculate D2E/DX2 analytically  !
 ! A22   A(6,7,8)              121.0938         calculate D2E/DX2 analytically  !
 ! A23   A(6,7,18)             118.2229         calculate D2E/DX2 analytically  !
 ! A24   A(8,7,18)             120.6149         calculate D2E/DX2 analytically  !
 ! A25   A(7,8,9)              124.9563         calculate D2E/DX2 analytically  !
 ! A26   A(7,8,13)             112.6773         calculate D2E/DX2 analytically  !
 ! A27   A(9,8,13)             122.3319         calculate D2E/DX2 analytically  !
 ! A28   A(8,9,10)             117.359          calculate D2E/DX2 analytically  !
 ! A29   A(8,9,38)             120.3639         calculate D2E/DX2 analytically  !
 ! A30   A(10,9,38)            122.2768         calculate D2E/DX2 analytically  !
 ! A31   A(9,10,11)            120.7229         calculate D2E/DX2 analytically  !
 ! A32   A(9,10,39)            119.8817         calculate D2E/DX2 analytically  !
 ! A33   A(11,10,39)           119.3931         calculate D2E/DX2 analytically  !
 ! A34   A(10,11,12)           118.0073         calculate D2E/DX2 analytically  !
 ! A35   A(10,11,17)           121.453          calculate D2E/DX2 analytically  !
 ! A36   A(12,11,17)           120.5358         calculate D2E/DX2 analytically  !
 ! A37   A(11,12,13)           120.792          calculate D2E/DX2 analytically  !
 ! A38   A(11,12,14)           123.3492         calculate D2E/DX2 analytically  !
 ! A39   A(13,12,14)           115.8586         calculate D2E/DX2 analytically  !
 ! A40   A(8,13,12)            120.725          calculate D2E/DX2 analytically  !
 ! A41   A(8,13,60)            113.5113         calculate D2E/DX2 analytically  !
 ! A42   A(12,13,60)           125.6507         calculate D2E/DX2 analytically  !
 ! A43   A(12,14,15)           112.9184         calculate D2E/DX2 analytically  !
 ! A44   A(12,14,40)           107.7667         calculate D2E/DX2 analytically  !
 ! A45   A(12,14,41)           107.252          calculate D2E/DX2 analytically  !
 ! A46   A(15,14,40)           110.68           calculate D2E/DX2 analytically  !
 ! A47   A(15,14,41)           111.6523         calculate D2E/DX2 analytically  !
 ! A48   A(40,14,41)           106.2482         calculate D2E/DX2 analytically  !
 ! A49   A(14,15,16)           110.7748         calculate D2E/DX2 analytically  !
 ! A50   A(14,15,42)           109.5301         calculate D2E/DX2 analytically  !
 ! A51   A(14,15,43)           109.6695         calculate D2E/DX2 analytically  !
 ! A52   A(16,15,42)           110.8783         calculate D2E/DX2 analytically  !
 ! A53   A(16,15,43)           109.133          calculate D2E/DX2 analytically  !
 ! A54   A(42,15,43)           106.7664         calculate D2E/DX2 analytically  !
 ! A55   A(15,16,17)           110.2035         calculate D2E/DX2 analytically  !
 ! A56   A(15,16,44)           109.5297         calculate D2E/DX2 analytically  !
 ! A57   A(15,16,45)           110.9169         calculate D2E/DX2 analytically  !
 ! A58   A(17,16,44)           109.6194         calculate D2E/DX2 analytically  !
 ! A59   A(17,16,45)           109.5289         calculate D2E/DX2 analytically  !
 ! A60   A(44,16,45)           106.9817         calculate D2E/DX2 analytically  !
 ! A61   A(11,17,16)           112.5803         calculate D2E/DX2 analytically  !
 ! A62   A(11,17,46)           108.5335         calculate D2E/DX2 analytically  !
 ! A63   A(11,17,47)           109.3639         calculate D2E/DX2 analytically  !
 ! A64   A(16,17,46)           109.0669         calculate D2E/DX2 analytically  !
 ! A65   A(16,17,47)           110.9687         calculate D2E/DX2 analytically  !
 ! A66   A(46,17,47)           106.0909         calculate D2E/DX2 analytically  !
 ! A67   A(7,18,19)            105.7986         calculate D2E/DX2 analytically  !
 ! A68   A(5,19,18)            101.4353         calculate D2E/DX2 analytically  !
 ! A69   A(5,19,20)            111.107          calculate D2E/DX2 analytically  !
 ! A70   A(5,19,26)            116.8641         calculate D2E/DX2 analytically  !
 ! A71   A(18,19,20)           107.551          calculate D2E/DX2 analytically  !
 ! A72   A(18,19,26)           106.1646         calculate D2E/DX2 analytically  !
 ! A73   A(20,19,26)           112.5636         calculate D2E/DX2 analytically  !
 ! A74   A(19,20,21)           121.4976         calculate D2E/DX2 analytically  !
 ! A75   A(19,20,25)           119.2257         calculate D2E/DX2 analytically  !
 ! A76   A(21,20,25)           119.0367         calculate D2E/DX2 analytically  !
 ! A77   A(20,21,22)           120.3818         calculate D2E/DX2 analytically  !
 ! A78   A(20,21,48)           120.5374         calculate D2E/DX2 analytically  !
 ! A79   A(22,21,48)           119.0801         calculate D2E/DX2 analytically  !
 ! A80   A(21,22,23)           120.2951         calculate D2E/DX2 analytically  !
 ! A81   A(21,22,49)           119.4368         calculate D2E/DX2 analytically  !
 ! A82   A(23,22,49)           120.2664         calculate D2E/DX2 analytically  !
 ! A83   A(22,23,24)           119.5673         calculate D2E/DX2 analytically  !
 ! A84   A(22,23,50)           120.2174         calculate D2E/DX2 analytically  !
 ! A85   A(24,23,50)           120.2153         calculate D2E/DX2 analytically  !
 ! A86   A(23,24,25)           120.1741         calculate D2E/DX2 analytically  !
 ! A87   A(23,24,51)           120.2405         calculate D2E/DX2 analytically  !
 ! A88   A(25,24,51)           119.5853         calculate D2E/DX2 analytically  !
 ! A89   A(20,25,24)           120.5414         calculate D2E/DX2 analytically  !
 ! A90   A(20,25,52)           119.6594         calculate D2E/DX2 analytically  !
 ! A91   A(24,25,52)           119.7919         calculate D2E/DX2 analytically  !
 ! A92   A(19,26,27)           117.2328         calculate D2E/DX2 analytically  !
 ! A93   A(19,26,31)           124.0901         calculate D2E/DX2 analytically  !
 ! A94   A(27,26,31)           118.6767         calculate D2E/DX2 analytically  !
 ! A95   A(26,27,28)           120.827          calculate D2E/DX2 analytically  !
 ! A96   A(26,27,53)           119.0688         calculate D2E/DX2 analytically  !
 ! A97   A(28,27,53)           120.1036         calculate D2E/DX2 analytically  !
 ! A98   A(27,28,29)           120.0726         calculate D2E/DX2 analytically  !
 ! A99   A(27,28,54)           119.7522         calculate D2E/DX2 analytically  !
 ! A100  A(29,28,54)           120.1738         calculate D2E/DX2 analytically  !
 ! A101  A(28,29,30)           119.5499         calculate D2E/DX2 analytically  !
 ! A102  A(28,29,55)           120.2201         calculate D2E/DX2 analytically  !
 ! A103  A(30,29,55)           120.2298         calculate D2E/DX2 analytically  !
 ! A104  A(29,30,31)           120.2926         calculate D2E/DX2 analytically  !
 ! A105  A(29,30,56)           120.2776         calculate D2E/DX2 analytically  !
 ! A106  A(31,30,56)           119.4295         calculate D2E/DX2 analytically  !
 ! A107  A(26,31,30)           120.5751         calculate D2E/DX2 analytically  !
 ! A108  A(26,31,57)           120.9811         calculate D2E/DX2 analytically  !
 ! A109  A(30,31,57)           118.4435         calculate D2E/DX2 analytically  !
 ! A110  A(4,32,33)            120.5572         calculate D2E/DX2 analytically  !
 ! A111  A(4,32,58)            119.9566         calculate D2E/DX2 analytically  !
 ! A112  A(33,32,58)           119.4811         calculate D2E/DX2 analytically  !
 ! A113  A(1,33,32)            119.85           calculate D2E/DX2 analytically  !
 ! A114  A(1,33,59)            120.3312         calculate D2E/DX2 analytically  !
 ! A115  A(32,33,59)           119.8179         calculate D2E/DX2 analytically  !
 ! A116  A(6,60,13)             80.5257         calculate D2E/DX2 analytically  !
 ! A117  A(6,60,61)            102.3202         calculate D2E/DX2 analytically  !
 ! A118  A(6,60,62)            109.7588         calculate D2E/DX2 analytically  !
 ! A119  A(13,60,61)            95.0904         calculate D2E/DX2 analytically  !
 ! A120  A(13,60,62)           110.084          calculate D2E/DX2 analytically  !
 ! A121  A(61,60,62)           141.704          calculate D2E/DX2 analytically  !
 ! D1    D(33,1,2,3)             0.9288         calculate D2E/DX2 analytically  !
 ! D2    D(33,1,2,35)         -178.8317         calculate D2E/DX2 analytically  !
 ! D3    D(34,1,2,3)          -179.7449         calculate D2E/DX2 analytically  !
 ! D4    D(34,1,2,35)            0.4946         calculate D2E/DX2 analytically  !
 ! D5    D(2,1,33,32)           -0.4559         calculate D2E/DX2 analytically  !
 ! D6    D(2,1,33,59)          179.1996         calculate D2E/DX2 analytically  !
 ! D7    D(34,1,33,32)        -179.7833         calculate D2E/DX2 analytically  !
 ! D8    D(34,1,33,59)          -0.1277         calculate D2E/DX2 analytically  !
 ! D9    D(1,2,3,4)             -0.3739         calculate D2E/DX2 analytically  !
 ! D10   D(1,2,3,36)          -178.1556         calculate D2E/DX2 analytically  !
 ! D11   D(35,2,3,4)           179.3895         calculate D2E/DX2 analytically  !
 ! D12   D(35,2,3,36)            1.6078         calculate D2E/DX2 analytically  !
 ! D13   D(2,3,4,5)            177.1329         calculate D2E/DX2 analytically  !
 ! D14   D(2,3,4,32)            -0.6467         calculate D2E/DX2 analytically  !
 ! D15   D(36,3,4,5)            -5.1309         calculate D2E/DX2 analytically  !
 ! D16   D(36,3,4,32)          177.0895         calculate D2E/DX2 analytically  !
 ! D17   D(3,4,5,6)             20.9125         calculate D2E/DX2 analytically  !
 ! D18   D(3,4,5,19)           -97.0329         calculate D2E/DX2 analytically  !
 ! D19   D(3,4,5,37)           139.277          calculate D2E/DX2 analytically  !
 ! D20   D(32,4,5,6)          -161.291          calculate D2E/DX2 analytically  !
 ! D21   D(32,4,5,19)           80.7636         calculate D2E/DX2 analytically  !
 ! D22   D(32,4,5,37)          -42.9266         calculate D2E/DX2 analytically  !
 ! D23   D(3,4,32,33)            1.1194         calculate D2E/DX2 analytically  !
 ! D24   D(3,4,32,58)         -179.7125         calculate D2E/DX2 analytically  !
 ! D25   D(5,4,32,33)         -176.718          calculate D2E/DX2 analytically  !
 ! D26   D(5,4,32,58)            2.4501         calculate D2E/DX2 analytically  !
 ! D27   D(4,5,6,7)           -139.4932         calculate D2E/DX2 analytically  !
 ! D28   D(4,5,6,60)            35.7239         calculate D2E/DX2 analytically  !
 ! D29   D(19,5,6,7)           -14.3715         calculate D2E/DX2 analytically  !
 ! D30   D(19,5,6,60)          160.8456         calculate D2E/DX2 analytically  !
 ! D31   D(37,5,6,7)           100.539          calculate D2E/DX2 analytically  !
 ! D32   D(37,5,6,60)          -84.2439         calculate D2E/DX2 analytically  !
 ! D33   D(4,5,19,18)          142.7702         calculate D2E/DX2 analytically  !
 ! D34   D(4,5,19,20)           28.6992         calculate D2E/DX2 analytically  !
 ! D35   D(4,5,19,26)         -102.341          calculate D2E/DX2 analytically  !
 ! D36   D(6,5,19,18)           18.5628         calculate D2E/DX2 analytically  !
 ! D37   D(6,5,19,20)          -95.5082         calculate D2E/DX2 analytically  !
 ! D38   D(6,5,19,26)          133.4516         calculate D2E/DX2 analytically  !
 ! D39   D(37,5,19,18)         -93.8444         calculate D2E/DX2 analytically  !
 ! D40   D(37,5,19,20)         152.0846         calculate D2E/DX2 analytically  !
 ! D41   D(37,5,19,26)          21.0444         calculate D2E/DX2 analytically  !
 ! D42   D(5,6,7,8)           -179.1613         calculate D2E/DX2 analytically  !
 ! D43   D(5,6,7,18)             3.8288         calculate D2E/DX2 analytically  !
 ! D44   D(60,6,7,8)             4.1925         calculate D2E/DX2 analytically  !
 ! D45   D(60,6,7,18)         -172.8174         calculate D2E/DX2 analytically  !
 ! D46   D(5,6,60,13)         -178.0752         calculate D2E/DX2 analytically  !
 ! D47   D(5,6,60,61)          -84.8863         calculate D2E/DX2 analytically  !
 ! D48   D(5,6,60,62)           73.8668         calculate D2E/DX2 analytically  !
 ! D49   D(7,6,60,13)           -2.9733         calculate D2E/DX2 analytically  !
 ! D50   D(7,6,60,61)           90.2155         calculate D2E/DX2 analytically  !
 ! D51   D(7,6,60,62)         -111.0314         calculate D2E/DX2 analytically  !
 ! D52   D(6,7,8,9)            179.0696         calculate D2E/DX2 analytically  !
 ! D53   D(6,7,8,13)            -3.0318         calculate D2E/DX2 analytically  !
 ! D54   D(18,7,8,9)            -3.9918         calculate D2E/DX2 analytically  !
 ! D55   D(18,7,8,13)          173.9069         calculate D2E/DX2 analytically  !
 ! D56   D(6,7,18,19)            9.5151         calculate D2E/DX2 analytically  !
 ! D57   D(8,7,18,19)         -167.5097         calculate D2E/DX2 analytically  !
 ! D58   D(7,8,9,10)           178.1466         calculate D2E/DX2 analytically  !
 ! D59   D(7,8,9,38)            -2.0595         calculate D2E/DX2 analytically  !
 ! D60   D(13,8,9,10)            0.4414         calculate D2E/DX2 analytically  !
 ! D61   D(13,8,9,38)         -179.7648         calculate D2E/DX2 analytically  !
 ! D62   D(7,8,13,12)         -176.1567         calculate D2E/DX2 analytically  !
 ! D63   D(7,8,13,60)            0.1899         calculate D2E/DX2 analytically  !
 ! D64   D(9,8,13,12)            1.805          calculate D2E/DX2 analytically  !
 ! D65   D(9,8,13,60)          178.1517         calculate D2E/DX2 analytically  !
 ! D66   D(8,9,10,11)           -1.5978         calculate D2E/DX2 analytically  !
 ! D67   D(8,9,10,39)          178.9618         calculate D2E/DX2 analytically  !
 ! D68   D(38,9,10,11)         178.6125         calculate D2E/DX2 analytically  !
 ! D69   D(38,9,10,39)          -0.8278         calculate D2E/DX2 analytically  !
 ! D70   D(9,10,11,12)           0.5976         calculate D2E/DX2 analytically  !
 ! D71   D(9,10,11,17)        -178.6973         calculate D2E/DX2 analytically  !
 ! D72   D(39,10,11,12)       -179.9593         calculate D2E/DX2 analytically  !
 ! D73   D(39,10,11,17)          0.7458         calculate D2E/DX2 analytically  !
 ! D74   D(10,11,12,13)          1.6546         calculate D2E/DX2 analytically  !
 ! D75   D(10,11,12,14)       -178.2078         calculate D2E/DX2 analytically  !
 ! D76   D(17,11,12,13)       -179.0436         calculate D2E/DX2 analytically  !
 ! D77   D(17,11,12,14)          1.0939         calculate D2E/DX2 analytically  !
 ! D78   D(10,11,17,16)       -162.3361         calculate D2E/DX2 analytically  !
 ! D79   D(10,11,17,46)         76.8294         calculate D2E/DX2 analytically  !
 ! D80   D(10,11,17,47)        -38.4904         calculate D2E/DX2 analytically  !
 ! D81   D(12,11,17,16)         18.3866         calculate D2E/DX2 analytically  !
 ! D82   D(12,11,17,46)       -102.4479         calculate D2E/DX2 analytically  !
 ! D83   D(12,11,17,47)        142.2322         calculate D2E/DX2 analytically  !
 ! D84   D(11,12,13,8)          -2.8587         calculate D2E/DX2 analytically  !
 ! D85   D(11,12,13,60)       -178.7352         calculate D2E/DX2 analytically  !
 ! D86   D(14,12,13,8)         177.0137         calculate D2E/DX2 analytically  !
 ! D87   D(14,12,13,60)          1.1371         calculate D2E/DX2 analytically  !
 ! D88   D(11,12,14,15)         11.4606         calculate D2E/DX2 analytically  !
 ! D89   D(11,12,14,40)       -111.0932         calculate D2E/DX2 analytically  !
 ! D90   D(11,12,14,41)        134.8802         calculate D2E/DX2 analytically  !
 ! D91   D(13,12,14,15)       -168.4081         calculate D2E/DX2 analytically  !
 ! D92   D(13,12,14,40)         69.0381         calculate D2E/DX2 analytically  !
 ! D93   D(13,12,14,41)        -44.9885         calculate D2E/DX2 analytically  !
 ! D94   D(8,13,60,6)            1.4291         calculate D2E/DX2 analytically  !
 ! D95   D(8,13,60,61)        -100.2434         calculate D2E/DX2 analytically  !
 ! D96   D(8,13,60,62)         109.1216         calculate D2E/DX2 analytically  !
 ! D97   D(12,13,60,6)         177.5639         calculate D2E/DX2 analytically  !
 ! D98   D(12,13,60,61)         75.8914         calculate D2E/DX2 analytically  !
 ! D99   D(12,13,60,62)        -74.7435         calculate D2E/DX2 analytically  !
 ! D100  D(12,14,15,16)        -42.8715         calculate D2E/DX2 analytically  !
 ! D101  D(12,14,15,42)       -165.487          calculate D2E/DX2 analytically  !
 ! D102  D(12,14,15,43)         77.6512         calculate D2E/DX2 analytically  !
 ! D103  D(40,14,15,16)         78.0394         calculate D2E/DX2 analytically  !
 ! D104  D(40,14,15,42)        -44.5761         calculate D2E/DX2 analytically  !
 ! D105  D(40,14,15,43)       -161.4379         calculate D2E/DX2 analytically  !
 ! D106  D(41,14,15,16)       -163.8209         calculate D2E/DX2 analytically  !
 ! D107  D(41,14,15,42)         73.5636         calculate D2E/DX2 analytically  !
 ! D108  D(41,14,15,43)        -43.2982         calculate D2E/DX2 analytically  !
 ! D109  D(14,15,16,17)         63.0931         calculate D2E/DX2 analytically  !
 ! D110  D(14,15,16,44)        -57.581          calculate D2E/DX2 analytically  !
 ! D111  D(14,15,16,45)       -175.4419         calculate D2E/DX2 analytically  !
 ! D112  D(42,15,16,17)       -175.0786         calculate D2E/DX2 analytically  !
 ! D113  D(42,15,16,44)         64.2473         calculate D2E/DX2 analytically  !
 ! D114  D(42,15,16,45)        -53.6136         calculate D2E/DX2 analytically  !
 ! D115  D(43,15,16,17)        -57.7481         calculate D2E/DX2 analytically  !
 ! D116  D(43,15,16,44)       -178.4222         calculate D2E/DX2 analytically  !
 ! D117  D(43,15,16,45)         63.7169         calculate D2E/DX2 analytically  !
 ! D118  D(15,16,17,11)        -49.764          calculate D2E/DX2 analytically  !
 ! D119  D(15,16,17,46)         70.7644         calculate D2E/DX2 analytically  !
 ! D120  D(15,16,17,47)       -172.7158         calculate D2E/DX2 analytically  !
 ! D121  D(44,16,17,11)         70.8563         calculate D2E/DX2 analytically  !
 ! D122  D(44,16,17,46)       -168.6153         calculate D2E/DX2 analytically  !
 ! D123  D(44,16,17,47)        -52.0955         calculate D2E/DX2 analytically  !
 ! D124  D(45,16,17,11)       -172.0513         calculate D2E/DX2 analytically  !
 ! D125  D(45,16,17,46)        -51.5229         calculate D2E/DX2 analytically  !
 ! D126  D(45,16,17,47)         64.997          calculate D2E/DX2 analytically  !
 ! D127  D(7,18,19,5)          -16.9675         calculate D2E/DX2 analytically  !
 ! D128  D(7,18,19,20)          99.7324         calculate D2E/DX2 analytically  !
 ! D129  D(7,18,19,26)        -139.5583         calculate D2E/DX2 analytically  !
 ! D130  D(5,19,20,21)          83.9778         calculate D2E/DX2 analytically  !
 ! D131  D(5,19,20,25)         -90.3381         calculate D2E/DX2 analytically  !
 ! D132  D(18,19,20,21)        -26.2028         calculate D2E/DX2 analytically  !
 ! D133  D(18,19,20,25)        159.4812         calculate D2E/DX2 analytically  !
 ! D134  D(26,19,20,21)       -142.7934         calculate D2E/DX2 analytically  !
 ! D135  D(26,19,20,25)         42.8907         calculate D2E/DX2 analytically  !
 ! D136  D(5,19,26,27)        -175.0672         calculate D2E/DX2 analytically  !
 ! D137  D(5,19,26,31)           4.723          calculate D2E/DX2 analytically  !
 ! D138  D(18,19,26,27)        -62.8439         calculate D2E/DX2 analytically  !
 ! D139  D(18,19,26,31)        116.9463         calculate D2E/DX2 analytically  !
 ! D140  D(20,19,26,27)         54.5711         calculate D2E/DX2 analytically  !
 ! D141  D(20,19,26,31)       -125.6387         calculate D2E/DX2 analytically  !
 ! D142  D(19,20,21,22)       -173.9995         calculate D2E/DX2 analytically  !
 ! D143  D(19,20,21,48)          5.7058         calculate D2E/DX2 analytically  !
 ! D144  D(25,20,21,22)          0.3269         calculate D2E/DX2 analytically  !
 ! D145  D(25,20,21,48)       -179.9678         calculate D2E/DX2 analytically  !
 ! D146  D(19,20,25,24)        173.7907         calculate D2E/DX2 analytically  !
 ! D147  D(19,20,25,52)         -5.2184         calculate D2E/DX2 analytically  !
 ! D148  D(21,20,25,24)         -0.6664         calculate D2E/DX2 analytically  !
 ! D149  D(21,20,25,52)       -179.6756         calculate D2E/DX2 analytically  !
 ! D150  D(20,21,22,23)          0.218          calculate D2E/DX2 analytically  !
 ! D151  D(20,21,22,49)        179.7447         calculate D2E/DX2 analytically  !
 ! D152  D(48,21,22,23)       -179.4916         calculate D2E/DX2 analytically  !
 ! D153  D(48,21,22,49)          0.0351         calculate D2E/DX2 analytically  !
 ! D154  D(21,22,23,24)         -0.4276         calculate D2E/DX2 analytically  !
 ! D155  D(21,22,23,50)        179.561          calculate D2E/DX2 analytically  !
 ! D156  D(49,22,23,24)       -179.9504         calculate D2E/DX2 analytically  !
 ! D157  D(49,22,23,50)          0.0382         calculate D2E/DX2 analytically  !
 ! D158  D(22,23,24,25)          0.0892         calculate D2E/DX2 analytically  !
 ! D159  D(22,23,24,51)        179.9562         calculate D2E/DX2 analytically  !
 ! D160  D(50,23,24,25)       -179.8994         calculate D2E/DX2 analytically  !
 ! D161  D(50,23,24,51)         -0.0324         calculate D2E/DX2 analytically  !
 ! D162  D(23,24,25,20)          0.4619         calculate D2E/DX2 analytically  !
 ! D163  D(23,24,25,52)        179.4697         calculate D2E/DX2 analytically  !
 ! D164  D(51,24,25,20)       -179.4059         calculate D2E/DX2 analytically  !
 ! D165  D(51,24,25,52)         -0.3981         calculate D2E/DX2 analytically  !
 ! D166  D(19,26,27,28)        179.3558         calculate D2E/DX2 analytically  !
 ! D167  D(19,26,27,53)         -0.9202         calculate D2E/DX2 analytically  !
 ! D168  D(31,26,27,28)         -0.4461         calculate D2E/DX2 analytically  !
 ! D169  D(31,26,27,53)        179.2778         calculate D2E/DX2 analytically  !
 ! D170  D(19,26,31,30)        179.9341         calculate D2E/DX2 analytically  !
 ! D171  D(19,26,31,57)          0.136          calculate D2E/DX2 analytically  !
 ! D172  D(27,26,31,30)         -0.2785         calculate D2E/DX2 analytically  !
 ! D173  D(27,26,31,57)        179.9234         calculate D2E/DX2 analytically  !
 ! D174  D(26,27,28,29)          0.7904         calculate D2E/DX2 analytically  !
 ! D175  D(26,27,28,54)       -179.6455         calculate D2E/DX2 analytically  !
 ! D176  D(53,27,28,29)       -178.9307         calculate D2E/DX2 analytically  !
 ! D177  D(53,27,28,54)          0.6334         calculate D2E/DX2 analytically  !
 ! D178  D(27,28,29,30)         -0.4028         calculate D2E/DX2 analytically  !
 ! D179  D(27,28,29,55)        179.4675         calculate D2E/DX2 analytically  !
 ! D180  D(54,28,29,30)       -179.965          calculate D2E/DX2 analytically  !
 ! D181  D(54,28,29,55)         -0.0947         calculate D2E/DX2 analytically  !
 ! D182  D(28,29,30,31)         -0.3171         calculate D2E/DX2 analytically  !
 ! D183  D(28,29,30,56)        179.8821         calculate D2E/DX2 analytically  !
 ! D184  D(55,29,30,31)        179.8127         calculate D2E/DX2 analytically  !
 ! D185  D(55,29,30,56)          0.0118         calculate D2E/DX2 analytically  !
 ! D186  D(29,30,31,26)          0.6616         calculate D2E/DX2 analytically  !
 ! D187  D(29,30,31,57)       -179.5352         calculate D2E/DX2 analytically  !
 ! D188  D(56,30,31,26)       -179.5359         calculate D2E/DX2 analytically  !
 ! D189  D(56,30,31,57)          0.2673         calculate D2E/DX2 analytically  !
 ! D190  D(4,32,33,1)           -0.5656         calculate D2E/DX2 analytically  !
 ! D191  D(4,32,33,59)         179.777          calculate D2E/DX2 analytically  !
 ! D192  D(58,32,33,1)        -179.7376         calculate D2E/DX2 analytically  !
 ! D193  D(58,32,33,59)          0.605          calculate D2E/DX2 analytically  !
 --------------------------------------------------------------------------------
 Trust Radius=3.00D-01 FncErr=1.00D-07 GrdErr=1.00D-07 EigMax=2.50D+02 EigMin=1.00D-04
 Number of steps in this run=      2 maximum allowed number of steps=      2.
 GradGradGradGradGradGradGradGradGradGradGradGradGradGradGradGradGradGrad

 Stoichiometry    C30H26F2N2NiO(3)
 Framework group  C1[X(C30H26F2N2NiO)]
 Deg. of freedom   180
 Full point group                 C1      NOp   1
 Largest Abelian subgroup         C1      NOp   1
 Largest concise Abelian subgroup C1      NOp   1
                         Standard orientation:                         
 ---------------------------------------------------------------------
 Center     Atomic      Atomic             Coordinates (Angstroms)
 Number     Number       Type             X           Y           Z
 ---------------------------------------------------------------------
      1          6           0        3.101254    4.121724   -0.169662
      2          6           0        1.833633    3.819306    0.326421
      3          6           0        1.235294    2.587290    0.056702
      4          6           0        1.914217    1.648763   -0.727686
      5          6           0        1.336583    0.278243   -0.994230
      6          7           0       -0.113404    0.198023   -0.801952
      7          6           0       -0.383280   -0.913781   -0.223204
      8          6           0       -1.766001   -1.289529    0.087687
      9          6           0       -2.150443   -2.478583    0.694474
     10          6           0       -3.508587   -2.656136    0.952521
     11          6           0       -4.431256   -1.655282    0.639429
     12          6           0       -3.947943   -0.471651    0.045383
     13          7           0       -2.650288   -0.329517   -0.238694
     14          6           0       -4.830170    0.699707   -0.305675
     15          6           0       -6.235441    0.589704    0.295577
     16          6           0       -6.778826   -0.835661    0.150074
     17          6           0       -5.905151   -1.818637    0.938933
     18          8           0        0.634431   -1.697591    0.145837
     19          6           0        1.870339   -0.877880   -0.046880
     20          6           0        2.273691   -0.328942    1.313821
     21          6           0        1.333789   -0.131489    2.329524
     22          6           0        1.704494    0.488023    3.523072
     23          6           0        3.015583    0.920607    3.712939
     24          6           0        3.959170    0.722085    2.704043
     25          6           0        3.591735    0.097621    1.515420
     26          6           0        2.911890   -1.814617   -0.628594
     27          6           0        3.311205   -2.902339    0.163323
     28          6           0        4.251457   -3.815152   -0.301715
     29          6           0        4.824493   -3.647909   -1.565277
     30          6           0        4.441087   -2.567864   -2.355533
     31          6           0        3.484873   -1.659910   -1.892531
     32          6           0        3.177146    1.961337   -1.242823
     33          6           0        3.772669    3.188995   -0.961795
     34          1           0        3.560327    5.081911    0.049243
     35          1           0        1.294864    4.545804    0.928040
     36          1           0        0.233074    2.390027    0.431279
     37          1           0        1.521071    0.010715   -2.039333
     38          1           0       -1.410391   -3.228955    0.947162
     39          1           0       -3.856747   -3.578339    1.410580
     40          1           0       -4.880915    0.764735   -1.401588
     41          1           0       -4.315176    1.607758    0.032239
     42          1           0       -6.899120    1.311777   -0.190746
     43          1           0       -6.203708    0.855921    1.360804
     44          1           0       -6.786851   -1.119057   -0.911231
     45          1           0       -7.812938   -0.898137    0.505705
     46          1           0       -6.063340   -1.656050    2.015314
     47          1           0       -6.203763   -2.855267    0.740964
     48          1           0        0.307399   -0.452527    2.199632
     49          1           0        0.960822    0.637422    4.300291
     50          1           0        3.301158    1.409240    4.639989
     51          1           0        4.983792    1.055484    2.840122
     52          1           0        4.327784   -0.045722    0.732287
     53          1           0        2.878666   -3.022057    1.151569
     54          1           0        4.543581   -4.653895    0.323549
     55          1           0        5.565517   -4.354643   -1.927375
     56          1           0        4.880200   -2.425474   -3.338541
     57          1           0        3.203176   -0.834744   -2.535224
     58          1           0        3.707071    1.237894   -1.856639
     59          1           0        4.755299    3.417739   -1.365099
     60         28           0       -1.777568    1.345229   -1.070820
     61          9           0       -1.823662    2.344710    0.485308
     62          9           0       -2.175625    1.442506   -2.834711
 ---------------------------------------------------------------------
 Rotational constants (GHZ):           0.1628290           0.0755254           0.0661590
 Basis read from chk: "Lig2120_xyz_3.chk" (6D, 7F)
 Pseudo-potential data read from chk file.
 There are   654 symmetry adapted cartesian basis functions of A   symmetry.
 There are   651 symmetry adapted basis functions of A   symmetry.
   651 basis functions,  1238 primitive gaussians,   654 cartesian basis functions
   133 alpha electrons      131 beta electrons
       nuclear repulsion energy      4226.2115931384 Hartrees.
 NAtoms=   62 NActive=   62 NUniq=   62 SFac= 1.00D+00 NAtFMM=   60 NAOKFM=T Big=T
 Integral buffers will be    131072 words long.
 Raffenetti 2 integral format.
 Two-electron integral symmetry is turned on.
 Nuclear repulsion after empirical dispersion term =     4226.0445111714 Hartrees.
 One-electron integrals computed using PRISM.
 PrsmSu:  requested number of processors reduced to:  12 ShMem   1 Linda.
   1 Symmetry operations used in ECPInt.
 ECPInt:  NShTT=   22791 NPrTT=  142008 LenC2=   18123 LenP2D=   59669.
 LDataN:  DoStor=T MaxTD1= 6 Len=  172
 Number of processors reduced to  11 by ecpmxn.
 NBasis=   651 RedAO= T EigKep=  1.01D-06  NBF=   651
 NBsUse=   651 1.00D-06 EigRej= -1.00D+00 NBFU=   651
 Initial guess from the checkpoint file:  "Lig2120_xyz_3.chk"
 B after Tr=    -0.000000    0.000000    0.000000
         Rot=    1.000000    0.000000    0.000000   -0.000000 Ang=   0.00 deg.
 Initial guess <Sx>= 0.0000 <Sy>= 0.0000 <Sz>= 1.0000 <S**2>= 2.0069 S= 1.0023
 Requested convergence on RMS density matrix=1.00D-08 within 128 cycles.
 Requested convergence on MAX density matrix=1.00D-06.
 Requested convergence on             energy=1.00D-06.
 No special actions if energy rises.
 SCF Done:  E(UB3LYP) =  -1712.90146073     A.U. after    2 cycles
            NFock=  2  Conv=0.37D-09     -V/T= 2.0467
 <Sx>= 0.0000 <Sy>= 0.0000 <Sz>= 1.0000 <S**2>= 2.0069 S= 1.0023
 <L.S>=  0.00000000000    
 Annihilation of the first spin contaminant:
 S**2 before annihilation     2.0069,   after     2.0000
 DoSCS=F DFT=T ScalE2(SS,OS)=  1.000000  1.000000
 Range of M.O.s used for correlation:     1   651
 NBasis=   651 NAE=   133 NBE=   131 NFC=     0 NFV=     0
 NROrb=    651 NOA=   133 NOB=   131 NVA=   518 NVB=   520

 **** Warning!!: The largest alpha MO coefficient is  0.18494595D+03


 **** Warning!!: The largest beta MO coefficient is  0.18441454D+03

 PrsmSu:  requested number of processors reduced to:  10 ShMem   1 Linda.
 PrsmSu:  requested number of processors reduced to:   2 ShMem   1 Linda.
   1 Symmetry operations used in ECPInt.
 ECPInt:  NShTT=   22791 NPrTT=  142008 LenC2=   18123 LenP2D=   59669.
 LDataN:  DoStor=T MaxTD1= 7 Len=  274
 Number of processors reduced to   1 by ecpmxn.
 Symmetrizing basis deriv contribution to polar:
 IMax=3 JMax=2 DiffMx= 0.00D+00
 G2DrvN: will do     1 centers at a time, making   63 passes.
 Estimated number of processors is:   15
 Calling FoFCou, ICntrl=  3107 FMM=T I1Cent=   0 AccDes= 0.00D+00.
 Calling FoFCou, ICntrl=  3107 FMM=T I1Cent=   0 AccDes= 0.00D+00.
 CoulSu:  requested number of processors reduced to:  15 ShMem   1 Linda.
 Calling FoFCou, ICntrl=  3107 FMM=T I1Cent=   0 AccDes= 0.00D+00.
 CoulSu:  requested number of processors reduced to:  15 ShMem   1 Linda.
 Calling FoFCou, ICntrl=  3107 FMM=T I1Cent=   0 AccDes= 0.00D+00.
 CoulSu:  requested number of processors reduced to:  15 ShMem   1 Linda.
 Calling FoFCou, ICntrl=  3107 FMM=T I1Cent=   0 AccDes= 0.00D+00.
 CoulSu:  requested number of processors reduced to:  15 ShMem   1 Linda.
 Calling FoFCou, ICntrl=  3107 FMM=T I1Cent=   0 AccDes= 0.00D+00.
 CoulSu:  requested number of processors reduced to:  15 ShMem   1 Linda.
 Calling FoFCou, ICntrl=  3107 FMM=T I1Cent=   0 AccDes= 0.00D+00.
 CoulSu:  requested number of processors reduced to:  15 ShMem   1 Linda.
 Calling FoFCou, ICntrl=  3107 FMM=T I1Cent=   0 AccDes= 0.00D+00.
 CoulSu:  requested number of processors reduced to:  15 ShMem   1 Linda.
 Calling FoFCou, ICntrl=  3107 FMM=T I1Cent=   0 AccDes= 0.00D+00.
 CoulSu:  requested number of processors reduced to:  15 ShMem   1 Linda.
 Calling FoFCou, ICntrl=  3107 FMM=T I1Cent=   0 AccDes= 0.00D+00.
 CoulSu:  requested number of processors reduced to:  15 ShMem   1 Linda.
 Calling FoFCou, ICntrl=  3107 FMM=T I1Cent=   0 AccDes= 0.00D+00.
 CoulSu:  requested number of processors reduced to:  15 ShMem   1 Linda.
 Calling FoFCou, ICntrl=  3107 FMM=T I1Cent=   0 AccDes= 0.00D+00.
 CoulSu:  requested number of processors reduced to:  15 ShMem   1 Linda.
 Calling FoFCou, ICntrl=  3107 FMM=T I1Cent=   0 AccDes= 0.00D+00.
 CoulSu:  requested number of processors reduced to:  15 ShMem   1 Linda.
 Calling FoFCou, ICntrl=  3107 FMM=T I1Cent=   0 AccDes= 0.00D+00.
 CoulSu:  requested number of processors reduced to:  15 ShMem   1 Linda.
 Calling FoFCou, ICntrl=  3107 FMM=T I1Cent=   0 AccDes= 0.00D+00.
 CoulSu:  requested number of processors reduced to:  15 ShMem   1 Linda.
 Calling FoFCou, ICntrl=  3107 FMM=T I1Cent=   0 AccDes= 0.00D+00.
 CoulSu:  requested number of processors reduced to:  15 ShMem   1 Linda.
 Calling FoFCou, ICntrl=  3107 FMM=T I1Cent=   0 AccDes= 0.00D+00.
 CoulSu:  requested number of processors reduced to:  15 ShMem   1 Linda.
 Calling FoFCou, ICntrl=  3107 FMM=T I1Cent=   0 AccDes= 0.00D+00.
 CoulSu:  requested number of processors reduced to:  15 ShMem   1 Linda.
 Calling FoFCou, ICntrl=  3107 FMM=T I1Cent=   0 AccDes= 0.00D+00.
 CoulSu:  requested number of processors reduced to:  15 ShMem   1 Linda.
 Calling FoFCou, ICntrl=  3107 FMM=T I1Cent=   0 AccDes= 0.00D+00.
 CoulSu:  requested number of processors reduced to:  15 ShMem   1 Linda.
 Calling FoFCou, ICntrl=  3107 FMM=T I1Cent=   0 AccDes= 0.00D+00.
 CoulSu:  requested number of processors reduced to:  15 ShMem   1 Linda.
 Calling FoFCou, ICntrl=  3107 FMM=T I1Cent=   0 AccDes= 0.00D+00.
 CoulSu:  requested number of processors reduced to:  15 ShMem   1 Linda.
 Calling FoFCou, ICntrl=  3107 FMM=T I1Cent=   0 AccDes= 0.00D+00.
 CoulSu:  requested number of processors reduced to:  15 ShMem   1 Linda.
 Calling FoFCou, ICntrl=  3107 FMM=T I1Cent=   0 AccDes= 0.00D+00.
 CoulSu:  requested number of processors reduced to:  15 ShMem   1 Linda.
 Calling FoFCou, ICntrl=  3107 FMM=T I1Cent=   0 AccDes= 0.00D+00.
 CoulSu:  requested number of processors reduced to:  15 ShMem   1 Linda.
 Calling FoFCou, ICntrl=  3107 FMM=T I1Cent=   0 AccDes= 0.00D+00.
 CoulSu:  requested number of processors reduced to:  15 ShMem   1 Linda.
 Calling FoFCou, ICntrl=  3107 FMM=T I1Cent=   0 AccDes= 0.00D+00.
 CoulSu:  requested number of processors reduced to:  15 ShMem   1 Linda.
 Calling FoFCou, ICntrl=  3107 FMM=T I1Cent=   0 AccDes= 0.00D+00.
 CoulSu:  requested number of processors reduced to:  15 ShMem   1 Linda.
 Calling FoFCou, ICntrl=  3107 FMM=T I1Cent=   0 AccDes= 0.00D+00.
 CoulSu:  requested number of processors reduced to:  15 ShMem   1 Linda.
 Calling FoFCou, ICntrl=  3107 FMM=T I1Cent=   0 AccDes= 0.00D+00.
 CoulSu:  requested number of processors reduced to:  15 ShMem   1 Linda.
 Calling FoFCou, ICntrl=  3107 FMM=T I1Cent=   0 AccDes= 0.00D+00.
 CoulSu:  requested number of processors reduced to:  15 ShMem   1 Linda.
 Calling FoFCou, ICntrl=  3107 FMM=T I1Cent=   0 AccDes= 0.00D+00.
 CoulSu:  requested number of processors reduced to:  15 ShMem   1 Linda.
 Calling FoFCou, ICntrl=  3107 FMM=T I1Cent=   0 AccDes= 0.00D+00.
 CoulSu:  requested number of processors reduced to:  15 ShMem   1 Linda.
 Calling FoFCou, ICntrl=  3107 FMM=T I1Cent=   0 AccDes= 0.00D+00.
 CoulSu:  requested number of processors reduced to:  15 ShMem   1 Linda.
 Calling FoFCou, ICntrl=  3107 FMM=T I1Cent=   0 AccDes= 0.00D+00.
 CoulSu:  requested number of processors reduced to:  15 ShMem   1 Linda.
 Calling FoFCou, ICntrl=  3107 FMM=T I1Cent=   0 AccDes= 0.00D+00.
 CoulSu:  requested number of processors reduced to:  15 ShMem   1 Linda.
 Calling FoFCou, ICntrl=  3107 FMM=T I1Cent=   0 AccDes= 0.00D+00.
 CoulSu:  requested number of processors reduced to:  15 ShMem   1 Linda.
 Calling FoFCou, ICntrl=  3107 FMM=T I1Cent=   0 AccDes= 0.00D+00.
 CoulSu:  requested number of processors reduced to:  15 ShMem   1 Linda.
 Calling FoFCou, ICntrl=  3107 FMM=T I1Cent=   0 AccDes= 0.00D+00.
 CoulSu:  requested number of processors reduced to:  15 ShMem   1 Linda.
 Calling FoFCou, ICntrl=  3107 FMM=T I1Cent=   0 AccDes= 0.00D+00.
 CoulSu:  requested number of processors reduced to:  15 ShMem   1 Linda.
 Calling FoFCou, ICntrl=  3107 FMM=T I1Cent=   0 AccDes= 0.00D+00.
 CoulSu:  requested number of processors reduced to:  15 ShMem   1 Linda.
 Calling FoFCou, ICntrl=  3107 FMM=T I1Cent=   0 AccDes= 0.00D+00.
 CoulSu:  requested number of processors reduced to:  15 ShMem   1 Linda.
 Calling FoFCou, ICntrl=  3107 FMM=T I1Cent=   0 AccDes= 0.00D+00.
 CoulSu:  requested number of processors reduced to:  15 ShMem   1 Linda.
 Calling FoFCou, ICntrl=  3107 FMM=T I1Cent=   0 AccDes= 0.00D+00.
 CoulSu:  requested number of processors reduced to:  15 ShMem   1 Linda.
 Calling FoFCou, ICntrl=  3107 FMM=T I1Cent=   0 AccDes= 0.00D+00.
 CoulSu:  requested number of processors reduced to:  15 ShMem   1 Linda.
 Calling FoFCou, ICntrl=  3107 FMM=T I1Cent=   0 AccDes= 0.00D+00.
 CoulSu:  requested number of processors reduced to:  15 ShMem   1 Linda.
 Calling FoFCou, ICntrl=  3107 FMM=T I1Cent=   0 AccDes= 0.00D+00.
 CoulSu:  requested number of processors reduced to:  15 ShMem   1 Linda.
 Calling FoFCou, ICntrl=  3107 FMM=T I1Cent=   0 AccDes= 0.00D+00.
 CoulSu:  requested number of processors reduced to:  15 ShMem   1 Linda.
 Calling FoFCou, ICntrl=  3107 FMM=T I1Cent=   0 AccDes= 0.00D+00.
 CoulSu:  requested number of processors reduced to:  15 ShMem   1 Linda.
 Calling FoFCou, ICntrl=  3107 FMM=T I1Cent=   0 AccDes= 0.00D+00.
 CoulSu:  requested number of processors reduced to:  15 ShMem   1 Linda.
 Calling FoFCou, ICntrl=  3107 FMM=T I1Cent=   0 AccDes= 0.00D+00.
 CoulSu:  requested number of processors reduced to:  15 ShMem   1 Linda.
 Calling FoFCou, ICntrl=  3107 FMM=T I1Cent=   0 AccDes= 0.00D+00.
 CoulSu:  requested number of processors reduced to:  15 ShMem   1 Linda.
 Calling FoFCou, ICntrl=  3107 FMM=T I1Cent=   0 AccDes= 0.00D+00.
 CoulSu:  requested number of processors reduced to:  15 ShMem   1 Linda.
 Calling FoFCou, ICntrl=  3107 FMM=T I1Cent=   0 AccDes= 0.00D+00.
 CoulSu:  requested number of processors reduced to:  15 ShMem   1 Linda.
 Calling FoFCou, ICntrl=  3107 FMM=T I1Cent=   0 AccDes= 0.00D+00.
 CoulSu:  requested number of processors reduced to:  15 ShMem   1 Linda.
 Calling FoFCou, ICntrl=  3107 FMM=T I1Cent=   0 AccDes= 0.00D+00.
 CoulSu:  requested number of processors reduced to:  15 ShMem   1 Linda.
 Calling FoFCou, ICntrl=  3107 FMM=T I1Cent=   0 AccDes= 0.00D+00.
 CoulSu:  requested number of processors reduced to:  15 ShMem   1 Linda.
 Calling FoFCou, ICntrl=  3107 FMM=T I1Cent=   0 AccDes= 0.00D+00.
 CoulSu:  requested number of processors reduced to:  15 ShMem   1 Linda.
 Calling FoFCou, ICntrl=  3107 FMM=T I1Cent=   0 AccDes= 0.00D+00.
 CoulSu:  requested number of processors reduced to:  15 ShMem   1 Linda.
 Calling FoFCou, ICntrl=  3107 FMM=T I1Cent=   0 AccDes= 0.00D+00.
 CoulSu:  requested number of processors reduced to:  15 ShMem   1 Linda.
 Calling FoFCou, ICntrl=  3107 FMM=T I1Cent=   0 AccDes= 0.00D+00.
 CoulSu:  requested number of processors reduced to:  15 ShMem   1 Linda.
 Calling FoFCou, ICntrl=  3107 FMM=T I1Cent=   0 AccDes= 0.00D+00.
 CoulSu:  requested number of processors reduced to:  15 ShMem   1 Linda.
 Calling FoFCou, ICntrl=  3107 FMM=T I1Cent=   0 AccDes= 0.00D+00.
 CoulSu:  requested number of processors reduced to:  15 ShMem   1 Linda.
 End of G2Drv F.D. properties file   721 does not exist.
 End of G2Drv F.D. properties file   722 does not exist.
 End of G2Drv F.D. properties file   788 does not exist.
          IDoAtm=11111111111111111111111111111111111111111111111111
          IDoAtm=111111111111
          Differentiating once with respect to electric field.
                with respect to dipole field.
          Differentiating once with respect to nuclear coordinates.
 CalDSu exits because no D1Ps are significant.
          There are   189 degrees of freedom in the 1st order CPHF.  IDoFFX=6 NUNeed=     3.
    189 vectors produced by pass  0 Test12= 1.37D-13 1.00D-09 XBig12= 8.52D+02 6.15D+00.
 AX will form     3 AO Fock derivatives at one time.
    189 vectors produced by pass  1 Test12= 1.37D-13 1.00D-09 XBig12= 1.77D+02 1.39D+00.
