 Entering Gaussian System, Link 0=g16
 Input=Lig2120_xyz.com
 Output=Lig2120_xyz.log
 Initial command:
 /uufs/chpc.utah.edu/sys/installdir/gaussian16/C01/AVX/g16/l1.exe "/scratch/general/vast/u1365460/GAUSSSCRDIR/11267748-notchpeak.peaks/Gau-180845.inp" -scrdir="/scratch/general/vast/u1365460/GAUSSSCRDIR/11267748-notchpeak.peaks/"
 Entering Link 1 = /uufs/chpc.utah.edu/sys/installdir/gaussian16/C01/AVX/g16/l1.exe PID=    180847.
  
 Copyright (c) 1988-2019, Gaussian, Inc.  All Rights Reserved.
  
 This is part of the Gaussian(R) 16 program.  It is based on
 the Gaussian(R) 09 system (copyright 2009, Gaussian, Inc.),
 the Gaussian(R) 03 system (copyright 2003, Gaussian, Inc.),
 the Gaussian(R) 98 system (copyright 1998, Gaussian, Inc.),
 the Gaussian(R) 94 system (copyright 1995, Gaussian, Inc.),
 the Gaussian 92(TM) system (copyright 1992, Gaussian, Inc.),
 the Gaussian 90(TM) system (copyright 1990, Gaussian, Inc.),
 the Gaussian 88(TM) system (copyright 1988, Gaussian, Inc.),
 the Gaussian 86(TM) system (copyright 1986, Carnegie Mellon
 University), and the Gaussian 82(TM) system (copyright 1983,
 Carnegie Mellon University). Gaussian is a federally registered
 trademark of Gaussian, Inc.
  
 This software contains proprietary and confidential information,
 including trade secrets, belonging to Gaussian, Inc.
  
 This software is provided under written license and may be
 used, copied, transmitted, or stored only in accord with that
 written license.
  
 The following legend is applicable only to US Government
 contracts under FAR:
  
                    RESTRICTED RIGHTS LEGEND
  
 Use, reproduction and disclosure by the US Government is
 subject to restrictions as set forth in subparagraphs (a)
 and (c) of the Commercial Computer Software - Restricted
 Rights clause in FAR 52.227-19.
  
 Gaussian, Inc.
 340 Quinnipiac St., Bldg. 40, Wallingford CT 06492
  
  
 ---------------------------------------------------------------
 Warning -- This program may not be used in any manner that
 competes with the business of Gaussian, Inc. or will provide
 assistance to any competitor of Gaussian, Inc.  The licensee
 of this program is prohibited from giving any competitor of
 Gaussian, Inc. access to this program.  By using this program,
 the user acknowledges that Gaussian, Inc. is engaged in the
 business of creating and licensing software in the field of
 computational chemistry and represents and warrants to the
 licensee that it is not a competitor of Gaussian, Inc. and that
 it will not use this program in any manner prohibited above.
 ---------------------------------------------------------------
  

 Cite this work as:
 Gaussian 16, Revision C.01,
 M. J. Frisch, G. W. Trucks, H. B. Schlegel, G. E. Scuseria, 
 M. A. Robb, J. R. Cheeseman, G. Scalmani, V. Barone, 
 G. A. Petersson, H. Nakatsuji, X. Li, M. Caricato, A. V. Marenich, 
 J. Bloino, B. G. Janesko, R. Gomperts, B. Mennucci, H. P. Hratchian, 
 J. V. Ortiz, A. F. Izmaylov, J. L. Sonnenberg, D. Williams-Young, 
 F. Ding, F. Lipparini, F. Egidi, J. Goings, B. Peng, A. Petrone, 
 T. Henderson, D. Ranasinghe, V. G. Zakrzewski, J. Gao, N. Rega, 
 G. Zheng, W. Liang, M. Hada, M. Ehara, K. Toyota, R. Fukuda, 
 J. Hasegawa, M. Ishida, T. Nakajima, Y. Honda, O. Kitao, H. Nakai, 
 T. Vreven, K. Throssell, J. A. Montgomery, Jr., J. E. Peralta, 
 F. Ogliaro, M. J. Bearpark, J. J. Heyd, E. N. Brothers, K. N. Kudin, 
 V. N. Staroverov, T. A. Keith, R. Kobayashi, J. Normand, 
 K. Raghavachari, A. P. Rendell, J. C. Burant, S. S. Iyengar, 
 J. Tomasi, M. Cossi, J. M. Millam, M. Klene, C. Adamo, R. Cammi, 
 J. W. Ochterski, R. L. Martin, K. Morokuma, O. Farkas, 
 J. B. Foresman, and D. J. Fox, Gaussian, Inc., Wallingford CT, 2019.
 
 ******************************************
 Gaussian 16:  ES64L-G16RevC.01  3-Jul-2019
                 6-Mar-2026 
 ******************************************
 %NProcShared=16
 Will use up to   16 processors via shared memory.
 %chk=Lig2120_xyz.chk
 ----------------------------------------------------------------------
 # B3LYP gen 6D pseudo=read int=(grid=fine) empiricaldispersion=GD3BJ o
 pt freq=noraman
 ----------------------------------------------------------------------
 1/18=20,19=15,26=3,38=1/1,3;
 2/9=110,12=2,17=6,18=5,40=1/2;
 3/5=7,8=2,11=2,16=1,17=8,25=1,30=1,71=1,74=-5,75=-4,124=41/1,2,3;
 4//1;
 5/5=2,38=5/2;
 6/7=2,8=2,9=2,10=2,28=1/1;
 7//1,2,3,16;
 1/18=20,19=15,26=3/3(2);
 2/9=110/2;
 99//99;
 2/9=110/2;
 3/5=7,6=1,8=2,11=2,16=1,17=8,25=1,30=1,71=1,74=-5,75=-4,82=7,124=41/1,2,3;
 4/5=5,16=3,69=1/1;
 5/5=2,38=5/2;
 7//1,2,3,16;
 1/18=20,19=15,26=3/3(-5);
 2/9=110/2;
 6/7=2,8=2,9=2,10=2,19=2,28=1/1;
 99/9=1/99;
 -----------
 Lig2120.xyz
 -----------
 Symbolic Z-matrix:
 Charge =  0 Multiplicity = 3
 C                    -3.70986  -3.30995  -1.71092 
 C                    -2.60465  -3.38952  -0.86432 
 C                    -1.7591   -2.2938   -0.68836 
 C                    -2.01231  -1.10085  -1.37702 
 C                    -1.14195   0.1256   -1.20103 
 N                     0.2614   -0.15724  -0.8519 
 C                     0.63969   0.72001   0.00733 
 C                     2.01949   0.76839   0.50683 
 C                     2.53295   1.7962    1.28549 
 C                     3.8814    1.7254    1.63153 
 C                     4.6697    0.65253   1.2131 
 C                     4.05671  -0.36637   0.45192 
 N                     2.76623  -0.27944   0.11243 
 C                     4.79127  -1.60748   0.01232 
 C                     6.3114   -1.43523   0.05788 
 C                     6.73933  -0.81508   1.39204 
 C                     6.14555   0.59071   1.54409 
 O                    -0.25705   1.58763   0.46792 
 C                    -1.58895   1.14054  -0.06624 
 C                    -2.31361   0.44644   1.07682 
 C                    -3.6839    0.64212   1.27333 
 C                    -4.36094  -0.04771   2.27917 
 C                    -3.67365  -0.94036   3.09942 
 C                    -2.30949  -1.15315   2.89441 
 C                    -1.62932  -0.47057   1.88907 
 C                    -2.2705    2.41447  -0.52827 
 C                    -2.78632   2.60352  -1.81113 
 C                    -3.41319   3.80363  -2.15756 
 C                    -3.52243   4.83297  -1.22696 
 C                    -3.00434   4.65581   0.05883 
 C                    -2.3907    3.45679   0.40464 
 C                    -3.11434  -1.0304   -2.23636 
 C                    -3.96295  -2.12386  -2.40006 
 H                    -4.36587  -4.16653  -1.83924 
 H                    -2.39244  -4.31065  -0.32873 
 H                    -0.90404  -2.37796  -0.02172 
 H                    -1.10916   0.65981  -2.15605 
 H                     1.89761   2.61691   1.59681 
 H                     4.32806   2.51312   2.23289 
 H                     4.41899  -1.90186  -0.97499 
 H                     4.49168  -2.41763   0.69484 
 H                     6.63707  -0.78786  -0.76816 
 H                     6.79435  -2.40624  -0.09254 
 H                     7.83068  -0.75967   1.46946 
 H                     6.39195  -1.45298   2.21604 
 H                     6.30846   0.97729   2.55737 
 H                     6.67588   1.27823   0.86837 
 H                    -4.22782   1.33085   0.63687 
 H                    -5.42575   0.11631   2.41836 
 H                    -4.19923  -1.47712   3.88431 
 H                    -1.76793  -1.86884   3.50586 
 H                    -0.59163  -0.729     1.70452 
 H                    -2.71016   1.82518  -2.55948 
 H                    -3.81209   3.9274   -3.16011 
 H                    -4.00718   5.76648  -1.49767 
 H                    -3.08276   5.45207   0.79347 
 H                    -1.99941   3.31551   1.40676 
 H                    -3.31834  -0.11776  -2.78835 
 H                    -4.81446  -2.04965  -3.07076 
 Ni                    1.60116  -1.7356   -0.77151 
 F                     0.84243  -2.30085   0.8381 
 F                     2.61555  -2.40588  -2.11179 
 

 GradGradGradGradGradGradGradGradGradGradGradGradGradGradGradGradGradGrad
 Berny optimization.
 Initialization pass.
                           ----------------------------
                           !    Initial Parameters    !
                           ! (Angstroms and Degrees)  !
 --------------------------                            --------------------------
 ! Name  Definition              Value          Derivative Info.                !
 --------------------------------------------------------------------------------
 ! R1    R(1,2)                  1.3945         estimate D2E/DX2                !
 ! R2    R(1,33)                 1.3949         estimate D2E/DX2                !
 ! R3    R(1,34)                 1.0865         estimate D2E/DX2                !
 ! R4    R(2,3)                  1.3952         estimate D2E/DX2                !
 ! R5    R(2,35)                 1.0864         estimate D2E/DX2                !
 ! R6    R(3,4)                  1.4005         estimate D2E/DX2                !
 ! R7    R(3,36)                 1.0875         estimate D2E/DX2                !
 ! R8    R(4,5)                  1.5142         estimate D2E/DX2                !
 ! R9    R(4,32)                 1.3993         estimate D2E/DX2                !
 ! R10   R(5,6)                  1.4735         estimate D2E/DX2                !
 ! R11   R(5,19)                 1.5867         estimate D2E/DX2                !
 ! R12   R(5,37)                 1.0948         estimate D2E/DX2                !
 ! R13   R(6,7)                  1.2849         estimate D2E/DX2                !
 ! R14   R(6,60)                 2.0719         estimate D2E/DX2                !
 ! R15   R(7,8)                  1.4682         estimate D2E/DX2                !
 ! R16   R(7,18)                 1.3301         estimate D2E/DX2                !
 ! R17   R(8,9)                  1.3879         estimate D2E/DX2                !
 ! R18   R(8,13)                 1.3458         estimate D2E/DX2                !
 ! R19   R(9,10)                 1.3939         estimate D2E/DX2                !
 ! R20   R(9,38)                 1.0836         estimate D2E/DX2                !
 ! R21   R(10,11)                1.3955         estimate D2E/DX2                !
 ! R22   R(10,39)                1.087          estimate D2E/DX2                !
 ! R23   R(11,12)                1.4118         estimate D2E/DX2                !
 ! R24   R(11,17)                1.5138         estimate D2E/DX2                !
 ! R25   R(12,13)                1.3372         estimate D2E/DX2                !
 ! R26   R(12,14)                1.5077         estimate D2E/DX2                !
 ! R27   R(13,60)                2.0638         estimate D2E/DX2                !
 ! R28   R(14,15)                1.5305         estimate D2E/DX2                !
 ! R29   R(14,40)                1.0955         estimate D2E/DX2                !
 ! R30   R(14,41)                1.1009         estimate D2E/DX2                !
 ! R31   R(15,16)                1.5322         estimate D2E/DX2                !
 ! R32   R(15,42)                1.0989         estimate D2E/DX2                !
 ! R33   R(15,43)                1.0949         estimate D2E/DX2                !
 ! R34   R(16,17)                1.5336         estimate D2E/DX2                !
 ! R35   R(16,44)                1.0955         estimate D2E/DX2                !
 ! R36   R(16,45)                1.0984         estimate D2E/DX2                !
 ! R37   R(17,46)                1.0967         estimate D2E/DX2                !
 ! R38   R(17,47)                1.1002         estimate D2E/DX2                !
 ! R39   R(18,19)                1.5031         estimate D2E/DX2                !
 ! R40   R(19,20)                1.521          estimate D2E/DX2                !
 ! R41   R(19,26)                1.5169         estimate D2E/DX2                !
 ! R42   R(20,21)                1.3981         estimate D2E/DX2                !
 ! R43   R(20,25)                1.4032         estimate D2E/DX2                !
 ! R44   R(21,22)                1.395          estimate D2E/DX2                !
 ! R45   R(21,48)                1.0841         estimate D2E/DX2                !
 ! R46   R(22,23)                1.3936         estimate D2E/DX2                !
 ! R47   R(22,49)                1.0863         estimate D2E/DX2                !
 ! R48   R(23,24)                1.3958         estimate D2E/DX2                !
 ! R49   R(23,50)                1.0865         estimate D2E/DX2                !
 ! R50   R(24,25)                1.3926         estimate D2E/DX2                !
 ! R51   R(24,51)                1.086          estimate D2E/DX2                !
 ! R52   R(25,52)                1.0852         estimate D2E/DX2                !
 ! R53   R(26,27)                1.3955         estimate D2E/DX2                !
 ! R54   R(26,31)                1.404          estimate D2E/DX2                !
 ! R55   R(27,28)                1.3976         estimate D2E/DX2                !
 ! R56   R(27,53)                1.0824         estimate D2E/DX2                !
 ! R57   R(28,29)                1.3919         estimate D2E/DX2                !
 ! R58   R(28,54)                1.0861         estimate D2E/DX2                !
 ! R59   R(29,30)                1.3975         estimate D2E/DX2                !
 ! R60   R(29,55)                1.0861         estimate D2E/DX2                !
 ! R61   R(30,31)                1.3906         estimate D2E/DX2                !
 ! R62   R(30,56)                1.0862         estimate D2E/DX2                !
 ! R63   R(31,57)                1.085          estimate D2E/DX2                !
 ! R64   R(32,33)                1.3938         estimate D2E/DX2                !
 ! R65   R(32,58)                1.0859         estimate D2E/DX2                !
 ! R66   R(33,59)                1.0865         estimate D2E/DX2                !
 ! R67   R(60,61)                1.8671         estimate D2E/DX2                !
 ! R68   R(60,62)                1.8096         estimate D2E/DX2                !
 ! A1    A(2,1,33)             119.4895         estimate D2E/DX2                !
 ! A2    A(2,1,34)             120.3471         estimate D2E/DX2                !
 ! A3    A(33,1,34)            120.162          estimate D2E/DX2                !
 ! A4    A(1,2,3)              120.803          estimate D2E/DX2                !
 ! A5    A(1,2,35)             120.1635         estimate D2E/DX2                !
 ! A6    A(3,2,35)             119.0333         estimate D2E/DX2                !
 ! A7    A(2,3,4)              119.8262         estimate D2E/DX2                !
 ! A8    A(2,3,36)             119.5415         estimate D2E/DX2                !
 ! A9    A(4,3,36)             120.6308         estimate D2E/DX2                !
 ! A10   A(3,4,5)              121.9284         estimate D2E/DX2                !
 ! A11   A(3,4,32)             119.161          estimate D2E/DX2                !
 ! A12   A(5,4,32)             118.9017         estimate D2E/DX2                !
 ! A13   A(4,5,6)              114.8026         estimate D2E/DX2                !
 ! A14   A(4,5,19)             116.0594         estimate D2E/DX2                !
 ! A15   A(4,5,37)             108.1238         estimate D2E/DX2                !
 ! A16   A(6,5,19)             102.8042         estimate D2E/DX2                !
 ! A17   A(6,5,37)             105.7733         estimate D2E/DX2                !
 ! A18   A(19,5,37)            108.6754         estimate D2E/DX2                !
 ! A19   A(5,6,7)              107.9258         estimate D2E/DX2                !
 ! A20   A(5,6,60)             140.4681         estimate D2E/DX2                !
 ! A21   A(7,6,60)             107.6851         estimate D2E/DX2                !
 ! A22   A(6,7,8)              121.7816         estimate D2E/DX2                !
 ! A23   A(6,7,18)             118.5836         estimate D2E/DX2                !
 ! A24   A(8,7,18)             119.6235         estimate D2E/DX2                !
 ! A25   A(7,8,9)              124.2588         estimate D2E/DX2                !
 ! A26   A(7,8,13)             113.3345         estimate D2E/DX2                !
 ! A27   A(9,8,13)             122.3931         estimate D2E/DX2                !
 ! A28   A(8,9,10)             117.357          estimate D2E/DX2                !
 ! A29   A(8,9,38)             120.3417         estimate D2E/DX2                !
 ! A30   A(10,9,38)            122.2998         estimate D2E/DX2                !
 ! A31   A(9,10,11)            120.7337         estimate D2E/DX2                !
 ! A32   A(9,10,39)            119.8685         estimate D2E/DX2                !
 ! A33   A(11,10,39)           119.3978         estimate D2E/DX2                !
 ! A34   A(10,11,12)           118.1129         estimate D2E/DX2                !
 ! A35   A(10,11,17)           121.1013         estimate D2E/DX2                !
 ! A36   A(12,11,17)           120.778          estimate D2E/DX2                !
 ! A37   A(11,12,13)           120.5948         estimate D2E/DX2                !
 ! A38   A(11,12,14)           122.6652         estimate D2E/DX2                !
 ! A39   A(13,12,14)           116.7224         estimate D2E/DX2                !
 ! A40   A(8,13,12)            120.7768         estimate D2E/DX2                !
 ! A41   A(8,13,60)            111.2015         estimate D2E/DX2                !
 ! A42   A(12,13,60)           127.4215         estimate D2E/DX2                !
 ! A43   A(12,14,15)           112.4932         estimate D2E/DX2                !
 ! A44   A(12,14,40)           108.5674         estimate D2E/DX2                !
 ! A45   A(12,14,41)           107.0038         estimate D2E/DX2                !
 ! A46   A(15,14,40)           113.2408         estimate D2E/DX2                !
 ! A47   A(15,14,41)           109.5515         estimate D2E/DX2                !
 ! A48   A(40,14,41)           105.5768         estimate D2E/DX2                !
 ! A49   A(14,15,16)           110.4178         estimate D2E/DX2                !
 ! A50   A(14,15,42)           109.7725         estimate D2E/DX2                !
 ! A51   A(14,15,43)           109.5246         estimate D2E/DX2                !
 ! A52   A(16,15,42)           109.4712         estimate D2E/DX2                !
 ! A53   A(16,15,43)           110.8171         estimate D2E/DX2                !
 ! A54   A(42,15,43)           106.7663         estimate D2E/DX2                !
 ! A55   A(15,16,17)           110.4386         estimate D2E/DX2                !
 ! A56   A(15,16,44)           111.1153         estimate D2E/DX2                !
 ! A57   A(15,16,45)           109.2578         estimate D2E/DX2                !
 ! A58   A(17,16,44)           109.4108         estimate D2E/DX2                !
 ! A59   A(17,16,45)           109.6035         estimate D2E/DX2                !
 ! A60   A(44,16,45)           106.9426         estimate D2E/DX2                !
 ! A61   A(11,17,16)           113.1558         estimate D2E/DX2                !
 ! A62   A(11,17,46)           109.4176         estimate D2E/DX2                !
 ! A63   A(11,17,47)           108.0672         estimate D2E/DX2                !
 ! A64   A(16,17,46)           110.929          estimate D2E/DX2                !
 ! A65   A(16,17,47)           108.9828         estimate D2E/DX2                !
 ! A66   A(46,17,47)           105.9969         estimate D2E/DX2                !
 ! A67   A(7,18,19)            106.2799         estimate D2E/DX2                !
 ! A68   A(5,19,18)            101.2332         estimate D2E/DX2                !
 ! A69   A(5,19,20)            112.3209         estimate D2E/DX2                !
 ! A70   A(5,19,26)            116.4835         estimate D2E/DX2                !
 ! A71   A(18,19,20)           106.9085         estimate D2E/DX2                !
 ! A72   A(18,19,26)           104.8671         estimate D2E/DX2                !
 ! A73   A(20,19,26)           113.4588         estimate D2E/DX2                !
 ! A74   A(19,20,21)           120.579          estimate D2E/DX2                !
 ! A75   A(19,20,25)           120.0601         estimate D2E/DX2                !
 ! A76   A(21,20,25)           119.2147         estimate D2E/DX2                !
 ! A77   A(20,21,22)           120.5197         estimate D2E/DX2                !
 ! A78   A(20,21,48)           119.878          estimate D2E/DX2                !
 ! A79   A(22,21,48)           119.6015         estimate D2E/DX2                !
 ! A80   A(21,22,23)           120.1194         estimate D2E/DX2                !
 ! A81   A(21,22,49)           119.5675         estimate D2E/DX2                !
 ! A82   A(23,22,49)           120.313          estimate D2E/DX2                !
 ! A83   A(22,23,24)           119.5521         estimate D2E/DX2                !
 ! A84   A(22,23,50)           120.2056         estimate D2E/DX2                !
 ! A85   A(24,23,50)           120.237          estimate D2E/DX2                !
 ! A86   A(23,24,25)           120.5752         estimate D2E/DX2                !
 ! A87   A(23,24,51)           120.3413         estimate D2E/DX2                !
 ! A88   A(25,24,51)           119.0732         estimate D2E/DX2                !
 ! A89   A(20,25,24)           120.0023         estimate D2E/DX2                !
 ! A90   A(20,25,52)           121.5682         estimate D2E/DX2                !
 ! A91   A(24,25,52)           118.2354         estimate D2E/DX2                !
 ! A92   A(19,26,27)           124.0449         estimate D2E/DX2                !
 ! A93   A(19,26,31)           117.3597         estimate D2E/DX2                !
 ! A94   A(27,26,31)           118.5942         estimate D2E/DX2                !
 ! A95   A(26,27,28)           120.662          estimate D2E/DX2                !
 ! A96   A(26,27,53)           120.8056         estimate D2E/DX2                !
 ! A97   A(28,27,53)           118.5324         estimate D2E/DX2                !
 ! A98   A(27,28,29)           120.2976         estimate D2E/DX2                !
 ! A99   A(27,28,54)           119.4337         estimate D2E/DX2                !
 ! A100  A(29,28,54)           120.2685         estimate D2E/DX2                !
 ! A101  A(28,29,30)           119.4901         estimate D2E/DX2                !
 ! A102  A(28,29,55)           120.2629         estimate D2E/DX2                !
 ! A103  A(30,29,55)           120.2469         estimate D2E/DX2                !
 ! A104  A(29,30,31)           120.1116         estimate D2E/DX2                !
 ! A105  A(29,30,56)           120.1693         estimate D2E/DX2                !
 ! A106  A(31,30,56)           119.7187         estimate D2E/DX2                !
 ! A107  A(26,31,30)           120.8413         estimate D2E/DX2                !
 ! A108  A(26,31,57)           119.0882         estimate D2E/DX2                !
 ! A109  A(30,31,57)           120.0703         estimate D2E/DX2                !
 ! A110  A(4,32,33)            120.8075         estimate D2E/DX2                !
 ! A111  A(4,32,58)            120.1619         estimate D2E/DX2                !
 ! A112  A(33,32,58)           119.0305         estimate D2E/DX2                !
 ! A113  A(1,33,32)            119.9068         estimate D2E/DX2                !
 ! A114  A(1,33,59)            120.349          estimate D2E/DX2                !
 ! A115  A(32,33,59)           119.7425         estimate D2E/DX2                !
 ! A116  A(6,60,13)             81.0343         estimate D2E/DX2                !
 ! A117  A(6,60,61)             90.0747         estimate D2E/DX2                !
 ! A118  A(6,60,62)            128.0192         estimate D2E/DX2                !
 ! A119  A(13,60,61)            94.2309         estimate D2E/DX2                !
 ! A120  A(13,60,62)           105.1964         estimate D2E/DX2                !
 ! A121  A(61,60,62)           138.9529         estimate D2E/DX2                !
 ! D1    D(33,1,2,3)             0.6833         estimate D2E/DX2                !
 ! D2    D(33,1,2,35)         -179.4828         estimate D2E/DX2                !
 ! D3    D(34,1,2,3)          -179.74           estimate D2E/DX2                !
 ! D4    D(34,1,2,35)            0.0938         estimate D2E/DX2                !
 ! D5    D(2,1,33,32)           -0.1184         estimate D2E/DX2                !
 ! D6    D(2,1,33,59)          179.3961         estimate D2E/DX2                !
 ! D7    D(34,1,33,32)        -179.6958         estimate D2E/DX2                !
 ! D8    D(34,1,33,59)          -0.1813         estimate D2E/DX2                !
 ! D9    D(1,2,3,4)             -0.5617         estimate D2E/DX2                !
 ! D10   D(1,2,3,36)           179.8873         estimate D2E/DX2                !
 ! D11   D(35,2,3,4)           179.6026         estimate D2E/DX2                !
 ! D12   D(35,2,3,36)            0.0516         estimate D2E/DX2                !
 ! D13   D(2,3,4,5)            178.7793         estimate D2E/DX2                !
 ! D14   D(2,3,4,32)            -0.1231         estimate D2E/DX2                !
 ! D15   D(36,3,4,5)            -1.6747         estimate D2E/DX2                !
 ! D16   D(36,3,4,32)          179.423          estimate D2E/DX2                !
 ! D17   D(3,4,5,6)             28.9666         estimate D2E/DX2                !
 ! D18   D(3,4,5,19)           -90.8848         estimate D2E/DX2                !
 ! D19   D(3,4,5,37)           146.7638         estimate D2E/DX2                !
 ! D20   D(32,4,5,6)          -152.1283         estimate D2E/DX2                !
 ! D21   D(32,4,5,19)           88.0203         estimate D2E/DX2                !
 ! D22   D(32,4,5,37)          -34.3311         estimate D2E/DX2                !
 ! D23   D(3,4,32,33)            0.6871         estimate D2E/DX2                !
 ! D24   D(3,4,32,58)         -179.1957         estimate D2E/DX2                !
 ! D25   D(5,4,32,33)         -178.2488         estimate D2E/DX2                !
 ! D26   D(5,4,32,58)            1.8685         estimate D2E/DX2                !
 ! D27   D(4,5,6,7)           -140.9622         estimate D2E/DX2                !
 ! D28   D(4,5,6,60)            12.3667         estimate D2E/DX2                !
 ! D29   D(19,5,6,7)           -13.9985         estimate D2E/DX2                !
 ! D30   D(19,5,6,60)          139.3305         estimate D2E/DX2                !
 ! D31   D(37,5,6,7)            99.9188         estimate D2E/DX2                !
 ! D32   D(37,5,6,60)         -106.7522         estimate D2E/DX2                !
 ! D33   D(4,5,19,18)          143.2514         estimate D2E/DX2                !
 ! D34   D(4,5,19,20)           29.543          estimate D2E/DX2                !
 ! D35   D(4,5,19,26)         -103.7189         estimate D2E/DX2                !
 ! D36   D(6,5,19,18)           17.0935         estimate D2E/DX2                !
 ! D37   D(6,5,19,20)          -96.615          estimate D2E/DX2                !
 ! D38   D(6,5,19,26)          130.1232         estimate D2E/DX2                !
 ! D39   D(37,5,19,18)         -94.6885         estimate D2E/DX2                !
 ! D40   D(37,5,19,20)         151.6031         estimate D2E/DX2                !
 ! D41   D(37,5,19,26)          18.3412         estimate D2E/DX2                !
 ! D42   D(5,6,7,8)           -176.3914         estimate D2E/DX2                !
 ! D43   D(5,6,7,18)             4.8339         estimate D2E/DX2                !
 ! D44   D(60,6,7,8)            21.059          estimate D2E/DX2                !
 ! D45   D(60,6,7,18)         -157.7158         estimate D2E/DX2                !
 ! D46   D(5,6,60,13)         -172.8864         estimate D2E/DX2                !
 ! D47   D(5,6,60,61)          -78.6149         estimate D2E/DX2                !
 ! D48   D(5,6,60,62)           84.786          estimate D2E/DX2                !
 ! D49   D(7,6,60,13)          -19.5187         estimate D2E/DX2                !
 ! D50   D(7,6,60,61)           74.7528         estimate D2E/DX2                !
 ! D51   D(7,6,60,62)         -121.8462         estimate D2E/DX2                !
 ! D52   D(6,7,8,9)            170.623          estimate D2E/DX2                !
 ! D53   D(6,7,8,13)            -8.0626         estimate D2E/DX2                !
 ! D54   D(18,7,8,9)           -10.6147         estimate D2E/DX2                !
 ! D55   D(18,7,8,13)          170.6997         estimate D2E/DX2                !
 ! D56   D(6,7,18,19)            7.4738         estimate D2E/DX2                !
 ! D57   D(8,7,18,19)         -171.328          estimate D2E/DX2                !
 ! D58   D(7,8,9,10)          -177.2121         estimate D2E/DX2                !
 ! D59   D(7,8,9,38)             2.3561         estimate D2E/DX2                !
 ! D60   D(13,8,9,10)            1.3586         estimate D2E/DX2                !
 ! D61   D(13,8,9,38)         -179.0732         estimate D2E/DX2                !
 ! D62   D(7,8,13,12)          178.1316         estimate D2E/DX2                !
 ! D63   D(7,8,13,60)          -10.1169         estimate D2E/DX2                !
 ! D64   D(9,8,13,12)           -0.5819         estimate D2E/DX2                !
 ! D65   D(9,8,13,60)          171.1696         estimate D2E/DX2                !
 ! D66   D(8,9,10,11)           -0.4699         estimate D2E/DX2                !
 ! D67   D(8,9,10,39)          179.4594         estimate D2E/DX2                !
 ! D68   D(38,9,10,11)         179.971          estimate D2E/DX2                !
 ! D69   D(38,9,10,39)          -0.0997         estimate D2E/DX2                !
 ! D70   D(9,10,11,12)          -1.0963         estimate D2E/DX2                !
 ! D71   D(9,10,11,17)         177.8969         estimate D2E/DX2                !
 ! D72   D(39,10,11,12)        178.9741         estimate D2E/DX2                !
 ! D73   D(39,10,11,17)         -2.0327         estimate D2E/DX2                !
 ! D74   D(10,11,12,13)          1.9113         estimate D2E/DX2                !
 ! D75   D(10,11,12,14)       -176.5136         estimate D2E/DX2                !
 ! D76   D(17,11,12,13)       -177.0853         estimate D2E/DX2                !
 ! D77   D(17,11,12,14)          4.4898         estimate D2E/DX2                !
 ! D78   D(10,11,17,16)        162.3029         estimate D2E/DX2                !
 ! D79   D(10,11,17,46)         38.0601         estimate D2E/DX2                !
 ! D80   D(10,11,17,47)        -76.9231         estimate D2E/DX2                !
 ! D81   D(12,11,17,16)        -18.7307         estimate D2E/DX2                !
 ! D82   D(12,11,17,46)       -142.9735         estimate D2E/DX2                !
 ! D83   D(12,11,17,47)        102.0433         estimate D2E/DX2                !
 ! D84   D(11,12,13,8)          -1.1012         estimate D2E/DX2                !
 ! D85   D(11,12,13,60)       -171.4053         estimate D2E/DX2                !
 ! D86   D(14,12,13,8)         177.4143         estimate D2E/DX2                !
 ! D87   D(14,12,13,60)          7.1102         estimate D2E/DX2                !
 ! D88   D(11,12,14,15)        -19.0995         estimate D2E/DX2                !
 ! D89   D(11,12,14,40)       -145.23           estimate D2E/DX2                !
 ! D90   D(11,12,14,41)        101.2578         estimate D2E/DX2                !
 ! D91   D(13,12,14,15)        162.4184         estimate D2E/DX2                !
 ! D92   D(13,12,14,40)         36.288          estimate D2E/DX2                !
 ! D93   D(13,12,14,41)        -77.2242         estimate D2E/DX2                !
 ! D94   D(8,13,60,6)           16.2305         estimate D2E/DX2                !
 ! D95   D(8,13,60,61)         -73.1767         estimate D2E/DX2                !
 ! D96   D(8,13,60,62)         143.3358         estimate D2E/DX2                !
 ! D97   D(12,13,60,6)        -172.6983         estimate D2E/DX2                !
 ! D98   D(12,13,60,61)         97.8946         estimate D2E/DX2                !
 ! D99   D(12,13,60,62)        -45.5929         estimate D2E/DX2                !
 ! D100  D(12,14,15,16)         47.548          estimate D2E/DX2                !
 ! D101  D(12,14,15,42)        -73.2344         estimate D2E/DX2                !
 ! D102  D(12,14,15,43)        169.8476         estimate D2E/DX2                !
 ! D103  D(40,14,15,16)        171.1138         estimate D2E/DX2                !
 ! D104  D(40,14,15,42)         50.3314         estimate D2E/DX2                !
 ! D105  D(40,14,15,43)        -66.5866         estimate D2E/DX2                !
 ! D106  D(41,14,15,16)        -71.3289         estimate D2E/DX2                !
 ! D107  D(41,14,15,42)        167.8886         estimate D2E/DX2                !
 ! D108  D(41,14,15,43)         50.9706         estimate D2E/DX2                !
 ! D109  D(14,15,16,17)        -62.8848         estimate D2E/DX2                !
 ! D110  D(14,15,16,44)        175.5071         estimate D2E/DX2                !
 ! D111  D(14,15,16,45)         57.7437         estimate D2E/DX2                !
 ! D112  D(42,15,16,17)         58.0773         estimate D2E/DX2                !
 ! D113  D(42,15,16,44)        -63.5308         estimate D2E/DX2                !
 ! D114  D(42,15,16,45)        178.7058         estimate D2E/DX2                !
 ! D115  D(43,15,16,17)        175.5779         estimate D2E/DX2                !
 ! D116  D(43,15,16,44)         53.9698         estimate D2E/DX2                !
 ! D117  D(43,15,16,45)        -63.7936         estimate D2E/DX2                !
 ! D118  D(15,16,17,11)         47.3724         estimate D2E/DX2                !
 ! D119  D(15,16,17,46)        170.7865         estimate D2E/DX2                !
 ! D120  D(15,16,17,47)        -72.8811         estimate D2E/DX2                !
 ! D121  D(44,16,17,11)        169.9834         estimate D2E/DX2                !
 ! D122  D(44,16,17,46)        -66.6025         estimate D2E/DX2                !
 ! D123  D(44,16,17,47)         49.7299         estimate D2E/DX2                !
 ! D124  D(45,16,17,11)        -73.0492         estimate D2E/DX2                !
 ! D125  D(45,16,17,46)         50.3649         estimate D2E/DX2                !
 ! D126  D(45,16,17,47)        166.6973         estimate D2E/DX2                !
 ! D127  D(7,18,19,5)          -14.9939         estimate D2E/DX2                !
 ! D128  D(7,18,19,20)         102.7216         estimate D2E/DX2                !
 ! D129  D(7,18,19,26)        -136.5357         estimate D2E/DX2                !
 ! D130  D(5,19,20,21)        -110.0429         estimate D2E/DX2                !
 ! D131  D(5,19,20,25)          65.5292         estimate D2E/DX2                !
 ! D132  D(18,19,20,21)        139.7815         estimate D2E/DX2                !
 ! D133  D(18,19,20,25)        -44.6465         estimate D2E/DX2                !
 ! D134  D(26,19,20,21)         24.6783         estimate D2E/DX2                !
 ! D135  D(26,19,20,25)       -159.7496         estimate D2E/DX2                !
 ! D136  D(5,19,26,27)          15.017          estimate D2E/DX2                !
 ! D137  D(5,19,26,31)        -165.3983         estimate D2E/DX2                !
 ! D138  D(18,19,26,27)        125.96           estimate D2E/DX2                !
 ! D139  D(18,19,26,31)        -54.4552         estimate D2E/DX2                !
 ! D140  D(20,19,26,27)       -117.7298         estimate D2E/DX2                !
 ! D141  D(20,19,26,31)         61.855          estimate D2E/DX2                !
 ! D142  D(19,20,21,22)        176.6972         estimate D2E/DX2                !
 ! D143  D(19,20,21,48)         -2.9733         estimate D2E/DX2                !
 ! D144  D(25,20,21,22)          1.0881         estimate D2E/DX2                !
 ! D145  D(25,20,21,48)       -178.5824         estimate D2E/DX2                !
 ! D146  D(19,20,25,24)       -176.9221         estimate D2E/DX2                !
 ! D147  D(19,20,25,52)         -2.0758         estimate D2E/DX2                !
 ! D148  D(21,20,25,24)         -1.2898         estimate D2E/DX2                !
 ! D149  D(21,20,25,52)        173.5566         estimate D2E/DX2                !
 ! D150  D(20,21,22,23)          0.0251         estimate D2E/DX2                !
 ! D151  D(20,21,22,49)        179.988          estimate D2E/DX2                !
 ! D152  D(48,21,22,23)        179.6966         estimate D2E/DX2                !
 ! D153  D(48,21,22,49)         -0.3406         estimate D2E/DX2                !
 ! D154  D(21,22,23,24)         -0.9385         estimate D2E/DX2                !
 ! D155  D(21,22,23,50)        179.8977         estimate D2E/DX2                !
 ! D156  D(49,22,23,24)        179.0989         estimate D2E/DX2                !
 ! D157  D(49,22,23,50)         -0.0648         estimate D2E/DX2                !
 ! D158  D(22,23,24,25)          0.7337         estimate D2E/DX2                !
 ! D159  D(22,23,24,51)       -178.0892         estimate D2E/DX2                !
 ! D160  D(50,23,24,25)        179.8972         estimate D2E/DX2                !
 ! D161  D(50,23,24,51)          1.0742         estimate D2E/DX2                !
 ! D162  D(23,24,25,20)          0.3863         estimate D2E/DX2                !
 ! D163  D(23,24,25,52)       -174.6302         estimate D2E/DX2                !
 ! D164  D(51,24,25,20)        179.224          estimate D2E/DX2                !
 ! D165  D(51,24,25,52)          4.2076         estimate D2E/DX2                !
 ! D166  D(19,26,27,28)        179.3633         estimate D2E/DX2                !
 ! D167  D(19,26,27,53)         -0.6369         estimate D2E/DX2                !
 ! D168  D(31,26,27,28)         -0.2168         estimate D2E/DX2                !
 ! D169  D(31,26,27,53)        179.7831         estimate D2E/DX2                !
 ! D170  D(19,26,31,30)       -179.9199         estimate D2E/DX2                !
 ! D171  D(19,26,31,57)         -0.0853         estimate D2E/DX2                !
 ! D172  D(27,26,31,30)         -0.3118         estimate D2E/DX2                !
 ! D173  D(27,26,31,57)        179.5228         estimate D2E/DX2                !
 ! D174  D(26,27,28,29)          0.4833         estimate D2E/DX2                !
 ! D175  D(26,27,28,54)       -179.6828         estimate D2E/DX2                !
 ! D176  D(53,27,28,29)       -179.5165         estimate D2E/DX2                !
 ! D177  D(53,27,28,54)          0.3174         estimate D2E/DX2                !
 ! D178  D(27,28,29,30)         -0.2183         estimate D2E/DX2                !
 ! D179  D(27,28,29,55)        179.823          estimate D2E/DX2                !
 ! D180  D(54,28,29,30)        179.9492         estimate D2E/DX2                !
 ! D181  D(54,28,29,55)         -0.0095         estimate D2E/DX2                !
 ! D182  D(28,29,30,31)         -0.3065         estimate D2E/DX2                !
 ! D183  D(28,29,30,56)        179.9469         estimate D2E/DX2                !
 ! D184  D(55,29,30,31)        179.6522         estimate D2E/DX2                !
 ! D185  D(55,29,30,56)         -0.0944         estimate D2E/DX2                !
 ! D186  D(29,30,31,26)          0.5763         estimate D2E/DX2                !
 ! D187  D(29,30,31,57)       -179.2567         estimate D2E/DX2                !
 ! D188  D(56,30,31,26)       -179.676          estimate D2E/DX2                !
 ! D189  D(56,30,31,57)          0.491          estimate D2E/DX2                !
 ! D190  D(4,32,33,1)           -0.5683         estimate D2E/DX2                !
 ! D191  D(4,32,33,59)         179.9143         estimate D2E/DX2                !
 ! D192  D(58,32,33,1)         179.3158         estimate D2E/DX2                !
 ! D193  D(58,32,33,59)         -0.2017         estimate D2E/DX2                !
 --------------------------------------------------------------------------------
 Trust Radius=3.00D-01 FncErr=1.00D-07 GrdErr=1.00D-06 EigMax=2.50D+02 EigMin=1.00D-04
 Number of steps in this run=    372 maximum allowed number of steps=    372.
 GradGradGradGradGradGradGradGradGradGradGradGradGradGradGradGradGradGrad

 Stoichiometry    C30H26F2N2NiO(3)
 Framework group  C1[X(C30H26F2N2NiO)]
 Deg. of freedom   180
 Full point group                 C1      NOp   1
 Largest Abelian subgroup         C1      NOp   1
 Largest concise Abelian subgroup C1      NOp   1
                         Standard orientation:                         
 ---------------------------------------------------------------------
 Center     Atomic      Atomic             Coordinates (Angstroms)
 Number     Number       Type             X           Y           Z
 ---------------------------------------------------------------------
      1          6           0       -3.246814   -4.118569   -0.584544
      2          6           0       -2.067817   -3.839850    0.105989
      3          6           0       -1.434718   -2.604153   -0.030936
      4          6           0       -1.979504   -1.632632   -0.879961
      5          6           0       -1.347240   -0.266536   -1.043413
      6          7           0        0.112059   -0.232690   -0.841915
      7          6           0        0.399181    0.849194   -0.211013
      8          6           0        1.787024    1.228725    0.081431
      9          6           0        2.169199    2.462759    0.588840
     10          6           0        3.533934    2.691382    0.757074
     11          6           0        4.467398    1.705752    0.433450
     12          6           0        3.988089    0.466974   -0.045097
     13          7           0        2.677514    0.265028   -0.217622
     14          6           0        4.899221   -0.694349   -0.352256
     15          6           0        6.354923   -0.261933   -0.543230
     16          6           0        6.787304    0.674769    0.589608
     17          6           0        5.953295    1.961595    0.568245
     18          8           0       -0.596595    1.626765    0.204763
     19          6           0       -1.864711    0.863564   -0.057138
     20          6           0       -2.324840    0.298696    1.278036
     21          6           0       -3.680569    0.294974    1.619479
     22          6           0       -4.108749   -0.285056    2.813713
     23          6           0       -3.184562   -0.867092    3.679217
     24          6           0       -1.832388   -0.882629    3.333351
     25          6           0       -1.399706   -0.308961    2.140472
     26          6           0       -2.820559    1.885961   -0.641898
     27          6           0       -3.488736    1.725696   -1.856560
     28          6           0       -4.365487    2.709109   -2.322891
     29          6           0       -4.576382    3.869565   -1.583730
     30          6           0       -3.907974    4.042266   -0.368632
     31          6           0       -3.044411    3.057549    0.098675
     32          6           0       -3.154926   -1.922152   -1.581723
     33          6           0       -3.790221   -3.153747   -1.432831
     34          1           0       -3.735944   -5.081900   -0.469166
     35          1           0       -1.630484   -4.586429    0.763052
     36          1           0       -0.517066   -2.408013    0.518679
     37          1           0       -1.513154    0.064444   -2.073670
     38          1           0        1.422699    3.209516    0.832215
     39          1           0        3.879169    3.647046    1.143277
     40          1           0        4.493426   -1.238101   -1.212316
     41          1           0        4.830288   -1.391086    0.497293
     42          1           0        6.466173    0.253503   -1.507309
     43          1           0        6.997547   -1.147495   -0.582542
     44          1           0        7.849957    0.928241    0.508206
     45          1           0        6.652842    0.164402    1.552942
     46          1           0        6.139596    2.564109    1.465457
     47          1           0        6.271695    2.580332   -0.283997
     48          1           0       -4.407313    0.741031    0.950033
     49          1           0       -5.165893   -0.279089    3.063736
     50          1           0       -3.516305   -1.317763    4.610469
     51          1           0       -1.105283   -1.360086    3.983529
     52          1           0       -0.355491   -0.419681    1.866643
     53          1           0       -3.340022    0.838224   -2.458161
     54          1           0       -4.878957    2.561439   -3.268455
     55          1           0       -5.255687    4.634752   -1.948069
     56          1           0       -4.063701    4.943925    0.216719
     57          1           0       -2.535068    3.186948    1.047963
     58          1           0       -3.584256   -1.185652   -2.254371
     59          1           0       -4.702902   -3.359702   -1.985117
     60         28           0        1.730735   -1.513629   -0.663827
     61          9           0        1.259308   -1.866975    1.107877
     62          9           0        2.715557   -2.256024   -1.988054
 ---------------------------------------------------------------------
 Rotational constants (GHZ):           0.1617433           0.0761757           0.0648308
 General basis read from cards:  (6D, 7F)
 ======================================================================================================
                                       Pseudopotential Parameters
 ======================================================================================================
  Center     Atomic      Valence      Angular      Power
  Number     Number     Electrons     Momentum     of R      Exponent        Coefficient   SO-Coeffient
 ======================================================================================================
    1          6
                                   No pseudopotential on this center.
    2          6
                                   No pseudopotential on this center.
    3          6
                                   No pseudopotential on this center.
    4          6
                                   No pseudopotential on this center.
    5          6
                                   No pseudopotential on this center.
    6          7
                                   No pseudopotential on this center.
    7          6
                                   No pseudopotential on this center.
    8          6
                                   No pseudopotential on this center.
    9          6
                                   No pseudopotential on this center.
   10          6
                                   No pseudopotential on this center.
   11          6
                                   No pseudopotential on this center.
   12          6
                                   No pseudopotential on this center.
   13          7
                                   No pseudopotential on this center.
   14          6
                                   No pseudopotential on this center.
   15          6
                                   No pseudopotential on this center.
   16          6
                                   No pseudopotential on this center.
   17          6
                                   No pseudopotential on this center.
   18          8
                                   No pseudopotential on this center.
   19          6
                                   No pseudopotential on this center.
   20          6
                                   No pseudopotential on this center.
   21          6
                                   No pseudopotential on this center.
   22          6
                                   No pseudopotential on this center.
   23          6
                                   No pseudopotential on this center.
   24          6
                                   No pseudopotential on this center.
   25          6
                                   No pseudopotential on this center.
   26          6
                                   No pseudopotential on this center.
   27          6
                                   No pseudopotential on this center.
   28          6
                                   No pseudopotential on this center.
   29          6
                                   No pseudopotential on this center.
   30          6
                                   No pseudopotential on this center.
   31          6
                                   No pseudopotential on this center.
   32          6
                                   No pseudopotential on this center.
   33          6
                                   No pseudopotential on this center.
   34          1
                                   No pseudopotential on this center.
   35          1
                                   No pseudopotential on this center.
   36          1
                                   No pseudopotential on this center.
   37          1
                                   No pseudopotential on this center.
   38          1
                                   No pseudopotential on this center.
   39          1
                                   No pseudopotential on this center.
   40          1
                                   No pseudopotential on this center.
   41          1
                                   No pseudopotential on this center.
   42          1
                                   No pseudopotential on this center.
   43          1
                                   No pseudopotential on this center.
   44          1
                                   No pseudopotential on this center.
   45          1
                                   No pseudopotential on this center.
   46          1
                                   No pseudopotential on this center.
   47          1
                                   No pseudopotential on this center.
   48          1
                                   No pseudopotential on this center.
   49          1
                                   No pseudopotential on this center.
   50          1
                                   No pseudopotential on this center.
   51          1
                                   No pseudopotential on this center.
   52          1
                                   No pseudopotential on this center.
   53          1
                                   No pseudopotential on this center.
   54          1
                                   No pseudopotential on this center.
   55          1
                                   No pseudopotential on this center.
   56          1
                                   No pseudopotential on this center.
   57          1
                                   No pseudopotential on this center.
   58          1
                                   No pseudopotential on this center.
   59          1
                                   No pseudopotential on this center.
   60         28           18
                                      D and up 
                                                     1      469.9324331      -10.00000000    0.00000000
                                                     2       85.4236411      -69.40848050    0.00000000
                                                     2       21.2674984      -12.09510200    0.00000000
                                      S - D
                                                     0      162.1686097        3.00000000    0.00000000
                                                     1      176.5333232       22.02536180    0.00000000
                                                     2       68.9562010      443.01810880    0.00000000
                                                     2       13.5792838      145.56964110    0.00000000
                                      P - D
                                                     0       69.0181506        5.00000000    0.00000000
                                                     1      275.5955596        4.98828240    0.00000000
                                                     2       47.1315453      256.69458530    0.00000000
                                                     2       12.9874075       78.47544500    0.00000000
   61          9
                                   No pseudopotential on this center.
   62          9
                                   No pseudopotential on this center.
 ======================================================================================================
 There are   654 symmetry adapted cartesian basis functions of A   symmetry.
 There are   651 symmetry adapted basis functions of A   symmetry.
   651 basis functions,  1238 primitive gaussians,   654 cartesian basis functions
   133 alpha electrons      131 beta electrons
       nuclear repulsion energy      4226.1825931521 Hartrees.
 NAtoms=   62 NActive=   62 NUniq=   62 SFac= 1.00D+00 NAtFMM=   60 NAOKFM=T Big=T
 Integral buffers will be    131072 words long.
 Raffenetti 2 integral format.
 Two-electron integral symmetry is turned on.
 Nuclear repulsion after empirical dispersion term =     4226.0154600305 Hartrees.
 One-electron integrals computed using PRISM.
 PrsmSu:  requested number of processors reduced to:  12 ShMem   1 Linda.
   1 Symmetry operations used in ECPInt.
 ECPInt:  NShTT=   22791 NPrTT=  142008 LenC2=   18105 LenP2D=   59483.
 LDataN:  DoStor=T MaxTD1= 6 Len=  172
 Number of processors reduced to  11 by ecpmxn.
 NBasis=   651 RedAO= T EigKep=  1.03D-06  NBF=   651
 NBsUse=   651 1.00D-06 EigRej= -1.00D+00 NBFU=   651
 ExpMin= 2.40D-02 ExpMax= 7.14D+04 ExpMxC= 1.07D+04 IAcc=3 IRadAn=         5 AccDes= 0.00D+00
 Harris functional with IExCor=  402 and IRadAn=       5 diagonalized for initial guess.
 HarFok:  IExCor=  402 AccDes= 0.00D+00 IRadAn=         5 IDoV= 1 UseB2=F ITyADJ=14
 ICtDFT=  3500011 ScaDFX=  1.000000  1.000000  1.000000  1.000000
 FoFCou: FMM=F IPFlag=           0 FMFlag=      100000 FMFlg1=        2001
         NFxFlg=           0 DoJE=T BraDBF=F KetDBF=T FulRan=T
         wScrn=  0.000000 ICntrl=       500 IOpCl=  0 I1Cent=   200000004 NGrid=           0
         NMat0=    1 NMatS0=      1 NMatT0=    0 NMatD0=    1 NMtDS0=    0 NMtDT0=    0
 Petite list used in FoFCou.
 Initial guess <Sx>= 0.0000 <Sy>= 0.0000 <Sz>= 1.0000 <S**2>= 2.0000 S= 1.0000
 Requested convergence on RMS density matrix=1.00D-08 within 128 cycles.
 Requested convergence on MAX density matrix=1.00D-06.
 Requested convergence on             energy=1.00D-06.
 No special actions if energy rises.
 Restarting incremental Fock formation.
 Restarting incremental Fock formation.
 SCF Done:  E(UB3LYP) =  -1712.90461585     A.U. after   46 cycles
            NFock= 46  Conv=0.13D-08     -V/T= 2.0467
 <Sx>= 0.0000 <Sy>= 0.0000 <Sz>= 1.0000 <S**2>= 2.0056 S= 1.0019
 <L.S>=  0.00000000000    
 Annihilation of the first spin contaminant:
 S**2 before annihilation     2.0056,   after     2.0000

 **********************************************************************

            Population analysis using the SCF Density.

 **********************************************************************

 Orbital symmetries:
 Alpha Orbitals:
       Occupied  (A) (A) (A) (A) (A) (A) (A) (A) (A) (A) (A) (A)
                 (A) (A) (A) (A) (A) (A) (A) (A) (A) (A) (A) (A)
                 (A) (A) (A) (A) (A) (A) (A) (A) (A) (A) (A) (A)
                 (A) (A) (A) (A) (A) (A) (A) (A) (A) (A) (A) (A)
                 (A) (A) (A) (A) (A) (A) (A) (A) (A) (A) (A) (A)
                 (A) (A) (A) (A) (A) (A) (A) (A) (A) (A) (A) (A)
                 (A) (A) (A) (A) (A) (A) (A) (A) (A) (A) (A) (A)
                 (A) (A) (A) (A) (A) (A) (A) (A) (A) (A) (A) (A)
                 (A) (A) (A) (A) (A) (A) (A) (A) (A) (A) (A) (A)
                 (A) (A) (A) (A) (A) (A) (A) (A) (A) (A) (A) (A)
                 (A) (A) (A) (A) (A) (A) (A) (A) (A) (A) (A) (A)
                 (A)
       Virtual   (A) (A) (A) (A) (A) (A) (A) (A) (A) (A) (A) (A)
                 (A) (A) (A) (A) (A) (A) (A) (A) (A) (A) (A) (A)
                 (A) (A) (A) (A) (A) (A) (A) (A) (A) (A) (A) (A)
                 (A) (A) (A) (A) (A) (A) (A) (A) (A) (A) (A) (A)
                 (A) (A) (A) (A) (A) (A) (A) (A) (A) (A) (A) (A)
                 (A) (A) (A) (A) (A) (A) (A) (A) (A) (A) (A) (A)
                 (A) (A) (A) (A) (A) (A) (A) (A) (A) (A) (A) (A)
                 (A) (A) (A) (A) (A) (A) (A) (A) (A) (A) (A) (A)
                 (A) (A) (A) (A) (A) (A) (A) (A) (A) (A) (A) (A)
                 (A) (A) (A) (A) (A) (A) (A) (A) (A) (A) (A) (A)
                 (A) (A) (A) (A) (A) (A) (A) (A) (A) (A) (A) (A)
                 (A) (A) (A) (A) (A) (A) (A) (A) (A) (A) (A) (A)
                 (A) (A) (A) (A) (A) (A) (A) (A) (A) (A) (A) (A)
                 (A) (A) (A) (A) (A) (A) (A) (A) (A) (A) (A) (A)
                 (A) (A) (A) (A) (A) (A) (A) (A) (A) (A) (A) (A)
                 (A) (A) (A) (A) (A) (A) (A) (A) (A) (A) (A) (A)
                 (A) (A) (A) (A) (A) (A) (A) (A) (A) (A) (A) (A)
                 (A) (A) (A) (A) (A) (A) (A) (A) (A) (A) (A) (A)
                 (A) (A) (A) (A) (A) (A) (A) (A) (A) (A) (A) (A)
                 (A) (A) (A) (A) (A) (A) (A) (A) (A) (A) (A) (A)
                 (A) (A) (A) (A) (A) (A) (A) (A) (A) (A) (A) (A)
                 (A) (A) (A) (A) (A) (A) (A) (A) (A) (A) (A) (A)
                 (A) (A) (A) (A) (A) (A) (A) (A) (A) (A) (A) (A)
                 (A) (A) (A) (A) (A) (A) (A) (A) (A) (A) (A) (A)
                 (A) (A) (A) (A) (A) (A) (A) (A) (A) (A) (A) (A)
                 (A) (A) (A) (A) (A) (A) (A) (A) (A) (A) (A) (A)
                 (A) (A) (A) (A) (A) (A) (A) (A) (A) (A) (A) (A)
                 (A) (A) (A) (A) (A) (A) (A) (A) (A) (A) (A) (A)
                 (A) (A) (A) (A) (A) (A) (A) (A) (A) (A) (A) (A)
                 (A) (A) (A) (A) (A) (A) (A) (A) (A) (A) (A) (A)
                 (A) (A) (A) (A) (A) (A) (A) (A) (A) (A) (A) (A)
                 (A) (A) (A) (A) (A) (A) (A) (A) (A) (A) (A) (A)
                 (A) (A) (A) (A) (A) (A) (A) (A) (A) (A) (A) (A)
                 (A) (A) (A) (A) (A) (A) (A) (A) (A) (A) (A) (A)
                 (A) (A) (A) (A) (A) (A) (A) (A) (A) (A) (A) (A)
                 (A) (A) (A) (A) (A) (A) (A) (A) (A) (A) (A) (A)
                 (A) (A) (A) (A) (A) (A) (A) (A) (A) (A) (A) (A)
                 (A) (A) (A) (A) (A) (A) (A) (A) (A) (A) (A) (A)
                 (A) (A) (A) (A) (A) (A) (A) (A) (A) (A) (A) (A)
                 (A) (A) (A) (A) (A) (A) (A) (A) (A) (A) (A) (A)
                 (A) (A) (A) (A) (A) (A) (A) (A) (A) (A) (A) (A)
                 (A) (A) (A) (A) (A) (A) (A) (A) (A) (A) (A) (A)
                 (A) (A) (A) (A) (A) (A) (A) (A) (A) (A) (A) (A)
                 (A) (A)
 Beta  Orbitals:
       Occupied  (A) (A) (A) (A) (A) (A) (A) (A) (A) (A) (A) (A)
                 (A) (A) (A) (A) (A) (A) (A) (A) (A) (A) (A) (A)
                 (A) (A) (A) (A) (A) (A) (A) (A) (A) (A) (A) (A)
                 (A) (A) (A) (A) (A) (A) (A) (A) (A) (A) (A) (A)
                 (A) (A) (A) (A) (A) (A) (A) (A) (A) (A) (A) (A)
                 (A) (A) (A) (A) (A) (A) (A) (A) (A) (A) (A) (A)
                 (A) (A) (A) (A) (A) (A) (A) (A) (A) (A) (A) (A)
                 (A) (A) (A) (A) (A) (A) (A) (A) (A) (A) (A) (A)
                 (A) (A) (A) (A) (A) (A) (A) (A) (A) (A) (A) (A)
                 (A) (A) (A) (A) (A) (A) (A) (A) (A) (A) (A) (A)
                 (A) (A) (A) (A) (A) (A) (A) (A) (A) (A) (A)
       Virtual   (A) (A) (A) (A) (A) (A) (A) (A) (A) (A) (A) (A)
                 (A) (A) (A) (A) (A) (A) (A) (A) (A) (A) (A) (A)
                 (A) (A) (A) (A) (A) (A) (A) (A) (A) (A) (A) (A)
                 (A) (A) (A) (A) (A) (A) (A) (A) (A) (A) (A) (A)
                 (A) (A) (A) (A) (A) (A) (A) (A) (A) (A) (A) (A)
                 (A) (A) (A) (A) (A) (A) (A) (A) (A) (A) (A) (A)
                 (A) (A) (A) (A) (A) (A) (A) (A) (A) (A) (A) (A)
                 (A) (A) (A) (A) (A) (A) (A) (A) (A) (A) (A) (A)
                 (A) (A) (A) (A) (A) (A) (A) (A) (A) (A) (A) (A)
                 (A) (A) (A) (A) (A) (A) (A) (A) (A) (A) (A) (A)
                 (A) (A) (A) (A) (A) (A) (A) (A) (A) (A) (A) (A)
                 (A) (A) (A) (A) (A) (A) (A) (A) (A) (A) (A) (A)
                 (A) (A) (A) (A) (A) (A) (A) (A) (A) (A) (A) (A)
                 (A) (A) (A) (A) (A) (A) (A) (A) (A) (A) (A) (A)
                 (A) (A) (A) (A) (A) (A) (A) (A) (A) (A) (A) (A)
                 (A) (A) (A) (A) (A) (A) (A) (A) (A) (A) (A) (A)
                 (A) (A) (A) (A) (A) (A) (A) (A) (A) (A) (A) (A)
                 (A) (A) (A) (A) (A) (A) (A) (A) (A) (A) (A) (A)
                 (A) (A) (A) (A) (A) (A) (A) (A) (A) (A) (A) (A)
                 (A) (A) (A) (A) (A) (A) (A) (A) (A) (A) (A) (A)
                 (A) (A) (A) (A) (A) (A) (A) (A) (A) (A) (A) (A)
                 (A) (A) (A) (A) (A) (A) (A) (A) (A) (A) (A) (A)
                 (A) (A) (A) (A) (A) (A) (A) (A) (A) (A) (A) (A)
                 (A) (A) (A) (A) (A) (A) (A) (A) (A) (A) (A) (A)
                 (A) (A) (A) (A) (A) (A) (A) (A) (A) (A) (A) (A)
                 (A) (A) (A) (A) (A) (A) (A) (A) (A) (A) (A) (A)
                 (A) (A) (A) (A) (A) (A) (A) (A) (A) (A) (A) (A)
                 (A) (A) (A) (A) (A) (A) (A) (A) (A) (A) (A) (A)
                 (A) (A) (A) (A) (A) (A) (A) (A) (A) (A) (A) (A)
                 (A) (A) (A) (A) (A) (A) (A) (A) (A) (A) (A) (A)
                 (A) (A) (A) (A) (A) (A) (A) (A) (A) (A) (A) (A)
                 (A) (A) (A) (A) (A) (A) (A) (A) (A) (A) (A) (A)
                 (A) (A) (A) (A) (A) (A) (A) (A) (A) (A) (A) (A)
                 (A) (A) (A) (A) (A) (A) (A) (A) (A) (A) (A) (A)
                 (A) (A) (A) (A) (A) (A) (A) (A) (A) (A) (A) (A)
                 (A) (A) (A) (A) (A) (A) (A) (A) (A) (A) (A) (A)
                 (A) (A) (A) (A) (A) (A) (A) (A) (A) (A) (A) (A)
                 (A) (A) (A) (A) (A) (A) (A) (A) (A) (A) (A) (A)
                 (A) (A) (A) (A) (A) (A) (A) (A) (A) (A) (A) (A)
                 (A) (A) (A) (A) (A) (A) (A) (A) (A) (A) (A) (A)
                 (A) (A) (A) (A) (A) (A) (A) (A) (A) (A) (A) (A)
                 (A) (A) (A) (A) (A) (A) (A) (A) (A) (A) (A) (A)
                 (A) (A) (A) (A) (A) (A) (A) (A) (A) (A) (A) (A)
                 (A) (A) (A) (A)
 The electronic state is 3-A.
 Alpha  occ. eigenvalues --  -24.56447 -24.55552 -19.21204 -14.38142 -14.35732
 Alpha  occ. eigenvalues --  -10.31066 -10.28044 -10.26519 -10.25727 -10.24422
 Alpha  occ. eigenvalues --  -10.23256 -10.23113 -10.22916 -10.21267 -10.21076
 Alpha  occ. eigenvalues --  -10.20501 -10.20305 -10.20253 -10.20203 -10.20101
 Alpha  occ. eigenvalues --  -10.19719 -10.19668 -10.19181 -10.19165 -10.18804
 Alpha  occ. eigenvalues --  -10.18750 -10.18661 -10.18601 -10.18422 -10.18276
 Alpha  occ. eigenvalues --  -10.18202 -10.18041 -10.18003 -10.17618 -10.16773
 Alpha  occ. eigenvalues --   -4.09463  -2.70966  -2.69668  -2.68518  -1.11933
 Alpha  occ. eigenvalues --   -1.02312  -1.01386  -0.98984  -0.93712  -0.87831
 Alpha  occ. eigenvalues --   -0.85844  -0.85292  -0.84428  -0.83461  -0.81380
 Alpha  occ. eigenvalues --   -0.78242  -0.76244  -0.75772  -0.75460  -0.74670
 Alpha  occ. eigenvalues --   -0.73925  -0.73290  -0.71878  -0.67810  -0.66969
 Alpha  occ. eigenvalues --   -0.65156  -0.63707  -0.62262  -0.61371  -0.60723
 Alpha  occ. eigenvalues --   -0.59781  -0.59475  -0.58113  -0.57631  -0.56497
 Alpha  occ. eigenvalues --   -0.54782  -0.53337  -0.53059  -0.51768  -0.50573
 Alpha  occ. eigenvalues --   -0.49590  -0.48527  -0.48184  -0.47448  -0.46390
 Alpha  occ. eigenvalues --   -0.46184  -0.45742  -0.45291  -0.45219  -0.44499
 Alpha  occ. eigenvalues --   -0.44405  -0.44090  -0.43711  -0.43180  -0.42468
 Alpha  occ. eigenvalues --   -0.42219  -0.41886  -0.41546  -0.41053  -0.40762
 Alpha  occ. eigenvalues --   -0.40420  -0.40282  -0.39890  -0.39697  -0.39364
 Alpha  occ. eigenvalues --   -0.37797  -0.37297  -0.36997  -0.36595  -0.36155
 Alpha  occ. eigenvalues --   -0.35797  -0.35569  -0.35141  -0.34712  -0.34570
 Alpha  occ. eigenvalues --   -0.34495  -0.33826  -0.33573  -0.33526  -0.33202
 Alpha  occ. eigenvalues --   -0.33088  -0.32907  -0.31299  -0.30472  -0.29555
 Alpha  occ. eigenvalues --   -0.28926  -0.28298  -0.26685  -0.26430  -0.26213
 Alpha  occ. eigenvalues --   -0.25671  -0.25305  -0.24894  -0.24506  -0.24337
 Alpha  occ. eigenvalues --   -0.23856  -0.23667  -0.23069
 Alpha virt. eigenvalues --   -0.07982  -0.04562  -0.02473  -0.01640  -0.00677
 Alpha virt. eigenvalues --    0.00109   0.00361   0.01536   0.01808   0.02877
 Alpha virt. eigenvalues --    0.03188   0.03555   0.04509   0.07743   0.08627
 Alpha virt. eigenvalues --    0.09413   0.09691   0.10262   0.10940   0.11061
 Alpha virt. eigenvalues --    0.11185   0.12393   0.12981   0.13186   0.13382
 Alpha virt. eigenvalues --    0.13922   0.14367   0.14605   0.14968   0.15208
 Alpha virt. eigenvalues --    0.15499   0.15902   0.16521   0.16871   0.16887
 Alpha virt. eigenvalues --    0.17144   0.17303   0.18151   0.18251   0.18430
 Alpha virt. eigenvalues --    0.18590   0.18852   0.19013   0.19387   0.19761
 Alpha virt. eigenvalues --    0.20577   0.21501   0.21889   0.22438   0.23472
 Alpha virt. eigenvalues --    0.23989   0.24258   0.24708   0.25092   0.25695
 Alpha virt. eigenvalues --    0.26014   0.26070   0.27060   0.27724   0.28190
 Alpha virt. eigenvalues --    0.28658   0.29067   0.29268   0.29879   0.30634
 Alpha virt. eigenvalues --    0.31281   0.31535   0.32130   0.32999   0.33641
 Alpha virt. eigenvalues --    0.33949   0.34344   0.35077   0.35578   0.36381
 Alpha virt. eigenvalues --    0.36889   0.37086   0.37876   0.39452   0.41049
 Alpha virt. eigenvalues --    0.41578   0.44914   0.46025   0.46271   0.46798
 Alpha virt. eigenvalues --    0.47805   0.48419   0.49809   0.50293   0.50909
 Alpha virt. eigenvalues --    0.51894   0.52391   0.52665   0.52704   0.53216
 Alpha virt. eigenvalues --    0.53692   0.53765   0.53968   0.54526   0.55044
 Alpha virt. eigenvalues --    0.55416   0.55892   0.56290   0.56650   0.56798
 Alpha virt. eigenvalues --    0.56950   0.57546   0.58178   0.58468   0.58764
 Alpha virt. eigenvalues --    0.59222   0.59449   0.59616   0.59847   0.60175
 Alpha virt. eigenvalues --    0.60438   0.60598   0.60841   0.60984   0.61153
 Alpha virt. eigenvalues --    0.61391   0.61727   0.62252   0.62642   0.62806
 Alpha virt. eigenvalues --    0.62961   0.63223   0.63628   0.64279   0.64403
 Alpha virt. eigenvalues --    0.65008   0.65302   0.65533   0.66124   0.66497
 Alpha virt. eigenvalues --    0.66945   0.67044   0.67682   0.68913   0.69304
 Alpha virt. eigenvalues --    0.69553   0.70383   0.70961   0.72121   0.73253
 Alpha virt. eigenvalues --    0.74428   0.74682   0.75839   0.76258   0.76374
 Alpha virt. eigenvalues --    0.76970   0.77695   0.78137   0.78793   0.79929
 Alpha virt. eigenvalues --    0.80787   0.81455   0.82251   0.82702   0.83020
 Alpha virt. eigenvalues --    0.83335   0.83829   0.84213   0.84295   0.84689
 Alpha virt. eigenvalues --    0.85239   0.85525   0.85807   0.86225   0.86501
 Alpha virt. eigenvalues --    0.86864   0.87197   0.88134   0.88268   0.88729
 Alpha virt. eigenvalues --    0.89282   0.89710   0.90766   0.91440   0.91744
 Alpha virt. eigenvalues --    0.91976   0.92553   0.93139   0.93514   0.93689
 Alpha virt. eigenvalues --    0.94267   0.94517   0.95283   0.95707   0.95857
 Alpha virt. eigenvalues --    0.96517   0.96664   0.97071   0.98006   0.99427
 Alpha virt. eigenvalues --    0.99950   1.00832   1.01187   1.02413   1.02718
 Alpha virt. eigenvalues --    1.03325   1.03955   1.04708   1.05956   1.06251
 Alpha virt. eigenvalues --    1.07030   1.07478   1.07677   1.08046   1.08656
 Alpha virt. eigenvalues --    1.10379   1.10525   1.12570   1.13009   1.13629
 Alpha virt. eigenvalues --    1.14220   1.14464   1.15531   1.16621   1.16751
 Alpha virt. eigenvalues --    1.17388   1.18245   1.18875   1.19396   1.20239
 Alpha virt. eigenvalues --    1.20710   1.21845   1.22829   1.23409   1.24711
 Alpha virt. eigenvalues --    1.26908   1.27274   1.29257   1.29817   1.30207
 Alpha virt. eigenvalues --    1.31538   1.34385   1.34829   1.35769   1.36109
 Alpha virt. eigenvalues --    1.37957   1.39319   1.40072   1.40398   1.41143
 Alpha virt. eigenvalues --    1.42333   1.42691   1.42899   1.43226   1.43624
 Alpha virt. eigenvalues --    1.44047   1.44553   1.44646   1.45378   1.46882
 Alpha virt. eigenvalues --    1.47744   1.48370   1.48663   1.48797   1.49485
 Alpha virt. eigenvalues --    1.49927   1.50122   1.50293   1.51131   1.51272
 Alpha virt. eigenvalues --    1.51690   1.51865   1.52140   1.53302   1.53910
 Alpha virt. eigenvalues --    1.55698   1.57751   1.58786   1.60136   1.62539
 Alpha virt. eigenvalues --    1.63096   1.63952   1.65277   1.66637   1.67395
 Alpha virt. eigenvalues --    1.68266   1.69147   1.70112   1.70952   1.72033
 Alpha virt. eigenvalues --    1.74476   1.74746   1.75588   1.76543   1.77267
 Alpha virt. eigenvalues --    1.78641   1.79309   1.80560   1.81535   1.82302
 Alpha virt. eigenvalues --    1.82428   1.82899   1.83507   1.84061   1.84314
 Alpha virt. eigenvalues --    1.85897   1.86584   1.87515   1.88566   1.88783
 Alpha virt. eigenvalues --    1.89349   1.89601   1.90252   1.90785   1.91075
 Alpha virt. eigenvalues --    1.91301   1.92086   1.92500   1.93068   1.93506
 Alpha virt. eigenvalues --    1.93804   1.94270   1.95010   1.96212   1.96780
 Alpha virt. eigenvalues --    1.97507   1.98101   1.98470   1.99264   1.99739
 Alpha virt. eigenvalues --    2.00850   2.01478   2.01852   2.03065   2.03828
 Alpha virt. eigenvalues --    2.04452   2.04969   2.06165   2.06663   2.07202
 Alpha virt. eigenvalues --    2.07727   2.09445   2.09939   2.11688   2.12239
 Alpha virt. eigenvalues --    2.13020   2.13613   2.13824   2.14235   2.14636
 Alpha virt. eigenvalues --    2.15364   2.15460   2.15884   2.16541   2.17373
 Alpha virt. eigenvalues --    2.17564   2.18241   2.18799   2.19062   2.19451
 Alpha virt. eigenvalues --    2.20202   2.21164   2.21514   2.22326   2.23303
 Alpha virt. eigenvalues --    2.24208   2.25513   2.26433   2.26784   2.27498
 Alpha virt. eigenvalues --    2.28494   2.28732   2.29197   2.30133   2.30833
 Alpha virt. eigenvalues --    2.31349   2.31599   2.32247   2.32603   2.33147
 Alpha virt. eigenvalues --    2.33724   2.35114   2.36117   2.36953   2.38505
 Alpha virt. eigenvalues --    2.38715   2.39569   2.41079   2.41568   2.42264
 Alpha virt. eigenvalues --    2.42724   2.45603   2.46944   2.48317   2.50312
 Alpha virt. eigenvalues --    2.51093   2.54054   2.54593   2.55542   2.56953
 Alpha virt. eigenvalues --    2.57232   2.57901   2.58877   2.59092   2.59965
 Alpha virt. eigenvalues --    2.60184   2.60690   2.62120   2.62801   2.63483
 Alpha virt. eigenvalues --    2.63667   2.65043   2.65548   2.65995   2.66592
 Alpha virt. eigenvalues --    2.67554   2.68575   2.69329   2.70258   2.70808
 Alpha virt. eigenvalues --    2.71561   2.72509   2.73047   2.73675   2.74787
 Alpha virt. eigenvalues --    2.74873   2.75304   2.76279   2.76385   2.77200
 Alpha virt. eigenvalues --    2.78413   2.79137   2.79752   2.80767   2.82258
 Alpha virt. eigenvalues --    2.83869   2.85847   2.86764   2.88986   2.91116
 Alpha virt. eigenvalues --    2.92688   2.93810   2.97158   2.98317   2.99915
 Alpha virt. eigenvalues --    3.05123   3.07345   3.11102   3.12876   3.16586
 Alpha virt. eigenvalues --    3.17169   3.30145   3.33499   3.40605   3.41940
 Alpha virt. eigenvalues --    3.43169   3.44389   3.52616   3.60476   3.75910
 Alpha virt. eigenvalues --    3.92764   4.08104   4.08476   4.09411   4.10770
 Alpha virt. eigenvalues --    4.10840   4.11656   4.12169   4.13004   4.15227
 Alpha virt. eigenvalues --    4.17308   4.19303   4.19970   4.23934   4.26501
 Alpha virt. eigenvalues --    4.27000   4.28752   4.30848   4.33698   4.34710
 Alpha virt. eigenvalues --    4.38159   4.39665   4.41007   4.45419   4.46858
 Alpha virt. eigenvalues --    4.49997   4.51872   4.53569   4.54729   4.59882
 Alpha virt. eigenvalues --    4.69539   4.73477   4.77038   4.79777   4.98715
 Alpha virt. eigenvalues --    5.10755   5.20150   5.89229   6.03403   6.05125
 Alpha virt. eigenvalues --    6.15384   6.23176  11.32645  17.39540  17.80022
 Alpha virt. eigenvalues --   17.93158  18.28394  18.57738  22.78566  22.94308
 Alpha virt. eigenvalues --   23.05408  26.29227  57.00699 118.86409 118.97227
 Alpha virt. eigenvalues --  119.06185 134.97189 381.84273 927.03926 927.25665
 Alpha virt. eigenvalues --  928.092751467.74265**********
  Beta  occ. eigenvalues --  -24.56145 -24.55345 -19.21196 -14.37926 -14.35603
  Beta  occ. eigenvalues --  -10.31062 -10.28039 -10.26529 -10.25735 -10.24413
  Beta  occ. eigenvalues --  -10.23264 -10.23100 -10.22907 -10.21266 -10.21075
  Beta  occ. eigenvalues --  -10.20501 -10.20305 -10.20253 -10.20203 -10.20101
  Beta  occ. eigenvalues --  -10.19719 -10.19669 -10.19181 -10.19163 -10.18800
  Beta  occ. eigenvalues --  -10.18749 -10.18660 -10.18601 -10.18423 -10.18276
  Beta  occ. eigenvalues --  -10.18201 -10.18040 -10.18004 -10.17617 -10.16774
  Beta  occ. eigenvalues --   -3.98570  -2.58599  -2.58354  -2.57681  -1.11904
  Beta  occ. eigenvalues --   -1.01589  -1.00849  -0.98771  -0.93567  -0.87826
  Beta  occ. eigenvalues --   -0.85823  -0.85271  -0.84420  -0.83420  -0.81372
  Beta  occ. eigenvalues --   -0.78228  -0.76232  -0.75769  -0.75438  -0.74668
  Beta  occ. eigenvalues --   -0.73924  -0.73288  -0.71861  -0.67782  -0.66939
  Beta  occ. eigenvalues --   -0.65127  -0.63631  -0.62243  -0.61366  -0.60702
  Beta  occ. eigenvalues --   -0.59776  -0.59471  -0.58092  -0.57588  -0.56453
  Beta  occ. eigenvalues --   -0.54686  -0.53293  -0.52969  -0.51748  -0.50540
  Beta  occ. eigenvalues --   -0.49552  -0.48504  -0.48146  -0.47382  -0.46356
  Beta  occ. eigenvalues --   -0.46092  -0.45660  -0.45266  -0.45081  -0.44490
  Beta  occ. eigenvalues --   -0.44329  -0.43896  -0.43483  -0.43160  -0.42389
  Beta  occ. eigenvalues --   -0.41984  -0.41816  -0.41406  -0.41022  -0.40669
  Beta  occ. eigenvalues --   -0.40374  -0.40136  -0.39417  -0.37722  -0.37322
  Beta  occ. eigenvalues --   -0.37140  -0.36309  -0.35876  -0.35407  -0.35143
  Beta  occ. eigenvalues --   -0.34822  -0.34724  -0.34601  -0.34190  -0.34092
  Beta  occ. eigenvalues --   -0.33731  -0.33547  -0.33121  -0.32539  -0.31890
  Beta  occ. eigenvalues --   -0.31672  -0.31078  -0.29445  -0.29248  -0.27976
  Beta  occ. eigenvalues --   -0.27841  -0.26676  -0.26543  -0.26210  -0.25954
  Beta  occ. eigenvalues --   -0.24810  -0.24484  -0.23683  -0.23265  -0.23125
  Beta  occ. eigenvalues --   -0.22119
  Beta virt. eigenvalues --   -0.08024  -0.04602  -0.03716  -0.02473  -0.02113
  Beta virt. eigenvalues --   -0.01621  -0.00605   0.00177   0.00384   0.01593
  Beta virt. eigenvalues --    0.01897   0.02949   0.03305   0.03769   0.04538
  Beta virt. eigenvalues --    0.07840   0.08696   0.09499   0.09905   0.10358
  Beta virt. eigenvalues --    0.10967   0.11227   0.11699   0.12425   0.13075
  Beta virt. eigenvalues --    0.13228   0.13562   0.14037   0.14423   0.14643
  Beta virt. eigenvalues --    0.15010   0.15252   0.15556   0.15930   0.16528
  Beta virt. eigenvalues --    0.16894   0.16922   0.17174   0.17332   0.18168
  Beta virt. eigenvalues --    0.18262   0.18466   0.18608   0.18940   0.19026
  Beta virt. eigenvalues --    0.19404   0.19846   0.20619   0.21556   0.22024
  Beta virt. eigenvalues --    0.22489   0.23550   0.24047   0.24297   0.24821
  Beta virt. eigenvalues --    0.25152   0.25971   0.26095   0.26253   0.27092
  Beta virt. eigenvalues --    0.27768   0.28212   0.28773   0.29199   0.29514
  Beta virt. eigenvalues --    0.30195   0.30710   0.31402   0.31625   0.32171
  Beta virt. eigenvalues --    0.33070   0.33712   0.34084   0.34462   0.35160
  Beta virt. eigenvalues --    0.35638   0.36474   0.36924   0.37128   0.37912
  Beta virt. eigenvalues --    0.39512   0.41320   0.41682   0.44983   0.46067
  Beta virt. eigenvalues --    0.46348   0.46868   0.47895   0.48497   0.49855
  Beta virt. eigenvalues --    0.50358   0.50994   0.51902   0.52416   0.52678
  Beta virt. eigenvalues --    0.52722   0.53287   0.53743   0.53858   0.54068
  Beta virt. eigenvalues --    0.54632   0.55098   0.55444   0.55968   0.56349
  Beta virt. eigenvalues --    0.56691   0.56817   0.56974   0.57588   0.58215
  Beta virt. eigenvalues --    0.58554   0.58819   0.59266   0.59478   0.59643
  Beta virt. eigenvalues --    0.59890   0.60221   0.60563   0.60619   0.60864
  Beta virt. eigenvalues --    0.61025   0.61195   0.61424   0.61747   0.62276
  Beta virt. eigenvalues --    0.62703   0.62953   0.63118   0.63250   0.63743
  Beta virt. eigenvalues --    0.64444   0.64663   0.65100   0.65360   0.65657
  Beta virt. eigenvalues --    0.66177   0.66692   0.67048   0.67223   0.67809
  Beta virt. eigenvalues --    0.68980   0.69402   0.69583   0.70524   0.71077
  Beta virt. eigenvalues --    0.72291   0.73621   0.74532   0.74899   0.75972
  Beta virt. eigenvalues --    0.76283   0.76425   0.77000   0.77771   0.78245
  Beta virt. eigenvalues --    0.78850   0.80005   0.80846   0.81519   0.82298
  Beta virt. eigenvalues --    0.82767   0.83117   0.83345   0.83857   0.84267
  Beta virt. eigenvalues --    0.84380   0.84751   0.85249   0.85597   0.85846
  Beta virt. eigenvalues --    0.86262   0.86709   0.86945   0.87422   0.88250
  Beta virt. eigenvalues --    0.88355   0.88781   0.89387   0.90062   0.90929
  Beta virt. eigenvalues --    0.91475   0.91795   0.92066   0.92759   0.93467
  Beta virt. eigenvalues --    0.93619   0.93741   0.94568   0.94631   0.95329
  Beta virt. eigenvalues --    0.95752   0.95891   0.96535   0.96722   0.97167
  Beta virt. eigenvalues --    0.98475   0.99459   1.00486   1.01006   1.01401
  Beta virt. eigenvalues --    1.02515   1.02897   1.03567   1.04078   1.04810
  Beta virt. eigenvalues --    1.06102   1.06480   1.07066   1.07716   1.08042
  Beta virt. eigenvalues --    1.08240   1.08696   1.10544   1.10558   1.12746
  Beta virt. eigenvalues --    1.13092   1.13995   1.14366   1.14595   1.15549
  Beta virt. eigenvalues --    1.16723   1.16853   1.17483   1.18330   1.18944
  Beta virt. eigenvalues --    1.19484   1.20312   1.20726   1.21881   1.22926
  Beta virt. eigenvalues --    1.23483   1.24833   1.26947   1.27351   1.29286
  Beta virt. eigenvalues --    1.29921   1.30240   1.31592   1.34555   1.34930
  Beta virt. eigenvalues --    1.36132   1.36243   1.38075   1.39485   1.40266
  Beta virt. eigenvalues --    1.40472   1.41224   1.42358   1.42706   1.42973
  Beta virt. eigenvalues --    1.43310   1.43722   1.44103   1.44567   1.44792
  Beta virt. eigenvalues --    1.45444   1.46910   1.47784   1.48393   1.48753
  Beta virt. eigenvalues --    1.48814   1.49512   1.50087   1.50158   1.50495
  Beta virt. eigenvalues --    1.51229   1.51356   1.51714   1.51929   1.52338
  Beta virt. eigenvalues --    1.53360   1.54021   1.55873   1.58106   1.58942
  Beta virt. eigenvalues --    1.60267   1.62732   1.63188   1.64003   1.65394
  Beta virt. eigenvalues --    1.66764   1.67461   1.68315   1.69223   1.70276
  Beta virt. eigenvalues --    1.71026   1.72143   1.74607   1.74921   1.75721
  Beta virt. eigenvalues --    1.76740   1.77462   1.78769   1.79400   1.80621
  Beta virt. eigenvalues --    1.81651   1.82385   1.82494   1.82975   1.83559
  Beta virt. eigenvalues --    1.84135   1.84431   1.85953   1.86692   1.87584
  Beta virt. eigenvalues --    1.88654   1.88830   1.89394   1.89786   1.90618
  Beta virt. eigenvalues --    1.90892   1.91208   1.91619   1.92138   1.92648
  Beta virt. eigenvalues --    1.93190   1.93645   1.94004   1.94335   1.95352
  Beta virt. eigenvalues --    1.96359   1.96946   1.97598   1.98345   1.98499
  Beta virt. eigenvalues --    1.99431   1.99839   2.00911   2.01753   2.02036
  Beta virt. eigenvalues --    2.03162   2.03961   2.04519   2.05034   2.06227
  Beta virt. eigenvalues --    2.06849   2.07444   2.07800   2.09548   2.10125
  Beta virt. eigenvalues --    2.11791   2.12473   2.13168   2.13698   2.13877
  Beta virt. eigenvalues --    2.14404   2.14766   2.15380   2.15479   2.15929
  Beta virt. eigenvalues --    2.16640   2.17469   2.17628   2.18344   2.18887
  Beta virt. eigenvalues --    2.19106   2.19700   2.20289   2.21274   2.21656
  Beta virt. eigenvalues --    2.22442   2.23509   2.24640   2.25849   2.26546
  Beta virt. eigenvalues --    2.26938   2.27756   2.28530   2.28826   2.29236
  Beta virt. eigenvalues --    2.30140   2.30966   2.31442   2.31732   2.32394
  Beta virt. eigenvalues --    2.32662   2.33370   2.33917   2.35561   2.36228
  Beta virt. eigenvalues --    2.37125   2.38819   2.39191   2.40069   2.41260
  Beta virt. eigenvalues --    2.41789   2.42528   2.43631   2.46044   2.47073
  Beta virt. eigenvalues --    2.48441   2.50589   2.52818   2.54485   2.55622
  Beta virt. eigenvalues --    2.56165   2.57239   2.57535   2.58710   2.59251
  Beta virt. eigenvalues --    2.59434   2.60260   2.60593   2.61652   2.62409
  Beta virt. eigenvalues --    2.63005   2.63910   2.64211   2.65223   2.65626
  Beta virt. eigenvalues --    2.66595   2.67480   2.68460   2.69533   2.70401
  Beta virt. eigenvalues --    2.70952   2.71404   2.71819   2.72703   2.73431
  Beta virt. eigenvalues --    2.73880   2.74858   2.75175   2.75810   2.76339
  Beta virt. eigenvalues --    2.76963   2.78034   2.78969   2.79381   2.80052
  Beta virt. eigenvalues --    2.81340   2.82542   2.83906   2.86335   2.87733
  Beta virt. eigenvalues --    2.89692   2.91248   2.93631   2.94567   2.97558
  Beta virt. eigenvalues --    2.98661   3.00679   3.05291   3.07487   3.11114
  Beta virt. eigenvalues --    3.12946   3.16834   3.17289   3.30371   3.37164
  Beta virt. eigenvalues --    3.40612   3.41951   3.43174   3.44656   3.54787
  Beta virt. eigenvalues --    3.64364   3.80359   3.96743   4.08160   4.08478
  Beta virt. eigenvalues --    4.09484   4.10798   4.10847   4.11717   4.12311
  Beta virt. eigenvalues --    4.13041   4.15252   4.17464   4.19463   4.20118
  Beta virt. eigenvalues --    4.23982   4.26587   4.27060   4.28937   4.30873
  Beta virt. eigenvalues --    4.33732   4.34729   4.38255   4.39773   4.41025
  Beta virt. eigenvalues --    4.45484   4.46958   4.50049   4.52213   4.53660
  Beta virt. eigenvalues --    4.54845   4.59917   4.69550   4.73515   4.77124
  Beta virt. eigenvalues --    4.79792   4.98849   5.13751   5.20640   5.92222
  Beta virt. eigenvalues --    6.06478   6.11052   6.23646   6.33694  11.38316
  Beta virt. eigenvalues --   17.41184  17.81991  17.96340  18.32334  18.63044
  Beta virt. eigenvalues --   22.90018  23.05960  23.18433  26.38154  57.10703
  Beta virt. eigenvalues --  118.91903 119.03099 119.13971 135.04431 381.28310
  Beta virt. eigenvalues --  923.82476 923.94932 924.596671458.33622**********
          Condensed to atoms (all electrons):
          Atomic-Atomic Spin Densities.
 Mulliken charges and spin densities:
               1          2
     1  C   -0.123850  -0.000464
     2  C   -0.143874   0.000962
     3  C   -0.199139  -0.000743
     4  C    0.157085   0.001275
     5  C   -0.075000   0.001788
     6  N   -0.547567   0.040621
     7  C    0.613147   0.002662
     8  C    0.338486  -0.006188
     9  C   -0.169009   0.004753
    10  C   -0.152573  -0.006447
    11  C    0.115893   0.006867
    12  C    0.336061  -0.008268
    13  N   -0.635340   0.070852
    14  C   -0.388081   0.002322
    15  C   -0.280321  -0.000217
    16  C   -0.274518   0.000038
    17  C   -0.350791   0.000360
    18  O   -0.523023   0.002064
    19  C    0.095321   0.002807
    20  C    0.161228  -0.000874
    21  C   -0.163267   0.000801
    22  C   -0.137324  -0.000468
    23  C   -0.119970   0.000796
    24  C   -0.142087  -0.000427
    25  C   -0.199571   0.000789
    26  C    0.091586   0.000227
    27  C   -0.177925  -0.000017
    28  C   -0.137606  -0.000005
    29  C   -0.122599  -0.000018
    30  C   -0.134798   0.000042
    31  C   -0.149162   0.000116
    32  C   -0.185968  -0.000597
    33  C   -0.133017   0.000870
    34  H    0.126981   0.000016
    35  H    0.141418  -0.000032
    36  H    0.207058  -0.000814
    37  H    0.175878   0.000049
    38  H    0.178211   0.000539
    39  H    0.151503   0.000231
    40  H    0.238770  -0.000617
    41  H    0.192299  -0.000418
    42  H    0.148457   0.000005
    43  H    0.154995   0.000074
    44  H    0.143769  -0.000019
    45  H    0.151821   0.000001
    46  H    0.156289   0.000290
    47  H    0.166874   0.000160
    48  H    0.141188  -0.000036
    49  H    0.129212   0.000017
    50  H    0.129421  -0.000041
    51  H    0.145305   0.000023
    52  H    0.187822  -0.000395
    53  H    0.142917   0.000036
    54  H    0.137617  -0.000001
    55  H    0.136596   0.000000
    56  H    0.137148   0.000018
    57  H    0.151340  -0.000006
    58  H    0.120659   0.000023
    59  H    0.125733  -0.000043
    60  Ni   0.666195   1.747474
    61  F   -0.455143   0.056544
    62  F   -0.472756   0.080643
 Sum of Mulliken charges =  -0.00000   2.00000
 Mulliken charges and spin densities with hydrogens summed into heavy atoms:
               1          2
     1  C    0.003130  -0.000448
     2  C   -0.002456   0.000929
     3  C    0.007919  -0.001558
     4  C    0.157085   0.001275
     5  C    0.100878   0.001837
     6  N   -0.547567   0.040621
     7  C    0.613147   0.002662
     8  C    0.338486  -0.006188
     9  C    0.009202   0.005292
    10  C   -0.001070  -0.006215
    11  C    0.115893   0.006867
    12  C    0.336061  -0.008268
    13  N   -0.635340   0.070852
    14  C    0.042988   0.001287
    15  C    0.023131  -0.000139
    16  C    0.021072   0.000020
    17  C   -0.027629   0.000811
    18  O   -0.523023   0.002064
    19  C    0.095321   0.002807
    20  C    0.161228  -0.000874
    21  C   -0.022080   0.000765
    22  C   -0.008112  -0.000451
    23  C    0.009450   0.000756
    24  C    0.003218  -0.000403
    25  C   -0.011749   0.000394
    26  C    0.091586   0.000227
    27  C   -0.035008   0.000019
    28  C    0.000011  -0.000006
    29  C    0.013997  -0.000017
    30  C    0.002350   0.000061
    31  C    0.002178   0.000109
    32  C   -0.065309  -0.000575
    33  C   -0.007284   0.000827
    60  Ni   0.666195   1.747474
    61  F   -0.455143   0.056544
    62  F   -0.472756   0.080643
 Electronic spatial extent (au):  <R**2>=          17280.6390
 Charge=             -0.0000 electrons
 Dipole moment (field-independent basis, Debye):
    X=             -0.5249    Y=              7.4104    Z=              1.3979  Tot=              7.5594
 Quadrupole moment (field-independent basis, Debye-Ang):
   XX=           -173.7443   YY=           -206.3259   ZZ=           -214.4483
   XY=             15.8556   XZ=             13.2321   YZ=             -5.5490
 Traceless Quadrupole moment (field-independent basis, Debye-Ang):
   XX=             24.4285   YY=             -8.1531   ZZ=            -16.2754
   XY=             15.8556   XZ=             13.2321   YZ=             -5.5490
 Octapole moment (field-independent basis, Debye-Ang**2):
  XXX=            204.9156  YYY=            -12.3665  ZZZ=             -2.0990  XYY=            -10.9958
  XXY=             60.2935  XXZ=             -3.2195  XZZ=            -23.3068  YZZ=             -5.8766
  YYZ=             21.8152  XYZ=              5.4753
 Hexadecapole moment (field-independent basis, Debye-Ang**3):
 XXXX=         -13710.3292 YYYY=          -5272.7188 ZZZZ=          -2675.8467 XXXY=             -1.6293
 XXXZ=            145.5908 YYYX=            -73.8029 YYYZ=             32.9636 ZZZX=            -22.8438
 ZZZY=            -84.6746 XXYY=          -3140.0865 XXZZ=          -2855.7009 YYZZ=          -1446.4646
 XXYZ=            -62.5563 YYXZ=             93.5305 ZZXY=             16.2048
 N-N= 4.226015460030D+03 E-N=-1.245478481688D+04  KE= 1.636481386100D+03
                          Isotropic Fermi Contact Couplings
        Atom                 a.u.       MegaHertz       Gauss      10(-4) cm-1
     1  C(13)             -0.00006      -0.03149      -0.01124      -0.01050
     2  C(13)              0.00013       0.07345       0.02621       0.02450
     3  C(13)             -0.00028      -0.15678      -0.05594      -0.05230
     4  C(13)              0.00068       0.37992       0.13557       0.12673
     5  C(13)              0.00380       2.13640       0.76232       0.71263
     6  N(14)              0.08313      13.42944       4.79196       4.47958
     7  C(13)              0.00088       0.49546       0.17679       0.16527
     8  C(13)             -0.00222      -1.25033      -0.44615      -0.41706
     9  C(13)              0.00228       1.28238       0.45759       0.42776
    10  C(13)             -0.00065      -0.36680      -0.13088      -0.12235
    11  C(13)              0.00380       2.13777       0.76281       0.71308
    12  C(13)              0.00005       0.02737       0.00977       0.00913
    13  N(14)              0.10973      17.72701       6.32544       5.91309
    14  C(13)              0.00044       0.24649       0.08795       0.08222
    15  C(13)             -0.00020      -0.11037      -0.03938      -0.03682
    16  C(13)             -0.00002      -0.01190      -0.00425      -0.00397
    17  C(13)              0.00059       0.33048       0.11792       0.11024
    18  O(17)              0.00195      -0.59129      -0.21099      -0.19723
    19  C(13)              0.00186       1.04501       0.37289       0.34858
    20  C(13)             -0.00018      -0.10000      -0.03568      -0.03336
    21  C(13)              0.00007       0.03993       0.01425       0.01332
    22  C(13)             -0.00007      -0.03713      -0.01325      -0.01238
    23  C(13)              0.00008       0.04737       0.01690       0.01580
    24  C(13)             -0.00006      -0.03237      -0.01155      -0.01080
    25  C(13)             -0.00002      -0.00945      -0.00337      -0.00315
    26  C(13)              0.00039       0.21896       0.07813       0.07304
    27  C(13)              0.00005       0.02797       0.00998       0.00933
    28  C(13)             -0.00001      -0.00292      -0.00104      -0.00098
    29  C(13)             -0.00000      -0.00088      -0.00031      -0.00029
    30  C(13)              0.00008       0.04615       0.01647       0.01539
    31  C(13)              0.00022       0.12243       0.04369       0.04084
    32  C(13)             -0.00014      -0.07645      -0.02728      -0.02550
    33  C(13)              0.00008       0.04441       0.01585       0.01481
    34  H(1)               0.00001       0.01215       0.00434       0.00405
    35  H(1)              -0.00001      -0.02321      -0.00828      -0.00774
    36  H(1)               0.00014       0.30744       0.10970       0.10255
    37  H(1)              -0.00005      -0.10822      -0.03862      -0.03610
    38  H(1)               0.00025       0.56665       0.20219       0.18901
    39  H(1)               0.00008       0.17578       0.06272       0.05863
    40  H(1)              -0.00003      -0.07048      -0.02515      -0.02351
    41  H(1)              -0.00024      -0.54428      -0.19421      -0.18155
    42  H(1)               0.00001       0.02067       0.00737       0.00689
    43  H(1)               0.00004       0.09762       0.03483       0.03256
    44  H(1)              -0.00001      -0.01642      -0.00586      -0.00548
    45  H(1)              -0.00000      -0.00838      -0.00299      -0.00279
    46  H(1)               0.00012       0.26163       0.09336       0.08727
    47  H(1)               0.00007       0.16754       0.05978       0.05588
    48  H(1)              -0.00001      -0.02681      -0.00957      -0.00894
    49  H(1)               0.00000       0.01103       0.00394       0.00368
    50  H(1)              -0.00001      -0.02803      -0.01000      -0.00935
    51  H(1)               0.00000       0.01100       0.00392       0.00367
    52  H(1)              -0.00000      -0.00580      -0.00207      -0.00193
    53  H(1)              -0.00000      -0.00319      -0.00114      -0.00106
    54  H(1)              -0.00000      -0.00105      -0.00038      -0.00035
    55  H(1)               0.00000       0.00036       0.00013       0.00012
    56  H(1)               0.00001       0.01261       0.00450       0.00421
    57  H(1)               0.00001       0.01401       0.00500       0.00467
    58  H(1)               0.00000       0.01003       0.00358       0.00335
    59  H(1)              -0.00001      -0.03065      -0.01094      -0.01022
    60  Ni(61)             0.00000      -0.00028      -0.00010      -0.00009
    61  F(19)              0.03209      67.51148      24.08978      22.51941
    62  F(19)              0.02344      49.30731      17.59408      16.44715
 --------------------------------------------------------
       Center         ----  Spin Dipole Couplings  ----
                      3XX-RR        3YY-RR        3ZZ-RR
 --------------------------------------------------------
     1   Atom        0.002205     -0.000458     -0.001747
     2   Atom        0.003364     -0.000861     -0.002504
     3   Atom        0.011926     -0.004950     -0.006976
     4   Atom        0.011149     -0.005613     -0.005536
     5   Atom        0.018411     -0.007858     -0.010553
     6   Atom        0.026900      0.024868     -0.051768
     7   Atom       -0.001845      0.010002     -0.008157
     8   Atom       -0.005166      0.021409     -0.016243
     9   Atom       -0.006027      0.007696     -0.001668
    10   Atom        0.001457      0.005563     -0.007020
    11   Atom       -0.002148      0.004090     -0.001942
    12   Atom        0.016214      0.001073     -0.017287
    13   Atom       -0.064944      0.118999     -0.054054
    14   Atom        0.013910     -0.005018     -0.008891
    15   Atom        0.004603     -0.002033     -0.002570
    16   Atom        0.002318     -0.000842     -0.001476
    17   Atom        0.002090     -0.000157     -0.001933
    18   Atom       -0.006001     -0.006976      0.012977
    19   Atom        0.002147      0.001322     -0.003470
    20   Atom        0.003056     -0.001981     -0.001075
    21   Atom        0.001275     -0.000420     -0.000855
    22   Atom        0.001187     -0.001053     -0.000134
    23   Atom        0.000314     -0.000495      0.000181
    24   Atom        0.000782     -0.002027      0.001245
    25   Atom        0.001273     -0.002027      0.000754
    26   Atom        0.001456      0.000438     -0.001894
    27   Atom        0.001363     -0.000261     -0.001102
    28   Atom        0.000632     -0.000062     -0.000570
    29   Atom        0.000361      0.000134     -0.000496
    30   Atom        0.000322      0.000317     -0.000639
    31   Atom        0.000434      0.000649     -0.001083
    32   Atom        0.004376     -0.002085     -0.002291
    33   Atom        0.002456     -0.001357     -0.001099
    34   Atom        0.001154     -0.000115     -0.001039
    35   Atom        0.001306      0.000659     -0.001964
    36   Atom        0.015974     -0.010047     -0.005927
    37   Atom        0.005624     -0.003064     -0.002560
    38   Atom       -0.002304      0.004172     -0.001868
    39   Atom       -0.000595      0.001717     -0.001122
    40   Atom        0.022666     -0.011467     -0.011199
    41   Atom        0.012182     -0.007366     -0.004816
    42   Atom        0.003402     -0.001386     -0.002016
    43   Atom        0.003931     -0.001936     -0.001995
    44   Atom        0.001524     -0.000609     -0.000914
    45   Atom        0.002070     -0.001202     -0.000869
    46   Atom        0.000509      0.000213     -0.000722
    47   Atom        0.000895      0.000386     -0.001281
    48   Atom        0.001470     -0.000664     -0.000806
    49   Atom        0.000736     -0.000551     -0.000185
    50   Atom        0.000314     -0.000712      0.000398
    51   Atom       -0.000304     -0.001850      0.002154
    52   Atom        0.000682     -0.004512      0.003831
    53   Atom        0.001814     -0.000801     -0.001013
    54   Atom        0.000514     -0.000145     -0.000369
    55   Atom        0.000236      0.000102     -0.000338
    56   Atom        0.000142      0.000300     -0.000442
    57   Atom        0.000269      0.000572     -0.000841
    58   Atom        0.002973     -0.001677     -0.001296
    59   Atom        0.001565     -0.000752     -0.000813
    60   Atom        0.145156     -0.148692      0.003535
    61   Atom       -0.207803     -0.046383      0.254186
    62   Atom       -0.131442      0.135071     -0.003629
 --------------------------------------------------------
                        XY            XZ            YZ
 --------------------------------------------------------
     1   Atom        0.002125      0.000208     -0.000159
     2   Atom        0.003839     -0.001746     -0.000441
     3   Atom        0.006243     -0.003701     -0.001664
     4   Atom        0.001017      0.000041      0.000049
     5   Atom       -0.006558      0.003936     -0.001031
     6   Atom       -0.089831     -0.016966      0.016752
     7   Atom       -0.017206      0.003788      0.008095
     8   Atom       -0.003883     -0.001037      0.014946
     9   Atom        0.001926      0.000614      0.003323
    10   Atom        0.002639      0.001305      0.005504
    11   Atom        0.007149      0.002444      0.002673
    12   Atom        0.013802      0.008357      0.007956
    13   Atom        0.095281      0.029553      0.066899
    14   Atom        0.003452      0.001244      0.001903
    15   Atom        0.001826      0.000158      0.000158
    16   Atom        0.001588      0.000979      0.000491
    17   Atom        0.002802      0.001048      0.000714
    18   Atom       -0.005112     -0.005003      0.013749
    19   Atom       -0.005659     -0.002216      0.003305
    20   Atom       -0.002466     -0.002645      0.000822
    21   Atom       -0.000897     -0.001216      0.000874
    22   Atom       -0.000455     -0.001167     -0.000005
    23   Atom       -0.000081     -0.001448      0.000652
    24   Atom       -0.000546     -0.002805      0.000289
    25   Atom       -0.002234     -0.004726      0.002327
    26   Atom       -0.002779      0.000200     -0.000275
    27   Atom       -0.001629      0.000653     -0.000366
    28   Atom       -0.000908      0.000377     -0.000252
    29   Atom       -0.000763      0.000150     -0.000113
    30   Atom       -0.000978     -0.000011      0.000015
    31   Atom       -0.001551     -0.000231      0.000275
    32   Atom        0.000769      0.001551     -0.000056
    33   Atom        0.000931      0.000072      0.000569
    34   Atom        0.001425     -0.000061     -0.000054
    35   Atom        0.003605     -0.001655     -0.001529
    36   Atom        0.011630     -0.014747     -0.005860
    37   Atom       -0.005059      0.005235     -0.002248
    38   Atom       -0.000710     -0.000252      0.002193
    39   Atom        0.001177      0.000438      0.001185
    40   Atom        0.004212     -0.006132      0.000141
    41   Atom        0.000625      0.007719      0.000268
    42   Atom        0.002064     -0.001008     -0.000305
    43   Atom        0.000410      0.000142      0.000038
    44   Atom        0.000954      0.000477      0.000196
    45   Atom        0.001184      0.001702      0.000537
    46   Atom        0.001590      0.000845      0.000822
    47   Atom        0.002017      0.000126      0.000096
    48   Atom       -0.000890     -0.000623      0.000223
    49   Atom       -0.000239     -0.000718      0.000112
    50   Atom       -0.000023     -0.001098      0.000020
    51   Atom       -0.000111     -0.002496      0.000155
    52   Atom       -0.004398     -0.008922      0.004723
    53   Atom       -0.001514      0.001242     -0.000545
    54   Atom       -0.000650      0.000427     -0.000261
    55   Atom       -0.000525      0.000115     -0.000100
    56   Atom       -0.000672     -0.000089      0.000104
    57   Atom       -0.001470     -0.000533      0.000638
    58   Atom       -0.000206      0.001441     -0.000036
    59   Atom        0.000714      0.000535      0.000177
    60   Atom       -0.434861     -1.014368      0.417274
    61   Atom        0.069061     -0.086907     -0.261088
    62   Atom       -0.205608      0.177409     -0.002089
 --------------------------------------------------------


 ---------------------------------------------------------------------------------
              Anisotropic Spin Dipole Couplings in Principal Axis System
 ---------------------------------------------------------------------------------

       Atom             a.u.   MegaHertz   Gauss  10(-4) cm-1        Axes

              Baa    -0.0019    -0.260    -0.093    -0.087 -0.3136  0.5345  0.7849
     1 C(13)  Bbb    -0.0014    -0.194    -0.069    -0.065 -0.3683  0.6934 -0.6193
              Bcc     0.0034     0.454     0.162     0.151  0.8752  0.4833  0.0205
 
              Baa    -0.0035    -0.471    -0.168    -0.157 -0.5018  0.6280 -0.5949
     2 C(13)  Bbb    -0.0025    -0.332    -0.119    -0.111 -0.1653  0.6054  0.7786
              Bcc     0.0060     0.803     0.287     0.268  0.8491  0.4890 -0.2000
 
              Baa    -0.0079    -1.062    -0.379    -0.354  0.0265  0.4462  0.8946
     3 C(13)  Bbb    -0.0068    -0.915    -0.327    -0.305 -0.3600  0.8391 -0.4079
              Bcc     0.0147     1.977     0.706     0.660  0.9326  0.3112 -0.1828
 
              Baa    -0.0057    -0.763    -0.272    -0.255 -0.0570  0.9550 -0.2912
     4 C(13)  Bbb    -0.0055    -0.741    -0.264    -0.247 -0.0201  0.2905  0.9567
              Bcc     0.0112     1.504     0.537     0.502  0.9982  0.0604  0.0026
 
              Baa    -0.0111    -1.488    -0.531    -0.496 -0.1127  0.0869  0.9898
     5 C(13)  Bbb    -0.0094    -1.261    -0.450    -0.421  0.2369  0.9698 -0.0581
              Bcc     0.0205     2.750     0.981     0.917  0.9650 -0.2280  0.1299
 
              Baa    -0.0640    -2.467    -0.880    -0.823  0.7033  0.7109  0.0018
     6 N(14)  Bbb    -0.0551    -2.125    -0.758    -0.709  0.0970 -0.0985  0.9904
              Bcc     0.1190     4.591     1.638     1.532  0.7043 -0.6963 -0.1382
 
              Baa    -0.0196    -2.633    -0.940    -0.878  0.6284  0.5224 -0.5764
     7 C(13)  Bbb    -0.0033    -0.444    -0.158    -0.148  0.5512  0.2238  0.8038
              Bcc     0.0229     3.077     1.098     1.026 -0.5489  0.8228  0.1474
 
              Baa    -0.0215    -2.880    -1.028    -0.961 -0.0187 -0.3307  0.9436
     8 C(13)  Bbb    -0.0057    -0.759    -0.271    -0.253  0.9922  0.1101  0.0583
              Bcc     0.0271     3.639     1.298     1.214 -0.1232  0.9373  0.3260
 
              Baa    -0.0063    -0.845    -0.302    -0.282  0.9911 -0.1268 -0.0405
     9 C(13)  Bbb    -0.0027    -0.366    -0.131    -0.122  0.0001 -0.3038  0.9527
              Bcc     0.0090     1.211     0.432     0.404  0.1331  0.9443  0.3011
 
              Baa    -0.0091    -1.221    -0.436    -0.407 -0.0292 -0.3467  0.9375
    10 C(13)  Bbb     0.0003     0.040     0.014     0.013  0.9283 -0.3572 -0.1032
              Bcc     0.0088     1.181     0.421     0.394  0.3707  0.8673  0.3323
 
              Baa    -0.0069    -0.927    -0.331    -0.309  0.8454 -0.5159 -0.1383
    11 C(13)  Bbb    -0.0029    -0.395    -0.141    -0.132 -0.0399 -0.3192  0.9468
              Bcc     0.0099     1.323     0.472     0.441  0.5326  0.7950  0.2905
 
              Baa    -0.0206    -2.763    -0.986    -0.922 -0.1120 -0.2789  0.9538
    12 C(13)  Bbb    -0.0066    -0.891    -0.318    -0.297 -0.5547  0.8139  0.1729
              Bcc     0.0272     3.655     1.304     1.219  0.8245  0.5097  0.2458
 
              Baa    -0.1054    -4.066    -1.451    -1.356  0.9235 -0.3820 -0.0338
    13 N(14)  Bbb    -0.0767    -2.957    -1.055    -0.986 -0.0833 -0.2859  0.9546
              Bcc     0.1821     7.023     2.506     2.343  0.3743  0.8788  0.2958
 
              Baa    -0.0097    -1.298    -0.463    -0.433  0.0074 -0.3833  0.9236
    14 C(13)  Bbb    -0.0050    -0.664    -0.237    -0.222 -0.1907  0.9061  0.3776
              Bcc     0.0146     1.962     0.700     0.655  0.9816  0.1789  0.0664
 
              Baa    -0.0027    -0.357    -0.127    -0.119  0.1272 -0.5755  0.8078
    15 C(13)  Bbb    -0.0024    -0.325    -0.116    -0.108 -0.2158  0.7789  0.5889
              Bcc     0.0051     0.681     0.243     0.227  0.9681  0.2493  0.0251
 
              Baa    -0.0018    -0.235    -0.084    -0.078 -0.0888 -0.3480  0.9333
    16 C(13)  Bbb    -0.0015    -0.198    -0.071    -0.066 -0.4308  0.8582  0.2790
              Bcc     0.0032     0.434     0.155     0.145  0.8981  0.3773  0.2261
 
              Baa    -0.0022    -0.294    -0.105    -0.098 -0.1490 -0.1383  0.9791
    17 C(13)  Bbb    -0.0021    -0.275    -0.098    -0.092 -0.5652  0.8244  0.0304
              Bcc     0.0042     0.570     0.203     0.190  0.8114  0.5489  0.2010
 
              Baa    -0.0147     1.063     0.379     0.355  0.2953  0.8758 -0.3818
    18 O(17)  Bbb    -0.0070     0.504     0.180     0.168  0.9250 -0.1620  0.3438
              Bcc     0.0217    -1.567    -0.559    -0.523 -0.2392  0.4546  0.8579
 
              Baa    -0.0053    -0.708    -0.253    -0.236 -0.1931 -0.5668  0.8009
    19 C(13)  Bbb    -0.0034    -0.453    -0.162    -0.151  0.7054  0.4872  0.5148
              Bcc     0.0087     1.161     0.414     0.387  0.6820 -0.6643 -0.3058
 
              Baa    -0.0031    -0.409    -0.146    -0.137  0.4546  0.8539  0.2533
    20 C(13)  Bbb    -0.0022    -0.297    -0.106    -0.099  0.2561 -0.3977  0.8811
              Bcc     0.0053     0.706     0.252     0.236  0.8531 -0.3357 -0.3994
 
              Baa    -0.0016    -0.219    -0.078    -0.073  0.2181 -0.4599  0.8608
    21 C(13)  Bbb    -0.0007    -0.095    -0.034    -0.032  0.5357  0.7937  0.2883
              Bcc     0.0023     0.314     0.112     0.105  0.8158 -0.3982 -0.4194
 
              Baa    -0.0012    -0.165    -0.059    -0.055  0.3390  0.8673  0.3644
    22 C(13)  Bbb    -0.0007    -0.092    -0.033    -0.031  0.3768 -0.4801  0.7922
              Bcc     0.0019     0.258     0.092     0.086  0.8620 -0.1313 -0.4896
 
              Baa    -0.0014    -0.189    -0.068    -0.063  0.5635 -0.4457  0.6956
    23 C(13)  Bbb    -0.0004    -0.054    -0.019    -0.018  0.4633  0.8676  0.1806
              Bcc     0.0018     0.243     0.087     0.081 -0.6840  0.2205  0.6954
 
              Baa    -0.0022    -0.294    -0.105    -0.098  0.3992  0.8816  0.2518
    24 C(13)  Bbb    -0.0017    -0.227    -0.081    -0.076  0.6186 -0.4616  0.6358
              Bcc     0.0039     0.521     0.186     0.174 -0.6768  0.0981  0.7296
 
              Baa    -0.0038    -0.504    -0.180    -0.168  0.6083 -0.2346  0.7583
    25 C(13)  Bbb    -0.0032    -0.423    -0.151    -0.141  0.4098  0.9110 -0.0469
              Bcc     0.0069     0.927     0.331     0.309  0.6798 -0.3392 -0.6503
 
              Baa    -0.0020    -0.266    -0.095    -0.089  0.3681  0.5112  0.7766
    26 C(13)  Bbb    -0.0018    -0.243    -0.087    -0.081 -0.5265 -0.5739  0.6273
              Bcc     0.0038     0.509     0.182     0.170  0.7664 -0.6398  0.0579
 
              Baa    -0.0013    -0.174    -0.062    -0.058 -0.5152 -0.5925  0.6193
    27 C(13)  Bbb    -0.0012    -0.165    -0.059    -0.055  0.1986  0.6204  0.7587
              Bcc     0.0025     0.339     0.121     0.113  0.8337 -0.5139  0.2020
 
              Baa    -0.0007    -0.092    -0.033    -0.031  0.5945  0.7055 -0.3858
    28 C(13)  Bbb    -0.0007    -0.090    -0.032    -0.030  0.0517  0.4452  0.8939
              Bcc     0.0014     0.183     0.065     0.061  0.8024 -0.5514  0.2282
 
              Baa    -0.0005    -0.072    -0.026    -0.024 -0.5657 -0.5407  0.6226
    29 C(13)  Bbb    -0.0005    -0.068    -0.024    -0.023  0.3375  0.5371  0.7731
              Bcc     0.0010     0.140     0.050     0.047  0.7524 -0.6474  0.1213
 
              Baa    -0.0007    -0.088    -0.032    -0.030  0.6970  0.7009 -0.1513
    30 C(13)  Bbb    -0.0006    -0.086    -0.031    -0.029  0.1133  0.1006  0.9884
              Bcc     0.0013     0.174     0.062     0.058  0.7080 -0.7061 -0.0093
 
              Baa    -0.0011    -0.151    -0.054    -0.050 -0.0418 -0.1883  0.9812
    31 C(13)  Bbb    -0.0010    -0.136    -0.048    -0.045  0.7343  0.6602  0.1580
              Bcc     0.0021     0.287     0.102     0.096 -0.6776  0.7271  0.1107
 
              Baa    -0.0027    -0.365    -0.130    -0.122 -0.2364  0.3653  0.9004
    32 C(13)  Bbb    -0.0021    -0.279    -0.099    -0.093 -0.0188  0.9247 -0.3802
              Bcc     0.0048     0.644     0.230     0.215  0.9715  0.1068  0.2117
 
              Baa    -0.0019    -0.258    -0.092    -0.086 -0.1650  0.8192 -0.5493
    33 C(13)  Bbb    -0.0008    -0.101    -0.036    -0.034 -0.1707  0.5248  0.8339
              Bcc     0.0027     0.360     0.128     0.120  0.9714  0.2314  0.0532
 
              Baa    -0.0011    -0.562    -0.200    -0.187 -0.3640  0.5943  0.7171
    34 H(1)   Bbb    -0.0010    -0.549    -0.196    -0.183  0.4060 -0.5917  0.6965
              Bcc     0.0021     1.111     0.396     0.370  0.8383  0.5446 -0.0259
 
              Baa    -0.0027    -1.423    -0.508    -0.475 -0.0321  0.4460  0.8944
    35 H(1)   Bbb    -0.0026    -1.405    -0.501    -0.469  0.7089 -0.6207  0.3350
              Bcc     0.0053     2.828     1.009     0.943  0.7046  0.6448 -0.2963
 
              Baa    -0.0145    -7.747    -2.764    -2.584 -0.2870  0.9457  0.1524
    36 H(1)   Bbb    -0.0133    -7.120    -2.541    -2.375  0.4515 -0.0068  0.8923
              Bcc     0.0279    14.868     5.305     4.959  0.8449  0.3249 -0.4250
 
              Baa    -0.0054    -2.899    -1.034    -0.967  0.5107  0.8057 -0.3001
    37 H(1)   Bbb    -0.0050    -2.673    -0.954    -0.892 -0.2095  0.4551  0.8654
              Bcc     0.0104     5.572     1.988     1.859  0.8338 -0.3791  0.4012
 
              Baa    -0.0026    -1.378    -0.492    -0.460  0.1006 -0.2977  0.9493
    38 H(1)   Bbb    -0.0024    -1.270    -0.453    -0.424  0.9896  0.1288 -0.0645
              Bcc     0.0050     2.648     0.945     0.883 -0.1031  0.9459  0.3076
 
              Baa    -0.0016    -0.828    -0.295    -0.276 -0.0204 -0.3343  0.9423
    39 H(1)   Bbb    -0.0011    -0.578    -0.206    -0.193  0.9318 -0.3479 -0.1032
              Bcc     0.0026     1.406     0.502     0.469  0.3623  0.8759  0.3186
 
              Baa    -0.0130    -6.929    -2.473    -2.311  0.2033 -0.6327  0.7473
    40 H(1)   Bbb    -0.0112    -5.993    -2.138    -1.999  0.0211  0.7658  0.6427
              Bcc     0.0242    12.922     4.611     4.310  0.9789  0.1149 -0.1690
 
              Baa    -0.0078    -4.162    -1.485    -1.388 -0.3581 -0.0592  0.9318
    41 H(1)   Bbb    -0.0074    -3.940    -1.406    -1.314 -0.0494  0.9978  0.0444
              Bcc     0.0152     8.102     2.891     2.702  0.9324  0.0301  0.3602
 
              Baa    -0.0022    -1.194    -0.426    -0.398  0.3310 -0.5200  0.7874
    42 H(1)   Bbb    -0.0021    -1.123    -0.401    -0.375 -0.1845  0.7827  0.5945
              Bcc     0.0043     2.317     0.827     0.773  0.9254  0.3421 -0.1631
 
              Baa    -0.0020    -1.075    -0.384    -0.359  0.0131 -0.4916  0.8707
    43 H(1)   Bbb    -0.0019    -1.040    -0.371    -0.347 -0.0724  0.8680  0.4912
              Bcc     0.0040     2.115     0.755     0.705  0.9973  0.0695  0.0242
 
              Baa    -0.0010    -0.539    -0.192    -0.180 -0.0398 -0.3600  0.9321
    44 H(1)   Bbb    -0.0010    -0.517    -0.185    -0.173 -0.3913  0.8640  0.3170
              Bcc     0.0020     1.056     0.377     0.352  0.9194  0.3521  0.1753
 
              Baa    -0.0016    -0.879    -0.314    -0.293 -0.4330  0.0680  0.8988
    45 H(1)   Bbb    -0.0016    -0.844    -0.301    -0.282 -0.2258  0.9572 -0.1812
              Bcc     0.0032     1.724     0.615     0.575  0.8726  0.2815  0.3991
 
              Baa    -0.0013    -0.668    -0.238    -0.223 -0.5203  0.7710 -0.3671
    46 H(1)   Bbb    -0.0012    -0.614    -0.219    -0.205 -0.5046  0.0693  0.8606
              Bcc     0.0024     1.282     0.457     0.428  0.6890  0.6330  0.3530
 
              Baa    -0.0014    -0.744    -0.265    -0.248 -0.6607  0.7430  0.1075
    47 H(1)   Bbb    -0.0013    -0.686    -0.245    -0.229  0.0413 -0.1069  0.9934
              Bcc     0.0027     1.430     0.510     0.477  0.7496  0.6607  0.0399
 
              Baa    -0.0010    -0.526    -0.188    -0.176  0.3636  0.9248  0.1123
    48 H(1)   Bbb    -0.0010    -0.515    -0.184    -0.172  0.1786 -0.1875  0.9659
              Bcc     0.0020     1.041     0.371     0.347  0.9143 -0.3311 -0.2334
 
              Baa    -0.0006    -0.321    -0.115    -0.107  0.3779  0.8190  0.4317
    49 H(1)   Bbb    -0.0006    -0.302    -0.108    -0.101  0.3221 -0.5535  0.7680
              Bcc     0.0012     0.624     0.223     0.208  0.8680 -0.1512 -0.4730
 
              Baa    -0.0007    -0.396    -0.141    -0.132  0.7179  0.0984  0.6892
    50 H(1)   Bbb    -0.0007    -0.380    -0.136    -0.127 -0.0613  0.9950 -0.0782
              Bcc     0.0015     0.776     0.277     0.259 -0.6935  0.0139  0.7203
 
              Baa    -0.0019    -0.997    -0.356    -0.333  0.6187  0.6999  0.3569
    51 H(1)   Bbb    -0.0018    -0.984    -0.351    -0.328 -0.5817  0.7134 -0.3907
              Bcc     0.0037     1.982     0.707     0.661 -0.5281  0.0341  0.8485
 
              Baa    -0.0071    -3.798    -1.355    -1.267  0.6916  0.6677  0.2755
    52 H(1)   Bbb    -0.0065    -3.463    -1.236    -1.155 -0.3872  0.6647 -0.6389
              Bcc     0.0136     7.261     2.591     2.422 -0.6097  0.3352  0.7182
 
              Baa    -0.0015    -0.804    -0.287    -0.268  0.5072  0.6991 -0.5039
    53 H(1)   Bbb    -0.0015    -0.780    -0.278    -0.260 -0.0276  0.5976  0.8013
              Bcc     0.0030     1.584     0.565     0.528  0.8614 -0.3925  0.3224
 
              Baa    -0.0005    -0.290    -0.104    -0.097  0.5760  0.7817 -0.2392
    54 H(1)   Bbb    -0.0005    -0.289    -0.103    -0.096 -0.1359  0.3801  0.9149
              Bcc     0.0011     0.579     0.207     0.193  0.8061 -0.4945  0.3252
 
              Baa    -0.0004    -0.193    -0.069    -0.064 -0.5860 -0.5330  0.6104
    55 H(1)   Bbb    -0.0004    -0.192    -0.068    -0.064  0.3232  0.5370  0.7792
              Bcc     0.0007     0.385     0.137     0.128  0.7431 -0.6539  0.1424
 
              Baa    -0.0005    -0.245    -0.087    -0.082 -0.4435 -0.4953  0.7470
    56 H(1)   Bbb    -0.0005    -0.242    -0.086    -0.081  0.6053  0.4491  0.6572
              Bcc     0.0009     0.486     0.173     0.162 -0.6610  0.7436  0.1006
 
              Baa    -0.0011    -0.586    -0.209    -0.195 -0.3141 -0.5676  0.7610
    57 H(1)   Bbb    -0.0010    -0.551    -0.197    -0.184  0.6983  0.4049  0.5902
              Bcc     0.0021     1.137     0.406     0.379 -0.6432  0.7169  0.2692
 
              Baa    -0.0017    -0.933    -0.333    -0.311 -0.2847 -0.3855  0.8777
    58 H(1)   Bbb    -0.0017    -0.893    -0.319    -0.298 -0.0770  0.9218  0.3799
              Bcc     0.0034     1.826     0.652     0.609  0.9555 -0.0406  0.2921
 
              Baa    -0.0010    -0.517    -0.185    -0.172 -0.1305  0.8479 -0.5138
    59 H(1)   Bbb    -0.0009    -0.489    -0.174    -0.163 -0.3112  0.4570  0.8333
              Bcc     0.0019     1.006     0.359     0.336  0.9413  0.2686  0.2043
 
              Baa    -0.9426    45.021    16.065    15.017  0.6790 -0.0139  0.7340
    60 Ni(61) Bbb    -0.3932    18.780     6.701     6.264  0.2849  0.9265 -0.2460
              Bcc     1.3358   -63.801   -22.766   -21.282  0.6766 -0.3761 -0.6330
 
              Baa    -0.2339  -117.481   -41.920   -39.187  0.9025 -0.4255 -0.0669
    61 F(19)  Bbb    -0.1903   -95.585   -34.107   -31.884  0.3952  0.7562  0.5215
              Bcc     0.4242   213.065    76.027    71.071 -0.1713 -0.4970  0.8507
 
              Baa    -0.3218  -161.634   -57.675   -53.915  0.8144  0.3644 -0.4517
    62 F(19)  Bbb     0.0433    21.739     7.757     7.251  0.2240  0.5206  0.8239
              Bcc     0.2785   139.894    49.918    46.664 -0.5354  0.7722 -0.3423
 

 ---------------------------------------------------------------------------------

 PrsmSu:  requested number of processors reduced to:  12 ShMem   1 Linda.
   1 Symmetry operations used in ECPInt.
 ECPInt:  NShTT=   22791 NPrTT=  142008 LenC2=   18105 LenP2D=   59483.
 LDataN:  DoStor=T MaxTD1= 7 Len=  274
 Number of processors reduced to  13 by ecpmxn.
 Calling FoFJK, ICntrl=      2127 FMM=T ISym2X=0 I1Cent= 0 IOpClX= 1 NMat=1 NMatS=1 NMatT=0.
 ***** Axes restored to original set *****
 -------------------------------------------------------------------
 Center     Atomic                   Forces (Hartrees/Bohr)
 Number     Number              X              Y              Z
 -------------------------------------------------------------------
      1        6           0.000004338    0.000000816   -0.000004703
      2        6          -0.000000535    0.000000252   -0.000006875
      3        6           0.000001886   -0.000000332   -0.000002175
      4        6          -0.000002009    0.000002650   -0.000004054
      5        6           0.000008865   -0.000001927    0.000001074
      6        7           0.000003702    0.000001739   -0.000008094
      7        6          -0.000003917   -0.000000257    0.000001977
      8        6           0.000002175   -0.000006359    0.000001949
      9        6          -0.000000558    0.000000830    0.000006066
     10        6          -0.000002010    0.000000341    0.000005470
     11        6          -0.000002612   -0.000002478    0.000004504
     12        6           0.000000190    0.000000155    0.000006796
     13        7          -0.000000979    0.000002524   -0.000008013
     14        6           0.000003393   -0.000001569    0.000002658
     15        6           0.000000015   -0.000000689    0.000005547
     16        6          -0.000002105   -0.000001722    0.000006497
     17        6           0.000000612    0.000000144    0.000005803
     18        8           0.000004984    0.000003933   -0.000001344
     19        6          -0.000007712    0.000007529   -0.000001331
     20        6           0.000002914   -0.000006669   -0.000000009
     21        6          -0.000002965   -0.000000663   -0.000006151
     22        6          -0.000002934   -0.000002575   -0.000002565
     23        6          -0.000002507   -0.000001183   -0.000005064
     24        6          -0.000002545   -0.000002062   -0.000004062
     25        6          -0.000003125   -0.000001777    0.000001288
     26        6           0.000002535   -0.000001735    0.000003721
     27        6          -0.000000829    0.000006033   -0.000005904
     28        6           0.000004113   -0.000004752   -0.000002667
     29        6           0.000002742    0.000002454    0.000006147
     30        6          -0.000003285    0.000004431   -0.000004044
     31        6           0.000004373   -0.000004359   -0.000000874
     32        6          -0.000002524   -0.000000566   -0.000006576
     33        6           0.000004035    0.000005292   -0.000006699
     34        1           0.000002027    0.000001482   -0.000007603
     35        1          -0.000000121    0.000000785   -0.000005693
     36        1           0.000000873   -0.000001869   -0.000003552
     37        1           0.000004004    0.000003522   -0.000000396
     38        1          -0.000001608   -0.000001166    0.000003325
     39        1          -0.000002335   -0.000001569    0.000005434
     40        1          -0.000000189    0.000000485    0.000004141
     41        1          -0.000000245   -0.000000506    0.000001811
     42        1           0.000001119    0.000000622    0.000005784
     43        1           0.000000074    0.000001065    0.000005059
     44        1          -0.000001883   -0.000000490    0.000007506
     45        1          -0.000001952   -0.000000961    0.000004636
     46        1          -0.000002493   -0.000001962    0.000008005
     47        1          -0.000001480   -0.000000849    0.000009090
     48        1          -0.000000900   -0.000001207   -0.000003104
     49        1          -0.000002117   -0.000001655   -0.000005586
     50        1          -0.000002887   -0.000003404   -0.000006160
     51        1          -0.000003737   -0.000002009   -0.000003103
     52        1          -0.000005515   -0.000004070    0.000000333
     53        1           0.000003334    0.000001882   -0.000000584
     54        1           0.000003202    0.000003352   -0.000000495
     55        1           0.000001806    0.000000756   -0.000000515
     56        1          -0.000000605   -0.000001237    0.000000894
     57        1          -0.000002093   -0.000000275    0.000000221
     58        1           0.000003742    0.000000671   -0.000002105
     59        1           0.000003414    0.000001277   -0.000006174
     60       28          -0.000005752    0.000006979    0.000010600
     61        9           0.000001384   -0.000000500   -0.000000325
     62        9           0.000003212    0.000003400    0.000000262
 -------------------------------------------------------------------
 Cartesian Forces:  Max     0.000010600 RMS     0.000003693

 GradGradGradGradGradGradGradGradGradGradGradGradGradGradGradGradGradGrad
 Berny optimization.
 FormGI is forming the generalized inverse of G from B-inverse, IUseBI=4.
 Internal  Forces:  Max     0.000011211 RMS     0.000001559
 Search for a local minimum.
 Step number   1 out of a maximum of  372
 All quantities printed in internal units (Hartrees-Bohrs-Radians)
 Mixed Optimization -- En-DIIS/RFO-DIIS
 Second derivative matrix not updated -- first step.
 ITU=  0
     Eigenvalues ---    0.00488   0.00513   0.00531   0.00543   0.00579
     Eigenvalues ---    0.00630   0.01124   0.01321   0.01348   0.01452
     Eigenvalues ---    0.01464   0.01482   0.01627   0.01664   0.01827
     Eigenvalues ---    0.01936   0.02078   0.02085   0.02086   0.02098
     Eigenvalues ---    0.02117   0.02126   0.02130   0.02134   0.02134
     Eigenvalues ---    0.02136   0.02144   0.02147   0.02151   0.02151
     Eigenvalues ---    0.02157   0.02157   0.02158   0.02159   0.02160
     Eigenvalues ---    0.02162   0.02163   0.02165   0.02165   0.02170
     Eigenvalues ---    0.02171   0.02182   0.02209   0.02221   0.02245
     Eigenvalues ---    0.02715   0.03044   0.04029   0.04031   0.04253
     Eigenvalues ---    0.04355   0.04731   0.04897   0.05250   0.05717
     Eigenvalues ---    0.06002   0.06327   0.06927   0.07052   0.07267
     Eigenvalues ---    0.07954   0.07967   0.08514   0.09263   0.09525
     Eigenvalues ---    0.09603   0.10853   0.11619   0.11761   0.12165
     Eigenvalues ---    0.12818   0.13192   0.13428   0.15193   0.15939
     Eigenvalues ---    0.15983   0.15997   0.15999   0.15999   0.16000
     Eigenvalues ---    0.16000   0.16000   0.16000   0.16000   0.16000
     Eigenvalues ---    0.16000   0.16000   0.16000   0.16000   0.16000
     Eigenvalues ---    0.16000   0.16000   0.18351   0.18933   0.19055
     Eigenvalues ---    0.19958   0.21970   0.21999   0.21999   0.22000
     Eigenvalues ---    0.22000   0.22000   0.22002   0.22589   0.23454
     Eigenvalues ---    0.23474   0.23477   0.23489   0.23761   0.24118
     Eigenvalues ---    0.24514   0.24613   0.24672   0.24847   0.24924
     Eigenvalues ---    0.24995   0.24999   0.28004   0.28391   0.28607
     Eigenvalues ---    0.30269   0.30542   0.30670   0.30733   0.30936
     Eigenvalues ---    0.31143   0.33585   0.33655   0.33808   0.33855
     Eigenvalues ---    0.34051   0.34185   0.34189   0.34208   0.34256
     Eigenvalues ---    0.34268   0.34953   0.35104   0.35158   0.35216
     Eigenvalues ---    0.35223   0.35225   0.35226   0.35241   0.35253
     Eigenvalues ---    0.35262   0.35271   0.35280   0.35289   0.35375
     Eigenvalues ---    0.35392   0.35503   0.35566   0.35703   0.39736
     Eigenvalues ---    0.41824   0.41864   0.41991   0.42005   0.42071
     Eigenvalues ---    0.42086   0.43060   0.45516   0.45576   0.45663
     Eigenvalues ---    0.45801   0.46125   0.46134   0.46206   0.46481
     Eigenvalues ---    0.46491   0.46528   0.46594   0.46741   0.46989
     Eigenvalues ---    0.47044   0.50425   0.54587   0.56320   0.62154
 RFO step:  Lambda= 0.00000000D+00 EMin= 4.87972150D-03
 Linear search not attempted -- first point.
 Iteration  1 RMS(Cart)=  0.00014184 RMS(Int)=  0.00000000
 Iteration  2 RMS(Cart)=  0.00000001 RMS(Int)=  0.00000000
 Variable       Old X    -DE/DX   Delta X   Delta X   Delta X     New X
                                 (Linear)    (Quad)   (Total)
    R1        2.63517  -0.00000   0.00000  -0.00001  -0.00001   2.63516
    R2        2.63599   0.00000   0.00000   0.00000   0.00000   2.63599
    R3        2.05326  -0.00000   0.00000  -0.00000  -0.00000   2.05326
    R4        2.63650   0.00000   0.00000   0.00000   0.00000   2.63650
    R5        2.05309  -0.00000   0.00000  -0.00000  -0.00000   2.05309
    R6        2.64662   0.00000   0.00000   0.00001   0.00001   2.64663
    R7        2.05506   0.00000   0.00000   0.00000   0.00000   2.05506
    R8        2.86136   0.00001   0.00000   0.00002   0.00002   2.86137
    R9        2.64421   0.00000   0.00000   0.00001   0.00001   2.64421
   R10        2.78457  -0.00000   0.00000  -0.00001  -0.00001   2.78456
   R11        2.99844   0.00000   0.00000   0.00001   0.00001   2.99845
   R12        2.06880   0.00000   0.00000   0.00000   0.00000   2.06880
   R13        2.42809  -0.00000   0.00000  -0.00000  -0.00000   2.42809
   R14        3.91526  -0.00001   0.00000  -0.00004  -0.00004   3.91522
   R15        2.77454   0.00000   0.00000   0.00001   0.00001   2.77454
   R16        2.51345  -0.00000   0.00000  -0.00000  -0.00000   2.51345
   R17        2.62282   0.00000   0.00000   0.00000   0.00000   2.62282
   R18        2.54315  -0.00000   0.00000  -0.00001  -0.00001   2.54314
   R19        2.63417  -0.00000   0.00000  -0.00000  -0.00000   2.63417
   R20        2.04766  -0.00000   0.00000  -0.00000  -0.00000   2.04766
   R21        2.63720   0.00000   0.00000   0.00000   0.00000   2.63721
   R22        2.05419  -0.00000   0.00000  -0.00000  -0.00000   2.05419
   R23        2.66801  -0.00000   0.00000  -0.00000  -0.00000   2.66801
   R24        2.86062   0.00000   0.00000   0.00000   0.00000   2.86062
   R25        2.52698   0.00000   0.00000   0.00000   0.00000   2.52698
   R26        2.84915   0.00000   0.00000   0.00001   0.00001   2.84916
   R27        3.89994  -0.00001   0.00000  -0.00005  -0.00005   3.89990
   R28        2.89228  -0.00000   0.00000  -0.00000  -0.00000   2.89228
   R29        2.07013  -0.00000   0.00000  -0.00000  -0.00000   2.07012
   R30        2.08035  -0.00000   0.00000  -0.00000  -0.00000   2.08035
   R31        2.89547   0.00000   0.00000   0.00000   0.00000   2.89547
   R32        2.07655   0.00000   0.00000   0.00000   0.00000   2.07655
   R33        2.06900  -0.00000   0.00000  -0.00000  -0.00000   2.06899
   R34        2.89810   0.00000   0.00000   0.00000   0.00000   2.89810
   R35        2.07018  -0.00000   0.00000  -0.00000  -0.00000   2.07018
   R36        2.07575  -0.00000   0.00000  -0.00000  -0.00000   2.07574
   R37        2.07244   0.00000   0.00000   0.00000   0.00000   2.07244
   R38        2.07915  -0.00000   0.00000  -0.00000  -0.00000   2.07915
   R39        2.84037   0.00000   0.00000   0.00002   0.00002   2.84038
   R40        2.87430   0.00001   0.00000   0.00003   0.00003   2.87433
   R41        2.86646  -0.00000   0.00000  -0.00001  -0.00001   2.86645
   R42        2.64197   0.00000   0.00000   0.00001   0.00001   2.64198
   R43        2.65163   0.00000   0.00000   0.00001   0.00001   2.65163
   R44        2.63613   0.00000   0.00000   0.00000   0.00000   2.63613
   R45        2.04866  -0.00000   0.00000  -0.00000  -0.00000   2.04866
   R46        2.63343  -0.00000   0.00000  -0.00000  -0.00000   2.63343
   R47        2.05286  -0.00000   0.00000  -0.00000  -0.00000   2.05286
   R48        2.63767  -0.00000   0.00000  -0.00001  -0.00001   2.63766
   R49        2.05311  -0.00000   0.00000  -0.00000  -0.00000   2.05310
   R50        2.63159  -0.00000   0.00000  -0.00000  -0.00000   2.63158
   R51        2.05223  -0.00000   0.00000  -0.00000  -0.00000   2.05223
   R52        2.05070  -0.00000   0.00000  -0.00001  -0.00001   2.05069
   R53        2.63720   0.00000   0.00000   0.00001   0.00001   2.63721
   R54        2.65315  -0.00000   0.00000  -0.00000  -0.00000   2.65315
   R55        2.64106  -0.00000   0.00000  -0.00001  -0.00001   2.64105
   R56        2.04549  -0.00000   0.00000  -0.00000  -0.00000   2.04549
   R57        2.63038   0.00000   0.00000   0.00001   0.00001   2.63039
   R58        2.05238  -0.00000   0.00000  -0.00000  -0.00000   2.05237
   R59        2.64093  -0.00000   0.00000  -0.00001  -0.00001   2.64092
   R60        2.05251  -0.00000   0.00000  -0.00000  -0.00000   2.05251
   R61        2.62786   0.00000   0.00000   0.00001   0.00001   2.62787
   R62        2.05266  -0.00000   0.00000  -0.00000  -0.00000   2.05266
   R63        2.05044  -0.00000   0.00000  -0.00000  -0.00000   2.05043
   R64        2.63384  -0.00000   0.00000  -0.00001  -0.00001   2.63384
   R65        2.05208  -0.00000   0.00000  -0.00001  -0.00001   2.05208
   R66        2.05314  -0.00000   0.00000  -0.00000  -0.00000   2.05314
   R67        3.52829  -0.00000   0.00000  -0.00000  -0.00000   3.52829
   R68        3.41962   0.00000   0.00000   0.00000   0.00000   3.41962
    A1        2.08548   0.00000   0.00000   0.00000   0.00000   2.08549
    A2        2.10045  -0.00000   0.00000  -0.00000  -0.00000   2.10045
    A3        2.09722  -0.00000   0.00000  -0.00000  -0.00000   2.09722
    A4        2.10841   0.00000   0.00000   0.00000   0.00000   2.10841
    A5        2.09725  -0.00000   0.00000  -0.00000  -0.00000   2.09725
    A6        2.07752   0.00000   0.00000   0.00000   0.00000   2.07752
    A7        2.09136  -0.00000   0.00000  -0.00000  -0.00000   2.09136
    A8        2.08639  -0.00000   0.00000  -0.00001  -0.00001   2.08638
    A9        2.10540   0.00000   0.00000   0.00001   0.00001   2.10542
   A10        2.12805  -0.00000   0.00000  -0.00000  -0.00000   2.12805
   A11        2.07975  -0.00000   0.00000  -0.00001  -0.00001   2.07975
   A12        2.07523   0.00000   0.00000   0.00001   0.00001   2.07523
   A13        2.00368   0.00000   0.00000   0.00002   0.00002   2.00370
   A14        2.02562  -0.00000   0.00000   0.00000   0.00000   2.02562
   A15        1.88712   0.00000   0.00000   0.00000   0.00000   1.88712
   A16        1.79427   0.00000   0.00000   0.00001   0.00001   1.79428
   A17        1.84609  -0.00000   0.00000  -0.00002  -0.00002   1.84607
   A18        1.89674  -0.00000   0.00000  -0.00002  -0.00002   1.89672
   A19        1.88366   0.00000   0.00000  -0.00000  -0.00000   1.88366
   A20        2.45163   0.00000   0.00000  -0.00000  -0.00000   2.45163
   A21        1.87946  -0.00000   0.00000  -0.00002  -0.00002   1.87944
   A22        2.12549  -0.00000   0.00000  -0.00001  -0.00001   2.12548
   A23        2.06967   0.00000   0.00000   0.00001   0.00001   2.06968
   A24        2.08782   0.00000   0.00000   0.00000   0.00000   2.08783
   A25        2.16873  -0.00000   0.00000  -0.00000  -0.00000   2.16872
   A26        1.97806   0.00000   0.00000  -0.00000  -0.00000   1.97806
   A27        2.13616   0.00000   0.00000   0.00000   0.00000   2.13617
   A28        2.04827  -0.00000   0.00000  -0.00000  -0.00000   2.04826
   A29        2.10036  -0.00000   0.00000  -0.00000  -0.00000   2.10036
   A30        2.13453   0.00000   0.00000   0.00000   0.00000   2.13454
   A31        2.10720  -0.00000   0.00000  -0.00000  -0.00000   2.10720
   A32        2.09210  -0.00000   0.00000  -0.00000  -0.00000   2.09210
   A33        2.08388   0.00000   0.00000   0.00000   0.00000   2.08389
   A34        2.06146   0.00000   0.00000   0.00000   0.00000   2.06146
   A35        2.11362  -0.00000   0.00000  -0.00000  -0.00000   2.11361
   A36        2.10797   0.00000   0.00000   0.00000   0.00000   2.10797
   A37        2.10478  -0.00000   0.00000  -0.00000  -0.00000   2.10477
   A38        2.14091   0.00000   0.00000  -0.00000  -0.00000   2.14091
   A39        2.03719   0.00000   0.00000   0.00000   0.00000   2.03719
   A40        2.10795   0.00000   0.00000   0.00000   0.00000   2.10795
   A41        1.94083  -0.00000   0.00000  -0.00002  -0.00002   1.94081
   A42        2.22393   0.00000   0.00000   0.00000   0.00000   2.22393
   A43        1.96338  -0.00000   0.00000  -0.00000  -0.00000   1.96337
   A44        1.89486  -0.00000   0.00000  -0.00000  -0.00000   1.89485
   A45        1.86757   0.00000   0.00000   0.00001   0.00001   1.86757
   A46        1.97642   0.00000   0.00000   0.00001   0.00001   1.97644
   A47        1.91203  -0.00000   0.00000  -0.00000  -0.00000   1.91203
   A48        1.84266  -0.00000   0.00000  -0.00001  -0.00001   1.84265
   A49        1.92715  -0.00000   0.00000  -0.00001  -0.00001   1.92715
   A50        1.91589   0.00000   0.00000   0.00000   0.00000   1.91590
   A51        1.91156   0.00000   0.00000   0.00000   0.00000   1.91157
   A52        1.91063   0.00000   0.00000   0.00001   0.00001   1.91064
   A53        1.93412   0.00000   0.00000  -0.00000  -0.00000   1.93412
   A54        1.86342  -0.00000   0.00000  -0.00000  -0.00000   1.86342
   A55        1.92752   0.00000   0.00000   0.00001   0.00001   1.92752
   A56        1.93933   0.00000   0.00000   0.00000   0.00000   1.93933
   A57        1.90691  -0.00000   0.00000  -0.00000  -0.00000   1.90690
   A58        1.90958  -0.00000   0.00000  -0.00000  -0.00000   1.90957
   A59        1.91294  -0.00000   0.00000  -0.00000  -0.00000   1.91294
   A60        1.86650   0.00000   0.00000  -0.00000  -0.00000   1.86650
   A61        1.97494  -0.00000   0.00000  -0.00000  -0.00000   1.97494
   A62        1.90970   0.00000   0.00000  -0.00000  -0.00000   1.90969
   A63        1.88613   0.00000   0.00000   0.00000   0.00000   1.88613
   A64        1.93608   0.00000   0.00000  -0.00001  -0.00001   1.93607
   A65        1.90211   0.00000   0.00000   0.00001   0.00001   1.90211
   A66        1.85000  -0.00000   0.00000  -0.00000  -0.00000   1.84999
   A67        1.85493  -0.00000   0.00000   0.00000   0.00000   1.85494
   A68        1.76685  -0.00000   0.00000  -0.00001  -0.00001   1.76685
   A69        1.96037  -0.00000   0.00000  -0.00000  -0.00000   1.96037
   A70        2.03302  -0.00000   0.00000  -0.00002  -0.00002   2.03300
   A71        1.86591   0.00000   0.00000   0.00006   0.00006   1.86596
   A72        1.83028  -0.00000   0.00000  -0.00004  -0.00004   1.83024
   A73        1.98023   0.00000   0.00000   0.00001   0.00001   1.98024
   A74        2.10450  -0.00001   0.00000  -0.00003  -0.00003   2.10447
   A75        2.09544   0.00001   0.00000   0.00004   0.00004   2.09549
   A76        2.08069  -0.00000   0.00000  -0.00002  -0.00002   2.08067
   A77        2.10347   0.00000   0.00000   0.00001   0.00001   2.10347
   A78        2.09227   0.00000   0.00000   0.00000   0.00000   2.09227
   A79        2.08744  -0.00000   0.00000  -0.00001  -0.00001   2.08743
   A80        2.09648  -0.00000   0.00000  -0.00000  -0.00000   2.09648
   A81        2.08685  -0.00000   0.00000   0.00000   0.00000   2.08685
   A82        2.09986   0.00000   0.00000   0.00000   0.00000   2.09986
   A83        2.08658   0.00000   0.00000  -0.00000  -0.00000   2.08658
   A84        2.09798   0.00000   0.00000   0.00001   0.00001   2.09799
   A85        2.09853  -0.00000   0.00000  -0.00001  -0.00001   2.09853
   A86        2.10443   0.00000   0.00000   0.00000   0.00000   2.10444
   A87        2.10035  -0.00000   0.00000  -0.00000  -0.00000   2.10035
   A88        2.07822  -0.00000   0.00000   0.00000   0.00000   2.07822
   A89        2.09443   0.00000   0.00000   0.00001   0.00001   2.09444
   A90        2.12177   0.00000   0.00000   0.00002   0.00002   2.12178
   A91        2.06360  -0.00000   0.00000  -0.00003  -0.00003   2.06357
   A92        2.16499  -0.00000   0.00000  -0.00000  -0.00000   2.16499
   A93        2.04831   0.00000   0.00000   0.00000   0.00000   2.04831
   A94        2.06986  -0.00000   0.00000   0.00000   0.00000   2.06986
   A95        2.10595   0.00000   0.00000   0.00000   0.00000   2.10595
   A96        2.10846  -0.00000   0.00000  -0.00001  -0.00001   2.10845
   A97        2.06878   0.00000   0.00000   0.00001   0.00001   2.06879
   A98        2.09959  -0.00000   0.00000  -0.00000  -0.00000   2.09959
   A99        2.08451   0.00000   0.00000   0.00001   0.00001   2.08452
   A100       2.09908  -0.00000   0.00000  -0.00001  -0.00001   2.09908
   A101       2.08550   0.00000   0.00000   0.00000   0.00000   2.08550
   A102       2.09898  -0.00000   0.00000  -0.00001  -0.00001   2.09898
   A103       2.09870   0.00000   0.00000   0.00000   0.00000   2.09871
   A104       2.09634  -0.00000   0.00000  -0.00000  -0.00000   2.09634
   A105       2.09735   0.00000   0.00000   0.00000   0.00000   2.09735
   A106       2.08949  -0.00000   0.00000  -0.00000  -0.00000   2.08948
   A107       2.10908  -0.00000   0.00000  -0.00000  -0.00000   2.10908
   A108       2.07848   0.00000   0.00000   0.00001   0.00001   2.07849
   A109       2.09562  -0.00000   0.00000  -0.00001  -0.00001   2.09562
   A110       2.10849   0.00000   0.00000   0.00000   0.00000   2.10849
   A111       2.09722  -0.00000   0.00000  -0.00001  -0.00001   2.09722
   A112       2.07747   0.00000   0.00000   0.00000   0.00000   2.07748
   A113       2.09277   0.00000   0.00000  -0.00000  -0.00000   2.09277
   A114       2.10049  -0.00000   0.00000  -0.00001  -0.00001   2.10048
   A115       2.08990   0.00000   0.00000   0.00001   0.00001   2.08991
   A116       1.41432   0.00000   0.00000   0.00001   0.00001   1.41433
   A117       1.57210   0.00000   0.00000   0.00002   0.00002   1.57213
   A118       2.23436  -0.00000   0.00000  -0.00001  -0.00001   2.23434
   A119       1.64464  -0.00000   0.00000  -0.00002  -0.00002   1.64462
   A120       1.83602  -0.00000   0.00000  -0.00002  -0.00002   1.83600
   A121       2.42519   0.00000   0.00000   0.00000   0.00000   2.42519
    D1        0.01193   0.00000   0.00000   0.00000   0.00000   0.01193
    D2       -3.13257  -0.00000   0.00000   0.00000   0.00000  -3.13257
    D3       -3.13706   0.00000   0.00000   0.00000   0.00000  -3.13705
    D4        0.00164  -0.00000   0.00000  -0.00000  -0.00000   0.00164
    D5       -0.00207  -0.00000   0.00000  -0.00001  -0.00001  -0.00208
    D6        3.13105  -0.00000   0.00000  -0.00000  -0.00000   3.13105
    D7       -3.13628  -0.00000   0.00000  -0.00001  -0.00001  -3.13629
    D8       -0.00316  -0.00000   0.00000  -0.00000  -0.00000  -0.00317
    D9       -0.00980   0.00000   0.00000   0.00001   0.00001  -0.00979
   D10        3.13963   0.00000   0.00000   0.00003   0.00003   3.13966
   D11        3.13466   0.00000   0.00000   0.00001   0.00001   3.13467
   D12        0.00090   0.00000   0.00000   0.00004   0.00004   0.00094
   D13        3.12029   0.00000   0.00000   0.00000   0.00000   3.12029
   D14       -0.00215  -0.00000   0.00000  -0.00002  -0.00002  -0.00217
   D15       -0.02923  -0.00000   0.00000  -0.00002  -0.00002  -0.02925
   D16        3.13152  -0.00000   0.00000  -0.00004  -0.00004   3.13148
   D17        0.50556  -0.00000   0.00000  -0.00013  -0.00013   0.50543
   D18       -1.58624  -0.00000   0.00000  -0.00016  -0.00016  -1.58640
   D19        2.56151  -0.00000   0.00000  -0.00014  -0.00014   2.56137
   D20       -2.65514  -0.00000   0.00000  -0.00011  -0.00011  -2.65525
   D21        1.53624  -0.00000   0.00000  -0.00014  -0.00014   1.53610
   D22       -0.59919  -0.00000   0.00000  -0.00012  -0.00012  -0.59931
   D23        0.01199   0.00000   0.00000   0.00001   0.00001   0.01200
   D24       -3.12755   0.00000   0.00000   0.00001   0.00001  -3.12755
   D25       -3.11103  -0.00000   0.00000  -0.00001  -0.00001  -3.11104
   D26        0.03261  -0.00000   0.00000  -0.00001  -0.00001   0.03260
   D27       -2.46025  -0.00000   0.00000  -0.00002  -0.00002  -2.46027
   D28        0.21584  -0.00000   0.00000  -0.00010  -0.00010   0.21574
   D29       -0.24432  -0.00000   0.00000   0.00001   0.00001  -0.24431
   D30        2.43178  -0.00000   0.00000  -0.00008  -0.00008   2.43170
   D31        1.74391  -0.00000   0.00000  -0.00002  -0.00002   1.74389
   D32       -1.86318  -0.00000   0.00000  -0.00010  -0.00010  -1.86328
   D33        2.50021   0.00000   0.00000   0.00001   0.00001   2.50022
   D34        0.51562  -0.00000   0.00000  -0.00005  -0.00005   0.51557
   D35       -1.81024  -0.00000   0.00000  -0.00004  -0.00004  -1.81028
   D36        0.29834   0.00000   0.00000  -0.00002  -0.00002   0.29831
   D37       -1.68625  -0.00000   0.00000  -0.00008  -0.00008  -1.68633
   D38        2.27108  -0.00000   0.00000  -0.00008  -0.00008   2.27100
   D39       -1.65263   0.00000   0.00000   0.00000   0.00000  -1.65262
   D40        2.64597  -0.00000   0.00000  -0.00006  -0.00006   2.64591
   D41        0.32011  -0.00000   0.00000  -0.00005  -0.00005   0.32006
   D42       -3.07861   0.00000   0.00000   0.00001   0.00001  -3.07860
   D43        0.08437   0.00000   0.00000   0.00001   0.00001   0.08438
   D44        0.36755   0.00000   0.00000   0.00007   0.00007   0.36761
   D45       -2.75266   0.00000   0.00000   0.00007   0.00007  -2.75259
   D46       -3.01744  -0.00000   0.00000   0.00000   0.00000  -3.01744
   D47       -1.37209  -0.00000   0.00000  -0.00002  -0.00002  -1.37211
   D48        1.47980   0.00000   0.00000   0.00002   0.00002   1.47982
   D49       -0.34067  -0.00000   0.00000  -0.00008  -0.00008  -0.34075
   D50        1.30468  -0.00000   0.00000  -0.00010  -0.00010   1.30458
   D51       -2.12662   0.00000   0.00000  -0.00006  -0.00006  -2.12668
   D52        2.97793  -0.00000   0.00000  -0.00000  -0.00000   2.97793
   D53       -0.14072   0.00000   0.00000   0.00000   0.00000  -0.14072
   D54       -0.18526   0.00000   0.00000  -0.00000  -0.00000  -0.18526
   D55        2.97927   0.00000   0.00000   0.00000   0.00000   2.97927
   D56        0.13044   0.00000   0.00000  -0.00003  -0.00003   0.13041
   D57       -2.99024  -0.00000   0.00000  -0.00003  -0.00003  -2.99027
   D58       -3.09293  -0.00000   0.00000  -0.00002  -0.00002  -3.09296
   D59        0.04112  -0.00000   0.00000  -0.00002  -0.00002   0.04110
   D60        0.02371  -0.00000   0.00000  -0.00003  -0.00003   0.02368
   D61       -3.12542  -0.00000   0.00000  -0.00002  -0.00002  -3.12544
   D62        3.10898   0.00000   0.00000   0.00005   0.00005   3.10903
   D63       -0.17657  -0.00000   0.00000  -0.00007  -0.00007  -0.17664
   D64       -0.01016   0.00000   0.00000   0.00005   0.00005  -0.01011
   D65        2.98747  -0.00000   0.00000  -0.00007  -0.00007   2.98741
   D66       -0.00820  -0.00000   0.00000  -0.00001  -0.00001  -0.00821
   D67        3.13216   0.00000   0.00000   0.00000   0.00000   3.13216
   D68        3.14109  -0.00000   0.00000  -0.00002  -0.00002   3.14107
   D69       -0.00174   0.00000   0.00000  -0.00000  -0.00000  -0.00174
   D70       -0.01913   0.00000   0.00000   0.00003   0.00003  -0.01910
   D71        3.10489   0.00000   0.00000   0.00005   0.00005   3.10494
   D72        3.12369   0.00000   0.00000   0.00001   0.00001   3.12370
   D73       -0.03548   0.00000   0.00000   0.00003   0.00003  -0.03544
   D74        0.03336  -0.00000   0.00000  -0.00001  -0.00001   0.03335
   D75       -3.08074   0.00000   0.00000   0.00001   0.00001  -3.08074
   D76       -3.09072  -0.00000   0.00000  -0.00003  -0.00003  -3.09075
   D77        0.07836  -0.00000   0.00000  -0.00001  -0.00001   0.07835
   D78        2.83272   0.00000   0.00000   0.00001   0.00001   2.83273
   D79        0.66427   0.00000   0.00000   0.00002   0.00002   0.66430
   D80       -1.34256   0.00000   0.00000   0.00002   0.00002  -1.34254
   D81       -0.32691   0.00000   0.00000   0.00003   0.00003  -0.32688
   D82       -2.49536   0.00000   0.00000   0.00004   0.00004  -2.49532
   D83        1.78099   0.00000   0.00000   0.00004   0.00004   1.78103
   D84       -0.01922  -0.00000   0.00000  -0.00003  -0.00003  -0.01925
   D85       -2.99159   0.00000   0.00000   0.00011   0.00011  -2.99148
   D86        3.09646  -0.00000   0.00000  -0.00004  -0.00004   3.09642
   D87        0.12410   0.00000   0.00000   0.00009   0.00009   0.12419
   D88       -0.33335  -0.00000   0.00000  -0.00002  -0.00002  -0.33337
   D89       -2.53474  -0.00000   0.00000  -0.00003  -0.00003  -2.53477
   D90        1.76728  -0.00000   0.00000  -0.00002  -0.00002   1.76726
   D91        2.83474   0.00000   0.00000  -0.00000  -0.00000   2.83473
   D92        0.63334  -0.00000   0.00000  -0.00001  -0.00001   0.63333
   D93       -1.34782   0.00000   0.00000  -0.00000  -0.00000  -1.34782
   D94        0.28327   0.00000   0.00000   0.00008   0.00008   0.28336
   D95       -1.27717  -0.00000   0.00000   0.00006   0.00006  -1.27712
   D96        2.50168   0.00000   0.00000   0.00007   0.00007   2.50175
   D97       -3.01415  -0.00000   0.00000  -0.00004  -0.00004  -3.01419
   D98        1.70858  -0.00000   0.00000  -0.00007  -0.00007   1.70851
   D99       -0.79575  -0.00000   0.00000  -0.00005  -0.00005  -0.79580
   D100       0.82987  -0.00000   0.00000   0.00002   0.00002   0.82989
   D101      -1.27818  -0.00000   0.00000   0.00002   0.00002  -1.27816
   D102       2.96440  -0.00000   0.00000   0.00002   0.00002   2.96442
   D103       2.98650  -0.00000   0.00000   0.00002   0.00002   2.98652
   D104       0.87845  -0.00000   0.00000   0.00002   0.00002   0.87847
   D105      -1.16216  -0.00000   0.00000   0.00002   0.00002  -1.16214
   D106      -1.24492  -0.00000   0.00000   0.00002   0.00002  -1.24491
   D107       2.93021  -0.00000   0.00000   0.00001   0.00001   2.93022
   D108       0.88961  -0.00000   0.00000   0.00001   0.00001   0.88962
   D109      -1.09755  -0.00000   0.00000  -0.00001  -0.00001  -1.09755
   D110       3.06318  -0.00000   0.00000  -0.00001  -0.00001   3.06317
   D111       1.00782  -0.00000   0.00000  -0.00001  -0.00001   1.00781
   D112       1.01364  -0.00000   0.00000  -0.00000  -0.00000   1.01364
   D113      -1.10882   0.00000   0.00000  -0.00001  -0.00001  -1.10883
   D114       3.11900   0.00000   0.00000  -0.00000  -0.00000   3.11900
   D115       3.06441  -0.00000   0.00000  -0.00000  -0.00000   3.06441
   D116       0.94195   0.00000   0.00000  -0.00000  -0.00000   0.94195
   D117      -1.11341  -0.00000   0.00000  -0.00000  -0.00000  -1.11341
   D118       0.82680   0.00000   0.00000  -0.00002  -0.00002   0.82678
   D119       2.98079  -0.00000   0.00000  -0.00003  -0.00003   2.98076
   D120      -1.27201  -0.00000   0.00000  -0.00003  -0.00003  -1.27204
   D121       2.96677   0.00000   0.00000  -0.00001  -0.00001   2.96676
   D122      -1.16243   0.00000   0.00000  -0.00002  -0.00002  -1.16246
   D123       0.86795   0.00000   0.00000  -0.00002  -0.00002   0.86793
   D124      -1.27495   0.00000   0.00000  -0.00002  -0.00002  -1.27497
   D125       0.87903  -0.00000   0.00000  -0.00003  -0.00003   0.87901
   D126       2.90942  -0.00000   0.00000  -0.00003  -0.00003   2.90939
   D127      -0.26169  -0.00000   0.00000   0.00003   0.00003  -0.26166
   D128       1.79283  -0.00000   0.00000   0.00005   0.00005   1.79288
   D129      -2.38300   0.00000   0.00000   0.00007   0.00007  -2.38292
   D130      -1.92061   0.00000   0.00000   0.00002   0.00002  -1.92059
   D131       1.14370   0.00000   0.00000   0.00000   0.00000   1.14370
   D132       2.43965   0.00000   0.00000   0.00000   0.00000   2.43965
   D133      -0.77923  -0.00000   0.00000  -0.00002  -0.00002  -0.77925
   D134       0.43072   0.00000   0.00000   0.00000   0.00000   0.43072
   D135      -2.78816  -0.00000   0.00000  -0.00002  -0.00002  -2.78818
   D136       0.26210   0.00000   0.00000   0.00005   0.00005   0.26215
   D137      -2.88674   0.00000   0.00000   0.00012   0.00012  -2.88663
   D138       2.19842  -0.00000   0.00000   0.00001   0.00001   2.19843
   D139      -0.95042  -0.00000   0.00000   0.00008   0.00008  -0.95035
   D140      -2.05477   0.00000   0.00000   0.00006   0.00006  -2.05471
   D141       1.07957   0.00000   0.00000   0.00013   0.00013   1.07970
   D142       3.08395   0.00000   0.00000   0.00001   0.00001   3.08396
   D143      -0.05189   0.00000   0.00000   0.00000   0.00000  -0.05189
   D144       0.01899   0.00000   0.00000   0.00003   0.00003   0.01902
   D145      -3.11685   0.00000   0.00000   0.00002   0.00002  -3.11683
   D146      -3.08787   0.00000   0.00000  -0.00001  -0.00001  -3.08788
   D147      -0.03623  -0.00000   0.00000  -0.00004  -0.00004  -0.03627
   D148      -0.02251  -0.00000   0.00000  -0.00003  -0.00003  -0.02254
   D149       3.02913  -0.00000   0.00000  -0.00006  -0.00006   3.02907
   D150       0.00044  -0.00000   0.00000  -0.00002  -0.00002   0.00042
   D151       3.14138  -0.00000   0.00000  -0.00001  -0.00001   3.14137
   D152       3.13630  -0.00000   0.00000  -0.00001  -0.00001   3.13629
   D153      -0.00594   0.00000   0.00000  -0.00000  -0.00000  -0.00595
   D154      -0.01638  -0.00000   0.00000  -0.00000  -0.00000  -0.01638
   D155       3.13981   0.00000   0.00000   0.00002   0.00002   3.13983
   D156       3.12587  -0.00000   0.00000  -0.00001  -0.00001   3.12585
   D157      -0.00113   0.00000   0.00000   0.00001   0.00001  -0.00112
   D158       0.01281   0.00000   0.00000   0.00001   0.00001   0.01282
   D159      -3.10824   0.00000   0.00000   0.00001   0.00001  -3.10823
   D160       3.13980  -0.00000   0.00000  -0.00001  -0.00001   3.13978
   D161       0.01875  -0.00000   0.00000  -0.00001  -0.00001   0.01874
   D162       0.00674   0.00000   0.00000   0.00001   0.00001   0.00675
   D163      -3.04787   0.00000   0.00000   0.00004   0.00004  -3.04783
   D164       3.12805   0.00000   0.00000   0.00000   0.00000   3.12805
   D165       0.07344   0.00000   0.00000   0.00004   0.00004   0.07347
   D166       3.13048   0.00000   0.00000   0.00004   0.00004   3.13052
   D167      -0.01112   0.00000   0.00000   0.00004   0.00004  -0.01108
   D168      -0.00378  -0.00000   0.00000  -0.00003  -0.00003  -0.00381
   D169       3.13781  -0.00000   0.00000  -0.00003  -0.00003   3.13777
   D170      -3.14020  -0.00000   0.00000  -0.00003  -0.00003  -3.14023
   D171      -0.00149  -0.00000   0.00000  -0.00005  -0.00005  -0.00154
   D172      -0.00544   0.00000   0.00000   0.00003   0.00003  -0.00541
   D173       3.13326   0.00000   0.00000   0.00002   0.00002   3.13328
   D174       0.00844   0.00000   0.00000   0.00001   0.00001   0.00845
   D175      -3.13606   0.00000   0.00000   0.00000   0.00000  -3.13605
   D176      -3.13315   0.00000   0.00000   0.00001   0.00001  -3.13314
   D177       0.00554   0.00000   0.00000   0.00001   0.00001   0.00555
   D178      -0.00381   0.00000   0.00000   0.00000   0.00000  -0.00381
   D179       3.13850  -0.00000   0.00000  -0.00001  -0.00001   3.13850
   D180       3.14071   0.00000   0.00000   0.00001   0.00001   3.14072
   D181      -0.00017   0.00000   0.00000   0.00000   0.00000  -0.00016
   D182      -0.00535  -0.00000   0.00000  -0.00000  -0.00000  -0.00535
   D183       3.14067  -0.00000   0.00000  -0.00000  -0.00000   3.14066
   D184       3.13552   0.00000   0.00000   0.00001   0.00001   3.13553
   D185      -0.00165   0.00000   0.00000   0.00001   0.00001  -0.00164
   D186       0.01006  -0.00000   0.00000  -0.00002  -0.00002   0.01004
   D187      -3.12862   0.00000   0.00000   0.00000   0.00000  -3.12862
   D188      -3.13594  -0.00000   0.00000  -0.00001  -0.00001  -3.13595
   D189       0.00857   0.00000   0.00000   0.00000   0.00000   0.00857
   D190      -0.00992   0.00000   0.00000   0.00000   0.00000  -0.00991
   D191       3.14010  -0.00000   0.00000  -0.00000  -0.00000   3.14009
   D192       3.12965   0.00000   0.00000   0.00001   0.00001   3.12966
   D193      -0.00352   0.00000   0.00000   0.00000   0.00000  -0.00352
         Item               Value     Threshold  Converged?
 Maximum Force            0.000011     0.000450     YES
 RMS     Force            0.000002     0.000300     YES
 Maximum Displacement     0.000707     0.001800     YES
 RMS     Displacement     0.000142     0.001200     YES
 Predicted change in Energy=-4.353592D-09
 Optimization completed.
    -- Stationary point found.
                           ----------------------------
                           !   Optimized Parameters   !
                           ! (Angstroms and Degrees)  !
 --------------------------                            --------------------------
 ! Name  Definition              Value          Derivative Info.                !
 --------------------------------------------------------------------------------
 ! R1    R(1,2)                  1.3945         -DE/DX =    0.0                 !
 ! R2    R(1,33)                 1.3949         -DE/DX =    0.0                 !
 ! R3    R(1,34)                 1.0865         -DE/DX =    0.0                 !
 ! R4    R(2,3)                  1.3952         -DE/DX =    0.0                 !
 ! R5    R(2,35)                 1.0864         -DE/DX =    0.0                 !
 ! R6    R(3,4)                  1.4005         -DE/DX =    0.0                 !
 ! R7    R(3,36)                 1.0875         -DE/DX =    0.0                 !
 ! R8    R(4,5)                  1.5142         -DE/DX =    0.0                 !
 ! R9    R(4,32)                 1.3993         -DE/DX =    0.0                 !
 ! R10   R(5,6)                  1.4735         -DE/DX =    0.0                 !
 ! R11   R(5,19)                 1.5867         -DE/DX =    0.0                 !
 ! R12   R(5,37)                 1.0948         -DE/DX =    0.0                 !
 ! R13   R(6,7)                  1.2849         -DE/DX =    0.0                 !
 ! R14   R(6,60)                 2.0719         -DE/DX =    0.0                 !
 ! R15   R(7,8)                  1.4682         -DE/DX =    0.0                 !
 ! R16   R(7,18)                 1.3301         -DE/DX =    0.0                 !
 ! R17   R(8,9)                  1.3879         -DE/DX =    0.0                 !
 ! R18   R(8,13)                 1.3458         -DE/DX =    0.0                 !
 ! R19   R(9,10)                 1.3939         -DE/DX =    0.0                 !
 ! R20   R(9,38)                 1.0836         -DE/DX =    0.0                 !
 ! R21   R(10,11)                1.3955         -DE/DX =    0.0                 !
 ! R22   R(10,39)                1.087          -DE/DX =    0.0                 !
 ! R23   R(11,12)                1.4118         -DE/DX =    0.0                 !
 ! R24   R(11,17)                1.5138         -DE/DX =    0.0                 !
 ! R25   R(12,13)                1.3372         -DE/DX =    0.0                 !
 ! R26   R(12,14)                1.5077         -DE/DX =    0.0                 !
 ! R27   R(13,60)                2.0638         -DE/DX =    0.0                 !
 ! R28   R(14,15)                1.5305         -DE/DX =    0.0                 !
 ! R29   R(14,40)                1.0955         -DE/DX =    0.0                 !
 ! R30   R(14,41)                1.1009         -DE/DX =    0.0                 !
 ! R31   R(15,16)                1.5322         -DE/DX =    0.0                 !
 ! R32   R(15,42)                1.0989         -DE/DX =    0.0                 !
 ! R33   R(15,43)                1.0949         -DE/DX =    0.0                 !
 ! R34   R(16,17)                1.5336         -DE/DX =    0.0                 !
 ! R35   R(16,44)                1.0955         -DE/DX =    0.0                 !
 ! R36   R(16,45)                1.0984         -DE/DX =    0.0                 !
 ! R37   R(17,46)                1.0967         -DE/DX =    0.0                 !
 ! R38   R(17,47)                1.1002         -DE/DX =    0.0                 !
 ! R39   R(18,19)                1.5031         -DE/DX =    0.0                 !
 ! R40   R(19,20)                1.521          -DE/DX =    0.0                 !
 ! R41   R(19,26)                1.5169         -DE/DX =    0.0                 !
 ! R42   R(20,21)                1.3981         -DE/DX =    0.0                 !
 ! R43   R(20,25)                1.4032         -DE/DX =    0.0                 !
 ! R44   R(21,22)                1.395          -DE/DX =    0.0                 !
 ! R45   R(21,48)                1.0841         -DE/DX =    0.0                 !
 ! R46   R(22,23)                1.3936         -DE/DX =    0.0                 !
 ! R47   R(22,49)                1.0863         -DE/DX =    0.0                 !
 ! R48   R(23,24)                1.3958         -DE/DX =    0.0                 !
 ! R49   R(23,50)                1.0865         -DE/DX =    0.0                 !
 ! R50   R(24,25)                1.3926         -DE/DX =    0.0                 !
 ! R51   R(24,51)                1.086          -DE/DX =    0.0                 !
 ! R52   R(25,52)                1.0852         -DE/DX =    0.0                 !
 ! R53   R(26,27)                1.3955         -DE/DX =    0.0                 !
 ! R54   R(26,31)                1.404          -DE/DX =    0.0                 !
 ! R55   R(27,28)                1.3976         -DE/DX =    0.0                 !
 ! R56   R(27,53)                1.0824         -DE/DX =    0.0                 !
 ! R57   R(28,29)                1.3919         -DE/DX =    0.0                 !
 ! R58   R(28,54)                1.0861         -DE/DX =    0.0                 !
 ! R59   R(29,30)                1.3975         -DE/DX =    0.0                 !
 ! R60   R(29,55)                1.0861         -DE/DX =    0.0                 !
 ! R61   R(30,31)                1.3906         -DE/DX =    0.0                 !
 ! R62   R(30,56)                1.0862         -DE/DX =    0.0                 !
 ! R63   R(31,57)                1.085          -DE/DX =    0.0                 !
 ! R64   R(32,33)                1.3938         -DE/DX =    0.0                 !
 ! R65   R(32,58)                1.0859         -DE/DX =    0.0                 !
 ! R66   R(33,59)                1.0865         -DE/DX =    0.0                 !
 ! R67   R(60,61)                1.8671         -DE/DX =    0.0                 !
 ! R68   R(60,62)                1.8096         -DE/DX =    0.0                 !
 ! A1    A(2,1,33)             119.4895         -DE/DX =    0.0                 !
 ! A2    A(2,1,34)             120.3471         -DE/DX =    0.0                 !
 ! A3    A(33,1,34)            120.162          -DE/DX =    0.0                 !
 ! A4    A(1,2,3)              120.803          -DE/DX =    0.0                 !
 ! A5    A(1,2,35)             120.1635         -DE/DX =    0.0                 !
 ! A6    A(3,2,35)             119.0333         -DE/DX =    0.0                 !
 ! A7    A(2,3,4)              119.8262         -DE/DX =    0.0                 !
 ! A8    A(2,3,36)             119.5415         -DE/DX =    0.0                 !
 ! A9    A(4,3,36)             120.6308         -DE/DX =    0.0                 !
 ! A10   A(3,4,5)              121.9284         -DE/DX =    0.0                 !
 ! A11   A(3,4,32)             119.161          -DE/DX =    0.0                 !
 ! A12   A(5,4,32)             118.9017         -DE/DX =    0.0                 !
 ! A13   A(4,5,6)              114.8026         -DE/DX =    0.0                 !
 ! A14   A(4,5,19)             116.0594         -DE/DX =    0.0                 !
 ! A15   A(4,5,37)             108.1238         -DE/DX =    0.0                 !
 ! A16   A(6,5,19)             102.8042         -DE/DX =    0.0                 !
 ! A17   A(6,5,37)             105.7733         -DE/DX =    0.0                 !
 ! A18   A(19,5,37)            108.6754         -DE/DX =    0.0                 !
 ! A19   A(5,6,7)              107.9258         -DE/DX =    0.0                 !
 ! A20   A(5,6,60)             140.4681         -DE/DX =    0.0                 !
 ! A21   A(7,6,60)             107.6851         -DE/DX =    0.0                 !
 ! A22   A(6,7,8)              121.7816         -DE/DX =    0.0                 !
 ! A23   A(6,7,18)             118.5836         -DE/DX =    0.0                 !
 ! A24   A(8,7,18)             119.6235         -DE/DX =    0.0                 !
 ! A25   A(7,8,9)              124.2588         -DE/DX =    0.0                 !
 ! A26   A(7,8,13)             113.3345         -DE/DX =    0.0                 !
 ! A27   A(9,8,13)             122.3931         -DE/DX =    0.0                 !
 ! A28   A(8,9,10)             117.357          -DE/DX =    0.0                 !
 ! A29   A(8,9,38)             120.3417         -DE/DX =    0.0                 !
 ! A30   A(10,9,38)            122.2998         -DE/DX =    0.0                 !
 ! A31   A(9,10,11)            120.7337         -DE/DX =    0.0                 !
 ! A32   A(9,10,39)            119.8685         -DE/DX =    0.0                 !
 ! A33   A(11,10,39)           119.3978         -DE/DX =    0.0                 !
 ! A34   A(10,11,12)           118.1129         -DE/DX =    0.0                 !
 ! A35   A(10,11,17)           121.1013         -DE/DX =    0.0                 !
 ! A36   A(12,11,17)           120.778          -DE/DX =    0.0                 !
 ! A37   A(11,12,13)           120.5948         -DE/DX =    0.0                 !
 ! A38   A(11,12,14)           122.6652         -DE/DX =    0.0                 !
 ! A39   A(13,12,14)           116.7224         -DE/DX =    0.0                 !
 ! A40   A(8,13,12)            120.7768         -DE/DX =    0.0                 !
 ! A41   A(8,13,60)            111.2015         -DE/DX =    0.0                 !
 ! A42   A(12,13,60)           127.4215         -DE/DX =    0.0                 !
 ! A43   A(12,14,15)           112.4932         -DE/DX =    0.0                 !
 ! A44   A(12,14,40)           108.5674         -DE/DX =    0.0                 !
 ! A45   A(12,14,41)           107.0038         -DE/DX =    0.0                 !
 ! A46   A(15,14,40)           113.2408         -DE/DX =    0.0                 !
 ! A47   A(15,14,41)           109.5515         -DE/DX =    0.0                 !
 ! A48   A(40,14,41)           105.5768         -DE/DX =    0.0                 !
 ! A49   A(14,15,16)           110.4178         -DE/DX =    0.0                 !
 ! A50   A(14,15,42)           109.7725         -DE/DX =    0.0                 !
 ! A51   A(14,15,43)           109.5246         -DE/DX =    0.0                 !
 ! A52   A(16,15,42)           109.4712         -DE/DX =    0.0                 !
 ! A53   A(16,15,43)           110.8171         -DE/DX =    0.0                 !
 ! A54   A(42,15,43)           106.7663         -DE/DX =    0.0                 !
 ! A55   A(15,16,17)           110.4386         -DE/DX =    0.0                 !
 ! A56   A(15,16,44)           111.1153         -DE/DX =    0.0                 !
 ! A57   A(15,16,45)           109.2578         -DE/DX =    0.0                 !
 ! A58   A(17,16,44)           109.4108         -DE/DX =    0.0                 !
 ! A59   A(17,16,45)           109.6035         -DE/DX =    0.0                 !
 ! A60   A(44,16,45)           106.9426         -DE/DX =    0.0                 !
 ! A61   A(11,17,16)           113.1558         -DE/DX =    0.0                 !
 ! A62   A(11,17,46)           109.4176         -DE/DX =    0.0                 !
 ! A63   A(11,17,47)           108.0672         -DE/DX =    0.0                 !
 ! A64   A(16,17,46)           110.929          -DE/DX =    0.0                 !
 ! A65   A(16,17,47)           108.9828         -DE/DX =    0.0                 !
 ! A66   A(46,17,47)           105.9969         -DE/DX =    0.0                 !
 ! A67   A(7,18,19)            106.2799         -DE/DX =    0.0                 !
 ! A68   A(5,19,18)            101.2332         -DE/DX =    0.0                 !
 ! A69   A(5,19,20)            112.3209         -DE/DX =    0.0                 !
 ! A70   A(5,19,26)            116.4835         -DE/DX =    0.0                 !
 ! A71   A(18,19,20)           106.9085         -DE/DX =    0.0                 !
 ! A72   A(18,19,26)           104.8671         -DE/DX =    0.0                 !
 ! A73   A(20,19,26)           113.4588         -DE/DX =    0.0                 !
 ! A74   A(19,20,21)           120.579          -DE/DX =    0.0                 !
 ! A75   A(19,20,25)           120.0601         -DE/DX =    0.0                 !
 ! A76   A(21,20,25)           119.2147         -DE/DX =    0.0                 !
 ! A77   A(20,21,22)           120.5197         -DE/DX =    0.0                 !
 ! A78   A(20,21,48)           119.878          -DE/DX =    0.0                 !
 ! A79   A(22,21,48)           119.6015         -DE/DX =    0.0                 !
 ! A80   A(21,22,23)           120.1194         -DE/DX =    0.0                 !
 ! A81   A(21,22,49)           119.5675         -DE/DX =    0.0                 !
 ! A82   A(23,22,49)           120.313          -DE/DX =    0.0                 !
 ! A83   A(22,23,24)           119.5521         -DE/DX =    0.0                 !
 ! A84   A(22,23,50)           120.2056         -DE/DX =    0.0                 !
 ! A85   A(24,23,50)           120.237          -DE/DX =    0.0                 !
 ! A86   A(23,24,25)           120.5752         -DE/DX =    0.0                 !
 ! A87   A(23,24,51)           120.3413         -DE/DX =    0.0                 !
 ! A88   A(25,24,51)           119.0732         -DE/DX =    0.0                 !
 ! A89   A(20,25,24)           120.0023         -DE/DX =    0.0                 !
 ! A90   A(20,25,52)           121.5682         -DE/DX =    0.0                 !
 ! A91   A(24,25,52)           118.2354         -DE/DX =    0.0                 !
 ! A92   A(19,26,27)           124.0449         -DE/DX =    0.0                 !
 ! A93   A(19,26,31)           117.3597         -DE/DX =    0.0                 !
 ! A94   A(27,26,31)           118.5942         -DE/DX =    0.0                 !
 ! A95   A(26,27,28)           120.662          -DE/DX =    0.0                 !
 ! A96   A(26,27,53)           120.8056         -DE/DX =    0.0                 !
 ! A97   A(28,27,53)           118.5324         -DE/DX =    0.0                 !
 ! A98   A(27,28,29)           120.2976         -DE/DX =    0.0                 !
 ! A99   A(27,28,54)           119.4337         -DE/DX =    0.0                 !
 ! A100  A(29,28,54)           120.2685         -DE/DX =    0.0                 !
 ! A101  A(28,29,30)           119.4901         -DE/DX =    0.0                 !
 ! A102  A(28,29,55)           120.2629         -DE/DX =    0.0                 !
 ! A103  A(30,29,55)           120.2469         -DE/DX =    0.0                 !
 ! A104  A(29,30,31)           120.1116         -DE/DX =    0.0                 !
 ! A105  A(29,30,56)           120.1693         -DE/DX =    0.0                 !
 ! A106  A(31,30,56)           119.7187         -DE/DX =    0.0                 !
 ! A107  A(26,31,30)           120.8413         -DE/DX =    0.0                 !
 ! A108  A(26,31,57)           119.0882         -DE/DX =    0.0                 !
 ! A109  A(30,31,57)           120.0703         -DE/DX =    0.0                 !
 ! A110  A(4,32,33)            120.8075         -DE/DX =    0.0                 !
 ! A111  A(4,32,58)            120.1619         -DE/DX =    0.0                 !
 ! A112  A(33,32,58)           119.0305         -DE/DX =    0.0                 !
 ! A113  A(1,33,32)            119.9068         -DE/DX =    0.0                 !
 ! A114  A(1,33,59)            120.349          -DE/DX =    0.0                 !
 ! A115  A(32,33,59)           119.7425         -DE/DX =    0.0                 !
 ! A116  A(6,60,13)             81.0343         -DE/DX =    0.0                 !
 ! A117  A(6,60,61)             90.0747         -DE/DX =    0.0                 !
 ! A118  A(6,60,62)            128.0192         -DE/DX =    0.0                 !
 ! A119  A(13,60,61)            94.2309         -DE/DX =    0.0                 !
 ! A120  A(13,60,62)           105.1964         -DE/DX =    0.0                 !
 ! A121  A(61,60,62)           138.9529         -DE/DX =    0.0                 !
 ! D1    D(33,1,2,3)             0.6833         -DE/DX =    0.0                 !
 ! D2    D(33,1,2,35)         -179.4828         -DE/DX =    0.0                 !
 ! D3    D(34,1,2,3)          -179.74           -DE/DX =    0.0                 !
 ! D4    D(34,1,2,35)            0.0938         -DE/DX =    0.0                 !
 ! D5    D(2,1,33,32)           -0.1184         -DE/DX =    0.0                 !
 ! D6    D(2,1,33,59)          179.3961         -DE/DX =    0.0                 !
 ! D7    D(34,1,33,32)        -179.6958         -DE/DX =    0.0                 !
 ! D8    D(34,1,33,59)          -0.1813         -DE/DX =    0.0                 !
 ! D9    D(1,2,3,4)             -0.5617         -DE/DX =    0.0                 !
 ! D10   D(1,2,3,36)           179.8873         -DE/DX =    0.0                 !
 ! D11   D(35,2,3,4)           179.6026         -DE/DX =    0.0                 !
 ! D12   D(35,2,3,36)            0.0516         -DE/DX =    0.0                 !
 ! D13   D(2,3,4,5)            178.7793         -DE/DX =    0.0                 !
 ! D14   D(2,3,4,32)            -0.1231         -DE/DX =    0.0                 !
 ! D15   D(36,3,4,5)            -1.6747         -DE/DX =    0.0                 !
 ! D16   D(36,3,4,32)          179.423          -DE/DX =    0.0                 !
 ! D17   D(3,4,5,6)             28.9666         -DE/DX =    0.0                 !
 ! D18   D(3,4,5,19)           -90.8848         -DE/DX =    0.0                 !
 ! D19   D(3,4,5,37)           146.7638         -DE/DX =    0.0                 !
 ! D20   D(32,4,5,6)          -152.1283         -DE/DX =    0.0                 !
 ! D21   D(32,4,5,19)           88.0203         -DE/DX =    0.0                 !
 ! D22   D(32,4,5,37)          -34.3311         -DE/DX =    0.0                 !
 ! D23   D(3,4,32,33)            0.6871         -DE/DX =    0.0                 !
 ! D24   D(3,4,32,58)         -179.1957         -DE/DX =    0.0                 !
 ! D25   D(5,4,32,33)         -178.2488         -DE/DX =    0.0                 !
 ! D26   D(5,4,32,58)            1.8685         -DE/DX =    0.0                 !
 ! D27   D(4,5,6,7)           -140.9622         -DE/DX =    0.0                 !
 ! D28   D(4,5,6,60)            12.3667         -DE/DX =    0.0                 !
 ! D29   D(19,5,6,7)           -13.9985         -DE/DX =    0.0                 !
 ! D30   D(19,5,6,60)          139.3305         -DE/DX =    0.0                 !
 ! D31   D(37,5,6,7)            99.9188         -DE/DX =    0.0                 !
 ! D32   D(37,5,6,60)         -106.7522         -DE/DX =    0.0                 !
 ! D33   D(4,5,19,18)          143.2514         -DE/DX =    0.0                 !
 ! D34   D(4,5,19,20)           29.543          -DE/DX =    0.0                 !
 ! D35   D(4,5,19,26)         -103.7189         -DE/DX =    0.0                 !
 ! D36   D(6,5,19,18)           17.0935         -DE/DX =    0.0                 !
 ! D37   D(6,5,19,20)          -96.615          -DE/DX =    0.0                 !
 ! D38   D(6,5,19,26)          130.1232         -DE/DX =    0.0                 !
 ! D39   D(37,5,19,18)         -94.6885         -DE/DX =    0.0                 !
 ! D40   D(37,5,19,20)         151.6031         -DE/DX =    0.0                 !
 ! D41   D(37,5,19,26)          18.3412         -DE/DX =    0.0                 !
 ! D42   D(5,6,7,8)           -176.3914         -DE/DX =    0.0                 !
 ! D43   D(5,6,7,18)             4.8339         -DE/DX =    0.0                 !
 ! D44   D(60,6,7,8)            21.059          -DE/DX =    0.0                 !
 ! D45   D(60,6,7,18)         -157.7158         -DE/DX =    0.0                 !
 ! D46   D(5,6,60,13)         -172.8864         -DE/DX =    0.0                 !
 ! D47   D(5,6,60,61)          -78.6149         -DE/DX =    0.0                 !
 ! D48   D(5,6,60,62)           84.786          -DE/DX =    0.0                 !
 ! D49   D(7,6,60,13)          -19.5187         -DE/DX =    0.0                 !
 ! D50   D(7,6,60,61)           74.7528         -DE/DX =    0.0                 !
 ! D51   D(7,6,60,62)         -121.8462         -DE/DX =    0.0                 !
 ! D52   D(6,7,8,9)            170.623          -DE/DX =    0.0                 !
 ! D53   D(6,7,8,13)            -8.0626         -DE/DX =    0.0                 !
 ! D54   D(18,7,8,9)           -10.6147         -DE/DX =    0.0                 !
 ! D55   D(18,7,8,13)          170.6997         -DE/DX =    0.0                 !
 ! D56   D(6,7,18,19)            7.4738         -DE/DX =    0.0                 !
 ! D57   D(8,7,18,19)         -171.328          -DE/DX =    0.0                 !
 ! D58   D(7,8,9,10)          -177.2121         -DE/DX =    0.0                 !
 ! D59   D(7,8,9,38)             2.3561         -DE/DX =    0.0                 !
 ! D60   D(13,8,9,10)            1.3586         -DE/DX =    0.0                 !
 ! D61   D(13,8,9,38)         -179.0732         -DE/DX =    0.0                 !
 ! D62   D(7,8,13,12)          178.1316         -DE/DX =    0.0                 !
 ! D63   D(7,8,13,60)          -10.1169         -DE/DX =    0.0                 !
 ! D64   D(9,8,13,12)           -0.5819         -DE/DX =    0.0                 !
 ! D65   D(9,8,13,60)          171.1696         -DE/DX =    0.0                 !
 ! D66   D(8,9,10,11)           -0.4699         -DE/DX =    0.0                 !
 ! D67   D(8,9,10,39)          179.4594         -DE/DX =    0.0                 !
 ! D68   D(38,9,10,11)         179.971          -DE/DX =    0.0                 !
 ! D69   D(38,9,10,39)          -0.0997         -DE/DX =    0.0                 !
 ! D70   D(9,10,11,12)          -1.0963         -DE/DX =    0.0                 !
 ! D71   D(9,10,11,17)         177.8969         -DE/DX =    0.0                 !
 ! D72   D(39,10,11,12)        178.9741         -DE/DX =    0.0                 !
 ! D73   D(39,10,11,17)         -2.0327         -DE/DX =    0.0                 !
 ! D74   D(10,11,12,13)          1.9113         -DE/DX =    0.0                 !
 ! D75   D(10,11,12,14)       -176.5136         -DE/DX =    0.0                 !
 ! D76   D(17,11,12,13)       -177.0853         -DE/DX =    0.0                 !
 ! D77   D(17,11,12,14)          4.4898         -DE/DX =    0.0                 !
 ! D78   D(10,11,17,16)        162.3029         -DE/DX =    0.0                 !
 ! D79   D(10,11,17,46)         38.0601         -DE/DX =    0.0                 !
 ! D80   D(10,11,17,47)        -76.9231         -DE/DX =    0.0                 !
 ! D81   D(12,11,17,16)        -18.7307         -DE/DX =    0.0                 !
 ! D82   D(12,11,17,46)       -142.9735         -DE/DX =    0.0                 !
 ! D83   D(12,11,17,47)        102.0433         -DE/DX =    0.0                 !
 ! D84   D(11,12,13,8)          -1.1012         -DE/DX =    0.0                 !
 ! D85   D(11,12,13,60)       -171.4053         -DE/DX =    0.0                 !
 ! D86   D(14,12,13,8)         177.4143         -DE/DX =    0.0                 !
 ! D87   D(14,12,13,60)          7.1102         -DE/DX =    0.0                 !
 ! D88   D(11,12,14,15)        -19.0995         -DE/DX =    0.0                 !
 ! D89   D(11,12,14,40)       -145.23           -DE/DX =    0.0                 !
 ! D90   D(11,12,14,41)        101.2578         -DE/DX =    0.0                 !
 ! D91   D(13,12,14,15)        162.4184         -DE/DX =    0.0                 !
 ! D92   D(13,12,14,40)         36.288          -DE/DX =    0.0                 !
 ! D93   D(13,12,14,41)        -77.2242         -DE/DX =    0.0                 !
 ! D94   D(8,13,60,6)           16.2305         -DE/DX =    0.0                 !
 ! D95   D(8,13,60,61)         -73.1767         -DE/DX =    0.0                 !
 ! D96   D(8,13,60,62)         143.3358         -DE/DX =    0.0                 !
 ! D97   D(12,13,60,6)        -172.6983         -DE/DX =    0.0                 !
 ! D98   D(12,13,60,61)         97.8946         -DE/DX =    0.0                 !
 ! D99   D(12,13,60,62)        -45.5929         -DE/DX =    0.0                 !
 ! D100  D(12,14,15,16)         47.548          -DE/DX =    0.0                 !
 ! D101  D(12,14,15,42)        -73.2344         -DE/DX =    0.0                 !
 ! D102  D(12,14,15,43)        169.8476         -DE/DX =    0.0                 !
 ! D103  D(40,14,15,16)        171.1138         -DE/DX =    0.0                 !
 ! D104  D(40,14,15,42)         50.3314         -DE/DX =    0.0                 !
 ! D105  D(40,14,15,43)        -66.5866         -DE/DX =    0.0                 !
 ! D106  D(41,14,15,16)        -71.3289         -DE/DX =    0.0                 !
 ! D107  D(41,14,15,42)        167.8886         -DE/DX =    0.0                 !
 ! D108  D(41,14,15,43)         50.9706         -DE/DX =    0.0                 !
 ! D109  D(14,15,16,17)        -62.8848         -DE/DX =    0.0                 !
 ! D110  D(14,15,16,44)        175.5071         -DE/DX =    0.0                 !
 ! D111  D(14,15,16,45)         57.7437         -DE/DX =    0.0                 !
 ! D112  D(42,15,16,17)         58.0773         -DE/DX =    0.0                 !
 ! D113  D(42,15,16,44)        -63.5308         -DE/DX =    0.0                 !
 ! D114  D(42,15,16,45)        178.7058         -DE/DX =    0.0                 !
 ! D115  D(43,15,16,17)        175.5779         -DE/DX =    0.0                 !
 ! D116  D(43,15,16,44)         53.9698         -DE/DX =    0.0                 !
 ! D117  D(43,15,16,45)        -63.7936         -DE/DX =    0.0                 !
 ! D118  D(15,16,17,11)         47.3724         -DE/DX =    0.0                 !
 ! D119  D(15,16,17,46)        170.7865         -DE/DX =    0.0                 !
 ! D120  D(15,16,17,47)        -72.8811         -DE/DX =    0.0                 !
 ! D121  D(44,16,17,11)        169.9834         -DE/DX =    0.0                 !
 ! D122  D(44,16,17,46)        -66.6025         -DE/DX =    0.0                 !
 ! D123  D(44,16,17,47)         49.7299         -DE/DX =    0.0                 !
 ! D124  D(45,16,17,11)        -73.0492         -DE/DX =    0.0                 !
 ! D125  D(45,16,17,46)         50.3649         -DE/DX =    0.0                 !
 ! D126  D(45,16,17,47)        166.6973         -DE/DX =    0.0                 !
 ! D127  D(7,18,19,5)          -14.9939         -DE/DX =    0.0                 !
 ! D128  D(7,18,19,20)         102.7216         -DE/DX =    0.0                 !
 ! D129  D(7,18,19,26)        -136.5357         -DE/DX =    0.0                 !
 ! D130  D(5,19,20,21)        -110.0429         -DE/DX =    0.0                 !
 ! D131  D(5,19,20,25)          65.5292         -DE/DX =    0.0                 !
 ! D132  D(18,19,20,21)        139.7815         -DE/DX =    0.0                 !
 ! D133  D(18,19,20,25)        -44.6465         -DE/DX =    0.0                 !
 ! D134  D(26,19,20,21)         24.6783         -DE/DX =    0.0                 !
 ! D135  D(26,19,20,25)       -159.7496         -DE/DX =    0.0                 !
 ! D136  D(5,19,26,27)          15.017          -DE/DX =    0.0                 !
 ! D137  D(5,19,26,31)        -165.3983         -DE/DX =    0.0                 !
 ! D138  D(18,19,26,27)        125.96           -DE/DX =    0.0                 !
 ! D139  D(18,19,26,31)        -54.4552         -DE/DX =    0.0                 !
 ! D140  D(20,19,26,27)       -117.7298         -DE/DX =    0.0                 !
 ! D141  D(20,19,26,31)         61.855          -DE/DX =    0.0                 !
 ! D142  D(19,20,21,22)        176.6972         -DE/DX =    0.0                 !
 ! D143  D(19,20,21,48)         -2.9733         -DE/DX =    0.0                 !
 ! D144  D(25,20,21,22)          1.0881         -DE/DX =    0.0                 !
 ! D145  D(25,20,21,48)       -178.5824         -DE/DX =    0.0                 !
 ! D146  D(19,20,25,24)       -176.9221         -DE/DX =    0.0                 !
 ! D147  D(19,20,25,52)         -2.0758         -DE/DX =    0.0                 !
 ! D148  D(21,20,25,24)         -1.2898         -DE/DX =    0.0                 !
 ! D149  D(21,20,25,52)        173.5566         -DE/DX =    0.0                 !
 ! D150  D(20,21,22,23)          0.0251         -DE/DX =    0.0                 !
 ! D151  D(20,21,22,49)        179.988          -DE/DX =    0.0                 !
 ! D152  D(48,21,22,23)        179.6966         -DE/DX =    0.0                 !
 ! D153  D(48,21,22,49)         -0.3406         -DE/DX =    0.0                 !
 ! D154  D(21,22,23,24)         -0.9385         -DE/DX =    0.0                 !
 ! D155  D(21,22,23,50)        179.8977         -DE/DX =    0.0                 !
 ! D156  D(49,22,23,24)        179.0989         -DE/DX =    0.0                 !
 ! D157  D(49,22,23,50)         -0.0648         -DE/DX =    0.0                 !
 ! D158  D(22,23,24,25)          0.7337         -DE/DX =    0.0                 !
 ! D159  D(22,23,24,51)       -178.0892         -DE/DX =    0.0                 !
 ! D160  D(50,23,24,25)        179.8972         -DE/DX =    0.0                 !
 ! D161  D(50,23,24,51)          1.0742         -DE/DX =    0.0                 !
 ! D162  D(23,24,25,20)          0.3863         -DE/DX =    0.0                 !
 ! D163  D(23,24,25,52)       -174.6302         -DE/DX =    0.0                 !
 ! D164  D(51,24,25,20)        179.224          -DE/DX =    0.0                 !
 ! D165  D(51,24,25,52)          4.2076         -DE/DX =    0.0                 !
 ! D166  D(19,26,27,28)        179.3633         -DE/DX =    0.0                 !
 ! D167  D(19,26,27,53)         -0.6369         -DE/DX =    0.0                 !
 ! D168  D(31,26,27,28)         -0.2168         -DE/DX =    0.0                 !
 ! D169  D(31,26,27,53)        179.7831         -DE/DX =    0.0                 !
 ! D170  D(19,26,31,30)       -179.9199         -DE/DX =    0.0                 !
 ! D171  D(19,26,31,57)         -0.0853         -DE/DX =    0.0                 !
 ! D172  D(27,26,31,30)         -0.3118         -DE/DX =    0.0                 !
 ! D173  D(27,26,31,57)        179.5228         -DE/DX =    0.0                 !
 ! D174  D(26,27,28,29)          0.4833         -DE/DX =    0.0                 !
 ! D175  D(26,27,28,54)       -179.6828         -DE/DX =    0.0                 !
 ! D176  D(53,27,28,29)       -179.5165         -DE/DX =    0.0                 !
 ! D177  D(53,27,28,54)          0.3174         -DE/DX =    0.0                 !
 ! D178  D(27,28,29,30)         -0.2183         -DE/DX =    0.0                 !
 ! D179  D(27,28,29,55)        179.823          -DE/DX =    0.0                 !
 ! D180  D(54,28,29,30)        179.9492         -DE/DX =    0.0                 !
 ! D181  D(54,28,29,55)         -0.0095         -DE/DX =    0.0                 !
 ! D182  D(28,29,30,31)         -0.3065         -DE/DX =    0.0                 !
 ! D183  D(28,29,30,56)        179.9469         -DE/DX =    0.0                 !
 ! D184  D(55,29,30,31)        179.6522         -DE/DX =    0.0                 !
 ! D185  D(55,29,30,56)         -0.0944         -DE/DX =    0.0                 !
 ! D186  D(29,30,31,26)          0.5763         -DE/DX =    0.0                 !
 ! D187  D(29,30,31,57)       -179.2567         -DE/DX =    0.0                 !
 ! D188  D(56,30,31,26)       -179.676          -DE/DX =    0.0                 !
 ! D189  D(56,30,31,57)          0.491          -DE/DX =    0.0                 !
 ! D190  D(4,32,33,1)           -0.5683         -DE/DX =    0.0                 !
 ! D191  D(4,32,33,59)         179.9143         -DE/DX =    0.0                 !
 ! D192  D(58,32,33,1)         179.3158         -DE/DX =    0.0                 !
 ! D193  D(58,32,33,59)         -0.2017         -DE/DX =    0.0                 !
 --------------------------------------------------------------------------------
 GradGradGradGradGradGradGradGradGradGradGradGradGradGradGradGradGradGrad

 Stoichiometry    C30H26F2N2NiO(3)
 Framework group  C1[X(C30H26F2N2NiO)]
 Deg. of freedom   180
 Full point group                 C1      NOp   1
 Largest Abelian subgroup         C1      NOp   1
 Largest concise Abelian subgroup C1      NOp   1
                         Standard orientation:                         
 ---------------------------------------------------------------------
 Center     Atomic      Atomic             Coordinates (Angstroms)
 Number     Number       Type             X           Y           Z
 ---------------------------------------------------------------------
      1          6           0       -3.246814   -4.118569   -0.584544
      2          6           0       -2.067817   -3.839850    0.105989
      3          6           0       -1.434718   -2.604153   -0.030936
      4          6           0       -1.979504   -1.632632   -0.879961
      5          6           0       -1.347240   -0.266536   -1.043413
      6          7           0        0.112059   -0.232690   -0.841915
      7          6           0        0.399181    0.849194   -0.211013
      8          6           0        1.787024    1.228725    0.081431
      9          6           0        2.169199    2.462759    0.588840
     10          6           0        3.533934    2.691382    0.757074
     11          6           0        4.467398    1.705752    0.433450
     12          6           0        3.988089    0.466974   -0.045097
     13          7           0        2.677514    0.265028   -0.217622
     14          6           0        4.899221   -0.694349   -0.352256
     15          6           0        6.354923   -0.261933   -0.543230
     16          6           0        6.787304    0.674769    0.589608
     17          6           0        5.953295    1.961595    0.568245
     18          8           0       -0.596595    1.626765    0.204763
     19          6           0       -1.864711    0.863564   -0.057138
     20          6           0       -2.324840    0.298696    1.278036
     21          6           0       -3.680569    0.294974    1.619479
     22          6           0       -4.108749   -0.285056    2.813713
     23          6           0       -3.184562   -0.867092    3.679217
     24          6           0       -1.832388   -0.882629    3.333351
     25          6           0       -1.399706   -0.308961    2.140472
     26          6           0       -2.820559    1.885961   -0.641898
     27          6           0       -3.488736    1.725696   -1.856560
     28          6           0       -4.365487    2.709109   -2.322891
     29          6           0       -4.576382    3.869565   -1.583730
     30          6           0       -3.907974    4.042266   -0.368632
     31          6           0       -3.044411    3.057549    0.098675
     32          6           0       -3.154926   -1.922152   -1.581723
     33          6           0       -3.790221   -3.153747   -1.432831
     34          1           0       -3.735944   -5.081900   -0.469166
     35          1           0       -1.630484   -4.586429    0.763052
     36          1           0       -0.517066   -2.408013    0.518679
     37          1           0       -1.513154    0.064444   -2.073670
     38          1           0        1.422699    3.209516    0.832215
     39          1           0        3.879169    3.647046    1.143277
     40          1           0        4.493426   -1.238101   -1.212316
     41          1           0        4.830288   -1.391086    0.497293
     42          1           0        6.466173    0.253503   -1.507309
     43          1           0        6.997547   -1.147495   -0.582542
     44          1           0        7.849957    0.928241    0.508206
     45          1           0        6.652842    0.164402    1.552942
     46          1           0        6.139596    2.564109    1.465457
     47          1           0        6.271695    2.580332   -0.283997
     48          1           0       -4.407313    0.741031    0.950033
     49          1           0       -5.165893   -0.279089    3.063736
     50          1           0       -3.516305   -1.317763    4.610469
     51          1           0       -1.105283   -1.360086    3.983529
     52          1           0       -0.355491   -0.419681    1.866643
     53          1           0       -3.340022    0.838224   -2.458161
     54          1           0       -4.878957    2.561439   -3.268455
     55          1           0       -5.255687    4.634752   -1.948069
     56          1           0       -4.063701    4.943925    0.216719
     57          1           0       -2.535068    3.186948    1.047963
     58          1           0       -3.584256   -1.185652   -2.254371
     59          1           0       -4.702902   -3.359702   -1.985117
     60         28           0        1.730735   -1.513629   -0.663827
     61          9           0        1.259308   -1.866975    1.107877
     62          9           0        2.715557   -2.256024   -1.988054
 ---------------------------------------------------------------------
 Rotational constants (GHZ):           0.1617433           0.0761757           0.0648308
 Unable to Open any file for archive entry.
 1\1\GINC-NOTCH221\FOpt\UB3LYP\Gen\C30H26F2N2Ni1O1(3)\U1365460\06-Mar-2
 026\0\\# B3LYP gen 6D pseudo=read int=(grid=fine) empiricaldispersion=
 GD3BJ opt freq=noraman\\Lig2120.xyz\\0,3\C,-3.7098554021,-3.309945963,
 -1.7109199012\C,-2.6046474018,-3.3895180544,-0.8643170281\C,-1.7591014
 104,-2.2937988587,-0.6883575458\C,-2.0123120833,-1.1008542137,-1.37701
 89951\C,-1.1419549839,0.1256043822,-1.2010317887\N,0.2613994787,-0.157
 2424255,-0.8518967314\C,0.6396916998,0.7200064963,0.0073343652\C,2.019
 4881972,0.7683870358,0.5068309287\C,2.5329543833,1.7962045018,1.285487
 4017\C,3.8814032728,1.7254027293,1.6315296069\C,4.6697018908,0.6525277
 473,1.2131048625\C,4.0567081683,-0.3663731165,0.4519238973\N,2.7662274
 858,-0.2794413251,0.1124293954\C,4.7912724548,-1.6074803113,0.01232337
 32\C,6.3113960461,-1.435231711,0.057882249\C,6.73933395,-0.8150832238,
 1.3920372318\C,6.1455549238,0.5907107722,1.5440905505\O,-0.2570459321,
 1.5876341605,0.4679218763\C,-1.5889467817,1.1405370138,-0.066239901\C,
 -2.313605476,0.44644372,1.0768208875\C,-3.6838958872,0.6421174624,1.27
 33299083\C,-4.3609367365,-0.0477117452,2.2791717253\C,-3.6736526567,-0
 .9403570783,3.0994208643\C,-2.3094946544,-1.1531545912,2.8944080957\C,
 -1.6293158724,-0.4705694643,1.8890704137\C,-2.2704966139,2.4144708379,
 -0.5282665046\C,-2.7863201315,2.603516008,-1.8111298883\C,-3.413191758
 8,3.8036310802,-2.1575587319\C,-3.52243309,4.8329692832,-1.2269553182\
 C,-3.0043392499,4.6558063288,0.0588332672\C,-2.3906953211,3.4567871582
 ,0.4046351196\C,-3.114344136,-1.0303991835,-2.2363629969\C,-3.96295276
 27,-2.1238620617,-2.4000590839\H,-4.3658734264,-4.1665329377,-1.839237
 1108\H,-2.3924433448,-4.3106546608,-0.3287340982\H,-0.904036323,-2.377
 9637275,-0.0217158267\H,-1.1091644967,0.6598081365,-2.1560478006\H,1.8
 976125624,2.6169118816,1.5968062235\H,4.3280562854,2.5131200847,2.2328
 914062\H,4.418994673,-1.9018553753,-0.9749922018\H,4.4916821002,-2.417
 6319058,0.6948390443\H,6.6370726791,-0.7878601404,-0.7681591997\H,6.79
 43526344,-2.406239477,-0.0925425988\H,7.8306820945,-0.7596701137,1.469
 457472\H,6.391952563,-1.4529790287,2.2160406567\H,6.308462508,0.977285
 9989,2.5573721853\H,6.6758829606,1.2782279914,0.8683669538\H,-4.227819
 3128,1.3308497746,0.6368723144\H,-5.4257497813,0.1163081865,2.41835523
 55\H,-4.199230058,-1.4771176411,3.8843061346\H,-1.7679325094,-1.868844
 0916,3.505864058\H,-0.5916347905,-0.7289986411,1.704522442\H,-2.710156
 8401,1.8251758378,-2.5594828178\H,-3.8120937663,3.9274007825,-3.160108
 7436\H,-4.0071769203,5.7664812712,-1.4976725403\H,-3.0827614512,5.4520
 700505,0.7934685771\H,-1.9994147055,3.3155117828,1.4067633391\H,-3.318
 3381913,-0.1177581784,-2.7883453794\H,-4.8144649266,-2.0496501962,-3.0
 707628359\Ni,1.6011635189,-1.7355965636,-0.7715095116\F,0.8424328519,-
 2.3008527306,0.8381001578\F,2.615549804,-2.4058797598,-2.1117871398\\V
 ersion=ES64L-G16RevC.01\State=3-A\HF=-1712.9046158\S2=2.005562\S2-1=0.
 \S2A=2.000018\RMSD=1.309e-09\RMSF=3.693e-06\Dipole=0.2173158,2.7561524
 ,1.0961857\Quadrupole=18.4125741,-7.6406512,-10.7719229,5.2584111,14.3
 119085,-4.480515\PG=C01 [X(C30H26F2N2Ni1O1)]\\@
 The archive entry for this job was punched.


 IF YOU GIVE A BOY AND A PIG EVERYTHING THEY WANT,
 YOU'LL GET A BAD BOY AND A GOOD PIG.
 Job cpu time:       0 days  2 hours 29 minutes 47.3 seconds.
 Elapsed time:       0 days  0 hours  9 minutes 26.6 seconds.
 File lengths (MBytes):  RWF=    412 Int=      0 D2E=      0 Chk=     41 Scr=      2
 Normal termination of Gaussian 16 at Fri Mar  6 16:34:26 2026.
 Link1:  Proceeding to internal job step number  2.
 ------------------------------------------------------------------
 #N Geom=AllCheck Guess=TCheck SCRF=Check GenChk UB3LYP/ChkBas Freq
 ------------------------------------------------------------------
 1/10=4,29=7,30=1,38=1,40=1/1,3;
 2/12=2,40=1/2;
 3/5=7,6=2,8=2,11=2,14=-4,16=1,17=8,25=1,30=1,67=1,70=2,71=2,74=-5,75=-4,82=7,116=2,124=41,140=1/1,2,3;
 4/5=101/1;
 5/5=2,38=6,98=1/2;
 8/6=4,10=90,11=11/1;
 11/6=1,8=1,9=11,15=111,16=1/1,2,10;
 10/6=1/2;
 6/7=2,8=2,9=2,10=2,28=1/1;
 7/8=1,10=1,25=1/1,2,3,16;
 1/10=4,30=1/3;
 99//99;
 Structure from the checkpoint file:  "Lig2120_xyz.chk"
 -----------
 Lig2120.xyz
 -----------
 Charge =  0 Multiplicity = 3
 Redundant internal coordinates found in file.  (old form).
 C,0,-3.7098554021,-3.309945963,-1.7109199012
 C,0,-2.6046474018,-3.3895180544,-0.8643170281
 C,0,-1.7591014104,-2.2937988587,-0.6883575458
 C,0,-2.0123120833,-1.1008542137,-1.3770189951
 C,0,-1.1419549839,0.1256043822,-1.2010317887
 N,0,0.2613994787,-0.1572424255,-0.8518967314
 C,0,0.6396916998,0.7200064963,0.0073343652
 C,0,2.0194881972,0.7683870358,0.5068309287
 C,0,2.5329543833,1.7962045018,1.2854874017
 C,0,3.8814032728,1.7254027293,1.6315296069
 C,0,4.6697018908,0.6525277473,1.2131048625
 C,0,4.0567081683,-0.3663731165,0.4519238973
 N,0,2.7662274858,-0.2794413251,0.1124293954
 C,0,4.7912724548,-1.6074803113,0.0123233732
 C,0,6.3113960461,-1.435231711,0.057882249
 C,0,6.73933395,-0.8150832238,1.3920372318
 C,0,6.1455549238,0.5907107722,1.5440905505
 O,0,-0.2570459321,1.5876341605,0.4679218763
 C,0,-1.5889467817,1.1405370138,-0.066239901
 C,0,-2.313605476,0.44644372,1.0768208875
 C,0,-3.6838958872,0.6421174624,1.2733299083
 C,0,-4.3609367365,-0.0477117452,2.2791717253
 C,0,-3.6736526567,-0.9403570783,3.0994208643
 C,0,-2.3094946544,-1.1531545912,2.8944080957
 C,0,-1.6293158724,-0.4705694643,1.8890704137
 C,0,-2.2704966139,2.4144708379,-0.5282665046
 C,0,-2.7863201315,2.603516008,-1.8111298883
 C,0,-3.4131917588,3.8036310802,-2.1575587319
 C,0,-3.52243309,4.8329692832,-1.2269553182
 C,0,-3.0043392499,4.6558063288,0.0588332672
 C,0,-2.3906953211,3.4567871582,0.4046351196
 C,0,-3.114344136,-1.0303991835,-2.2363629969
 C,0,-3.9629527627,-2.1238620617,-2.4000590839
 H,0,-4.3658734264,-4.1665329377,-1.8392371108
 H,0,-2.3924433448,-4.3106546608,-0.3287340982
 H,0,-0.904036323,-2.3779637275,-0.0217158267
 H,0,-1.1091644967,0.6598081365,-2.1560478006
 H,0,1.8976125624,2.6169118816,1.5968062235
 H,0,4.3280562854,2.5131200847,2.2328914062
 H,0,4.418994673,-1.9018553753,-0.9749922018
 H,0,4.4916821002,-2.4176319058,0.6948390443
 H,0,6.6370726791,-0.7878601404,-0.7681591997
 H,0,6.7943526344,-2.406239477,-0.0925425988
 H,0,7.8306820945,-0.7596701137,1.469457472
 H,0,6.391952563,-1.4529790287,2.2160406567
 H,0,6.308462508,0.9772859989,2.5573721853
 H,0,6.6758829606,1.2782279914,0.8683669538
 H,0,-4.2278193128,1.3308497746,0.6368723144
 H,0,-5.4257497813,0.1163081865,2.4183552355
 H,0,-4.199230058,-1.4771176411,3.8843061346
 H,0,-1.7679325094,-1.8688440916,3.505864058
 H,0,-0.5916347905,-0.7289986411,1.704522442
 H,0,-2.7101568401,1.8251758378,-2.5594828178
 H,0,-3.8120937663,3.9274007825,-3.1601087436
 H,0,-4.0071769203,5.7664812712,-1.4976725403
 H,0,-3.0827614512,5.4520700505,0.7934685771
 H,0,-1.9994147055,3.3155117828,1.4067633391
 H,0,-3.3183381913,-0.1177581784,-2.7883453794
 H,0,-4.8144649266,-2.0496501962,-3.0707628359
 Ni,0,1.6011635189,-1.7355965636,-0.7715095116
 F,0,0.8424328519,-2.3008527306,0.8381001578
 F,0,2.615549804,-2.4058797598,-2.1117871398
 Recover connectivity data from disk.

 GradGradGradGradGradGradGradGradGradGradGradGradGradGradGradGradGradGrad
 Berny optimization.
 Initialization pass.
                           ----------------------------
                           !    Initial Parameters    !
                           ! (Angstroms and Degrees)  !
 --------------------------                            --------------------------
 ! Name  Definition              Value          Derivative Info.                !
 --------------------------------------------------------------------------------
 ! R1    R(1,2)                  1.3945         calculate D2E/DX2 analytically  !
 ! R2    R(1,33)                 1.3949         calculate D2E/DX2 analytically  !
 ! R3    R(1,34)                 1.0865         calculate D2E/DX2 analytically  !
 ! R4    R(2,3)                  1.3952         calculate D2E/DX2 analytically  !
 ! R5    R(2,35)                 1.0864         calculate D2E/DX2 analytically  !
 ! R6    R(3,4)                  1.4005         calculate D2E/DX2 analytically  !
 ! R7    R(3,36)                 1.0875         calculate D2E/DX2 analytically  !
 ! R8    R(4,5)                  1.5142         calculate D2E/DX2 analytically  !
 ! R9    R(4,32)                 1.3993         calculate D2E/DX2 analytically  !
 ! R10   R(5,6)                  1.4735         calculate D2E/DX2 analytically  !
 ! R11   R(5,19)                 1.5867         calculate D2E/DX2 analytically  !
 ! R12   R(5,37)                 1.0948         calculate D2E/DX2 analytically  !
 ! R13   R(6,7)                  1.2849         calculate D2E/DX2 analytically  !
 ! R14   R(6,60)                 2.0719         calculate D2E/DX2 analytically  !
 ! R15   R(7,8)                  1.4682         calculate D2E/DX2 analytically  !
 ! R16   R(7,18)                 1.3301         calculate D2E/DX2 analytically  !
 ! R17   R(8,9)                  1.3879         calculate D2E/DX2 analytically  !
 ! R18   R(8,13)                 1.3458         calculate D2E/DX2 analytically  !
 ! R19   R(9,10)                 1.3939         calculate D2E/DX2 analytically  !
 ! R20   R(9,38)                 1.0836         calculate D2E/DX2 analytically  !
 ! R21   R(10,11)                1.3955         calculate D2E/DX2 analytically  !
 ! R22   R(10,39)                1.087          calculate D2E/DX2 analytically  !
 ! R23   R(11,12)                1.4118         calculate D2E/DX2 analytically  !
 ! R24   R(11,17)                1.5138         calculate D2E/DX2 analytically  !
 ! R25   R(12,13)                1.3372         calculate D2E/DX2 analytically  !
 ! R26   R(12,14)                1.5077         calculate D2E/DX2 analytically  !
 ! R27   R(13,60)                2.0638         calculate D2E/DX2 analytically  !
 ! R28   R(14,15)                1.5305         calculate D2E/DX2 analytically  !
 ! R29   R(14,40)                1.0955         calculate D2E/DX2 analytically  !
 ! R30   R(14,41)                1.1009         calculate D2E/DX2 analytically  !
 ! R31   R(15,16)                1.5322         calculate D2E/DX2 analytically  !
 ! R32   R(15,42)                1.0989         calculate D2E/DX2 analytically  !
 ! R33   R(15,43)                1.0949         calculate D2E/DX2 analytically  !
 ! R34   R(16,17)                1.5336         calculate D2E/DX2 analytically  !
 ! R35   R(16,44)                1.0955         calculate D2E/DX2 analytically  !
 ! R36   R(16,45)                1.0984         calculate D2E/DX2 analytically  !
 ! R37   R(17,46)                1.0967         calculate D2E/DX2 analytically  !
 ! R38   R(17,47)                1.1002         calculate D2E/DX2 analytically  !
 ! R39   R(18,19)                1.5031         calculate D2E/DX2 analytically  !
 ! R40   R(19,20)                1.521          calculate D2E/DX2 analytically  !
 ! R41   R(19,26)                1.5169         calculate D2E/DX2 analytically  !
 ! R42   R(20,21)                1.3981         calculate D2E/DX2 analytically  !
 ! R43   R(20,25)                1.4032         calculate D2E/DX2 analytically  !
 ! R44   R(21,22)                1.395          calculate D2E/DX2 analytically  !
 ! R45   R(21,48)                1.0841         calculate D2E/DX2 analytically  !
 ! R46   R(22,23)                1.3936         calculate D2E/DX2 analytically  !
 ! R47   R(22,49)                1.0863         calculate D2E/DX2 analytically  !
 ! R48   R(23,24)                1.3958         calculate D2E/DX2 analytically  !
 ! R49   R(23,50)                1.0865         calculate D2E/DX2 analytically  !
 ! R50   R(24,25)                1.3926         calculate D2E/DX2 analytically  !
 ! R51   R(24,51)                1.086          calculate D2E/DX2 analytically  !
 ! R52   R(25,52)                1.0852         calculate D2E/DX2 analytically  !
 ! R53   R(26,27)                1.3955         calculate D2E/DX2 analytically  !
 ! R54   R(26,31)                1.404          calculate D2E/DX2 analytically  !
 ! R55   R(27,28)                1.3976         calculate D2E/DX2 analytically  !
 ! R56   R(27,53)                1.0824         calculate D2E/DX2 analytically  !
 ! R57   R(28,29)                1.3919         calculate D2E/DX2 analytically  !
 ! R58   R(28,54)                1.0861         calculate D2E/DX2 analytically  !
 ! R59   R(29,30)                1.3975         calculate D2E/DX2 analytically  !
 ! R60   R(29,55)                1.0861         calculate D2E/DX2 analytically  !
 ! R61   R(30,31)                1.3906         calculate D2E/DX2 analytically  !
 ! R62   R(30,56)                1.0862         calculate D2E/DX2 analytically  !
 ! R63   R(31,57)                1.085          calculate D2E/DX2 analytically  !
 ! R64   R(32,33)                1.3938         calculate D2E/DX2 analytically  !
 ! R65   R(32,58)                1.0859         calculate D2E/DX2 analytically  !
 ! R66   R(33,59)                1.0865         calculate D2E/DX2 analytically  !
 ! R67   R(60,61)                1.8671         calculate D2E/DX2 analytically  !
 ! R68   R(60,62)                1.8096         calculate D2E/DX2 analytically  !
 ! A1    A(2,1,33)             119.4895         calculate D2E/DX2 analytically  !
 ! A2    A(2,1,34)             120.3471         calculate D2E/DX2 analytically  !
 ! A3    A(33,1,34)            120.162          calculate D2E/DX2 analytically  !
 ! A4    A(1,2,3)              120.803          calculate D2E/DX2 analytically  !
 ! A5    A(1,2,35)             120.1635         calculate D2E/DX2 analytically  !
 ! A6    A(3,2,35)             119.0333         calculate D2E/DX2 analytically  !
 ! A7    A(2,3,4)              119.8262         calculate D2E/DX2 analytically  !
 ! A8    A(2,3,36)             119.5415         calculate D2E/DX2 analytically  !
 ! A9    A(4,3,36)             120.6308         calculate D2E/DX2 analytically  !
 ! A10   A(3,4,5)              121.9284         calculate D2E/DX2 analytically  !
 ! A11   A(3,4,32)             119.161          calculate D2E/DX2 analytically  !
 ! A12   A(5,4,32)             118.9017         calculate D2E/DX2 analytically  !
 ! A13   A(4,5,6)              114.8026         calculate D2E/DX2 analytically  !
 ! A14   A(4,5,19)             116.0594         calculate D2E/DX2 analytically  !
 ! A15   A(4,5,37)             108.1238         calculate D2E/DX2 analytically  !
 ! A16   A(6,5,19)             102.8042         calculate D2E/DX2 analytically  !
 ! A17   A(6,5,37)             105.7733         calculate D2E/DX2 analytically  !
 ! A18   A(19,5,37)            108.6754         calculate D2E/DX2 analytically  !
 ! A19   A(5,6,7)              107.9258         calculate D2E/DX2 analytically  !
 ! A20   A(5,6,60)             140.4681         calculate D2E/DX2 analytically  !
 ! A21   A(7,6,60)             107.6851         calculate D2E/DX2 analytically  !
 ! A22   A(6,7,8)              121.7816         calculate D2E/DX2 analytically  !
 ! A23   A(6,7,18)             118.5836         calculate D2E/DX2 analytically  !
 ! A24   A(8,7,18)             119.6235         calculate D2E/DX2 analytically  !
 ! A25   A(7,8,9)              124.2588         calculate D2E/DX2 analytically  !
 ! A26   A(7,8,13)             113.3345         calculate D2E/DX2 analytically  !
 ! A27   A(9,8,13)             122.3931         calculate D2E/DX2 analytically  !
 ! A28   A(8,9,10)             117.357          calculate D2E/DX2 analytically  !
 ! A29   A(8,9,38)             120.3417         calculate D2E/DX2 analytically  !
 ! A30   A(10,9,38)            122.2998         calculate D2E/DX2 analytically  !
 ! A31   A(9,10,11)            120.7337         calculate D2E/DX2 analytically  !
 ! A32   A(9,10,39)            119.8685         calculate D2E/DX2 analytically  !
 ! A33   A(11,10,39)           119.3978         calculate D2E/DX2 analytically  !
 ! A34   A(10,11,12)           118.1129         calculate D2E/DX2 analytically  !
 ! A35   A(10,11,17)           121.1013         calculate D2E/DX2 analytically  !
 ! A36   A(12,11,17)           120.778          calculate D2E/DX2 analytically  !
 ! A37   A(11,12,13)           120.5948         calculate D2E/DX2 analytically  !
 ! A38   A(11,12,14)           122.6652         calculate D2E/DX2 analytically  !
 ! A39   A(13,12,14)           116.7224         calculate D2E/DX2 analytically  !
 ! A40   A(8,13,12)            120.7768         calculate D2E/DX2 analytically  !
 ! A41   A(8,13,60)            111.2015         calculate D2E/DX2 analytically  !
 ! A42   A(12,13,60)           127.4215         calculate D2E/DX2 analytically  !
 ! A43   A(12,14,15)           112.4932         calculate D2E/DX2 analytically  !
 ! A44   A(12,14,40)           108.5674         calculate D2E/DX2 analytically  !
 ! A45   A(12,14,41)           107.0038         calculate D2E/DX2 analytically  !
 ! A46   A(15,14,40)           113.2408         calculate D2E/DX2 analytically  !
 ! A47   A(15,14,41)           109.5515         calculate D2E/DX2 analytically  !
 ! A48   A(40,14,41)           105.5768         calculate D2E/DX2 analytically  !
 ! A49   A(14,15,16)           110.4178         calculate D2E/DX2 analytically  !
 ! A50   A(14,15,42)           109.7725         calculate D2E/DX2 analytically  !
 ! A51   A(14,15,43)           109.5246         calculate D2E/DX2 analytically  !
 ! A52   A(16,15,42)           109.4712         calculate D2E/DX2 analytically  !
 ! A53   A(16,15,43)           110.8171         calculate D2E/DX2 analytically  !
 ! A54   A(42,15,43)           106.7663         calculate D2E/DX2 analytically  !
 ! A55   A(15,16,17)           110.4386         calculate D2E/DX2 analytically  !
 ! A56   A(15,16,44)           111.1153         calculate D2E/DX2 analytically  !
 ! A57   A(15,16,45)           109.2578         calculate D2E/DX2 analytically  !
 ! A58   A(17,16,44)           109.4108         calculate D2E/DX2 analytically  !
 ! A59   A(17,16,45)           109.6035         calculate D2E/DX2 analytically  !
 ! A60   A(44,16,45)           106.9426         calculate D2E/DX2 analytically  !
 ! A61   A(11,17,16)           113.1558         calculate D2E/DX2 analytically  !
 ! A62   A(11,17,46)           109.4176         calculate D2E/DX2 analytically  !
 ! A63   A(11,17,47)           108.0672         calculate D2E/DX2 analytically  !
 ! A64   A(16,17,46)           110.929          calculate D2E/DX2 analytically  !
 ! A65   A(16,17,47)           108.9828         calculate D2E/DX2 analytically  !
 ! A66   A(46,17,47)           105.9969         calculate D2E/DX2 analytically  !
 ! A67   A(7,18,19)            106.2799         calculate D2E/DX2 analytically  !
 ! A68   A(5,19,18)            101.2332         calculate D2E/DX2 analytically  !
 ! A69   A(5,19,20)            112.3209         calculate D2E/DX2 analytically  !
 ! A70   A(5,19,26)            116.4835         calculate D2E/DX2 analytically  !
 ! A71   A(18,19,20)           106.9085         calculate D2E/DX2 analytically  !
 ! A72   A(18,19,26)           104.8671         calculate D2E/DX2 analytically  !
 ! A73   A(20,19,26)           113.4588         calculate D2E/DX2 analytically  !
 ! A74   A(19,20,21)           120.579          calculate D2E/DX2 analytically  !
 ! A75   A(19,20,25)           120.0601         calculate D2E/DX2 analytically  !
 ! A76   A(21,20,25)           119.2147         calculate D2E/DX2 analytically  !
 ! A77   A(20,21,22)           120.5197         calculate D2E/DX2 analytically  !
 ! A78   A(20,21,48)           119.878          calculate D2E/DX2 analytically  !
 ! A79   A(22,21,48)           119.6015         calculate D2E/DX2 analytically  !
 ! A80   A(21,22,23)           120.1194         calculate D2E/DX2 analytically  !
 ! A81   A(21,22,49)           119.5675         calculate D2E/DX2 analytically  !
 ! A82   A(23,22,49)           120.313          calculate D2E/DX2 analytically  !
 ! A83   A(22,23,24)           119.5521         calculate D2E/DX2 analytically  !
 ! A84   A(22,23,50)           120.2056         calculate D2E/DX2 analytically  !
 ! A85   A(24,23,50)           120.237          calculate D2E/DX2 analytically  !
 ! A86   A(23,24,25)           120.5752         calculate D2E/DX2 analytically  !
 ! A87   A(23,24,51)           120.3413         calculate D2E/DX2 analytically  !
 ! A88   A(25,24,51)           119.0732         calculate D2E/DX2 analytically  !
 ! A89   A(20,25,24)           120.0023         calculate D2E/DX2 analytically  !
 ! A90   A(20,25,52)           121.5682         calculate D2E/DX2 analytically  !
 ! A91   A(24,25,52)           118.2354         calculate D2E/DX2 analytically  !
 ! A92   A(19,26,27)           124.0449         calculate D2E/DX2 analytically  !
 ! A93   A(19,26,31)           117.3597         calculate D2E/DX2 analytically  !
 ! A94   A(27,26,31)           118.5942         calculate D2E/DX2 analytically  !
 ! A95   A(26,27,28)           120.662          calculate D2E/DX2 analytically  !
 ! A96   A(26,27,53)           120.8056         calculate D2E/DX2 analytically  !
 ! A97   A(28,27,53)           118.5324         calculate D2E/DX2 analytically  !
 ! A98   A(27,28,29)           120.2976         calculate D2E/DX2 analytically  !
 ! A99   A(27,28,54)           119.4337         calculate D2E/DX2 analytically  !
 ! A100  A(29,28,54)           120.2685         calculate D2E/DX2 analytically  !
 ! A101  A(28,29,30)           119.4901         calculate D2E/DX2 analytically  !
 ! A102  A(28,29,55)           120.2629         calculate D2E/DX2 analytically  !
 ! A103  A(30,29,55)           120.2469         calculate D2E/DX2 analytically  !
 ! A104  A(29,30,31)           120.1116         calculate D2E/DX2 analytically  !
 ! A105  A(29,30,56)           120.1693         calculate D2E/DX2 analytically  !
 ! A106  A(31,30,56)           119.7187         calculate D2E/DX2 analytically  !
 ! A107  A(26,31,30)           120.8413         calculate D2E/DX2 analytically  !
 ! A108  A(26,31,57)           119.0882         calculate D2E/DX2 analytically  !
 ! A109  A(30,31,57)           120.0703         calculate D2E/DX2 analytically  !
 ! A110  A(4,32,33)            120.8075         calculate D2E/DX2 analytically  !
 ! A111  A(4,32,58)            120.1619         calculate D2E/DX2 analytically  !
 ! A112  A(33,32,58)           119.0305         calculate D2E/DX2 analytically  !
 ! A113  A(1,33,32)            119.9068         calculate D2E/DX2 analytically  !
 ! A114  A(1,33,59)            120.349          calculate D2E/DX2 analytically  !
 ! A115  A(32,33,59)           119.7425         calculate D2E/DX2 analytically  !
 ! A116  A(6,60,13)             81.0343         calculate D2E/DX2 analytically  !
 ! A117  A(6,60,61)             90.0747         calculate D2E/DX2 analytically  !
 ! A118  A(6,60,62)            128.0192         calculate D2E/DX2 analytically  !
 ! A119  A(13,60,61)            94.2309         calculate D2E/DX2 analytically  !
 ! A120  A(13,60,62)           105.1964         calculate D2E/DX2 analytically  !
 ! A121  A(61,60,62)           138.9529         calculate D2E/DX2 analytically  !
 ! D1    D(33,1,2,3)             0.6833         calculate D2E/DX2 analytically  !
 ! D2    D(33,1,2,35)         -179.4828         calculate D2E/DX2 analytically  !
 ! D3    D(34,1,2,3)          -179.74           calculate D2E/DX2 analytically  !
 ! D4    D(34,1,2,35)            0.0938         calculate D2E/DX2 analytically  !
 ! D5    D(2,1,33,32)           -0.1184         calculate D2E/DX2 analytically  !
 ! D6    D(2,1,33,59)          179.3961         calculate D2E/DX2 analytically  !
 ! D7    D(34,1,33,32)        -179.6958         calculate D2E/DX2 analytically  !
 ! D8    D(34,1,33,59)          -0.1813         calculate D2E/DX2 analytically  !
 ! D9    D(1,2,3,4)             -0.5617         calculate D2E/DX2 analytically  !
 ! D10   D(1,2,3,36)           179.8873         calculate D2E/DX2 analytically  !
 ! D11   D(35,2,3,4)           179.6026         calculate D2E/DX2 analytically  !
 ! D12   D(35,2,3,36)            0.0516         calculate D2E/DX2 analytically  !
 ! D13   D(2,3,4,5)            178.7793         calculate D2E/DX2 analytically  !
 ! D14   D(2,3,4,32)            -0.1231         calculate D2E/DX2 analytically  !
 ! D15   D(36,3,4,5)            -1.6747         calculate D2E/DX2 analytically  !
 ! D16   D(36,3,4,32)          179.423          calculate D2E/DX2 analytically  !
 ! D17   D(3,4,5,6)             28.9666         calculate D2E/DX2 analytically  !
 ! D18   D(3,4,5,19)           -90.8848         calculate D2E/DX2 analytically  !
 ! D19   D(3,4,5,37)           146.7638         calculate D2E/DX2 analytically  !
 ! D20   D(32,4,5,6)          -152.1283         calculate D2E/DX2 analytically  !
 ! D21   D(32,4,5,19)           88.0203         calculate D2E/DX2 analytically  !
 ! D22   D(32,4,5,37)          -34.3311         calculate D2E/DX2 analytically  !
 ! D23   D(3,4,32,33)            0.6871         calculate D2E/DX2 analytically  !
 ! D24   D(3,4,32,58)         -179.1957         calculate D2E/DX2 analytically  !
 ! D25   D(5,4,32,33)         -178.2488         calculate D2E/DX2 analytically  !
 ! D26   D(5,4,32,58)            1.8685         calculate D2E/DX2 analytically  !
 ! D27   D(4,5,6,7)           -140.9622         calculate D2E/DX2 analytically  !
 ! D28   D(4,5,6,60)            12.3667         calculate D2E/DX2 analytically  !
 ! D29   D(19,5,6,7)           -13.9985         calculate D2E/DX2 analytically  !
 ! D30   D(19,5,6,60)          139.3305         calculate D2E/DX2 analytically  !
 ! D31   D(37,5,6,7)            99.9188         calculate D2E/DX2 analytically  !
 ! D32   D(37,5,6,60)         -106.7522         calculate D2E/DX2 analytically  !
 ! D33   D(4,5,19,18)          143.2514         calculate D2E/DX2 analytically  !
 ! D34   D(4,5,19,20)           29.543          calculate D2E/DX2 analytically  !
 ! D35   D(4,5,19,26)         -103.7189         calculate D2E/DX2 analytically  !
 ! D36   D(6,5,19,18)           17.0935         calculate D2E/DX2 analytically  !
 ! D37   D(6,5,19,20)          -96.615          calculate D2E/DX2 analytically  !
 ! D38   D(6,5,19,26)          130.1232         calculate D2E/DX2 analytically  !
 ! D39   D(37,5,19,18)         -94.6885         calculate D2E/DX2 analytically  !
 ! D40   D(37,5,19,20)         151.6031         calculate D2E/DX2 analytically  !
 ! D41   D(37,5,19,26)          18.3412         calculate D2E/DX2 analytically  !
 ! D42   D(5,6,7,8)           -176.3914         calculate D2E/DX2 analytically  !
 ! D43   D(5,6,7,18)             4.8339         calculate D2E/DX2 analytically  !
 ! D44   D(60,6,7,8)            21.059          calculate D2E/DX2 analytically  !
 ! D45   D(60,6,7,18)         -157.7158         calculate D2E/DX2 analytically  !
 ! D46   D(5,6,60,13)         -172.8864         calculate D2E/DX2 analytically  !
 ! D47   D(5,6,60,61)          -78.6149         calculate D2E/DX2 analytically  !
 ! D48   D(5,6,60,62)           84.786          calculate D2E/DX2 analytically  !
 ! D49   D(7,6,60,13)          -19.5187         calculate D2E/DX2 analytically  !
 ! D50   D(7,6,60,61)           74.7528         calculate D2E/DX2 analytically  !
 ! D51   D(7,6,60,62)         -121.8462         calculate D2E/DX2 analytically  !
 ! D52   D(6,7,8,9)            170.623          calculate D2E/DX2 analytically  !
 ! D53   D(6,7,8,13)            -8.0626         calculate D2E/DX2 analytically  !
 ! D54   D(18,7,8,9)           -10.6147         calculate D2E/DX2 analytically  !
 ! D55   D(18,7,8,13)          170.6997         calculate D2E/DX2 analytically  !
 ! D56   D(6,7,18,19)            7.4738         calculate D2E/DX2 analytically  !
 ! D57   D(8,7,18,19)         -171.328          calculate D2E/DX2 analytically  !
 ! D58   D(7,8,9,10)          -177.2121         calculate D2E/DX2 analytically  !
 ! D59   D(7,8,9,38)             2.3561         calculate D2E/DX2 analytically  !
 ! D60   D(13,8,9,10)            1.3586         calculate D2E/DX2 analytically  !
 ! D61   D(13,8,9,38)         -179.0732         calculate D2E/DX2 analytically  !
 ! D62   D(7,8,13,12)          178.1316         calculate D2E/DX2 analytically  !
 ! D63   D(7,8,13,60)          -10.1169         calculate D2E/DX2 analytically  !
 ! D64   D(9,8,13,12)           -0.5819         calculate D2E/DX2 analytically  !
 ! D65   D(9,8,13,60)          171.1696         calculate D2E/DX2 analytically  !
 ! D66   D(8,9,10,11)           -0.4699         calculate D2E/DX2 analytically  !
 ! D67   D(8,9,10,39)          179.4594         calculate D2E/DX2 analytically  !
 ! D68   D(38,9,10,11)         179.971          calculate D2E/DX2 analytically  !
 ! D69   D(38,9,10,39)          -0.0997         calculate D2E/DX2 analytically  !
 ! D70   D(9,10,11,12)          -1.0963         calculate D2E/DX2 analytically  !
 ! D71   D(9,10,11,17)         177.8969         calculate D2E/DX2 analytically  !
 ! D72   D(39,10,11,12)        178.9741         calculate D2E/DX2 analytically  !
 ! D73   D(39,10,11,17)         -2.0327         calculate D2E/DX2 analytically  !
 ! D74   D(10,11,12,13)          1.9113         calculate D2E/DX2 analytically  !
 ! D75   D(10,11,12,14)       -176.5136         calculate D2E/DX2 analytically  !
 ! D76   D(17,11,12,13)       -177.0853         calculate D2E/DX2 analytically  !
 ! D77   D(17,11,12,14)          4.4898         calculate D2E/DX2 analytically  !
 ! D78   D(10,11,17,16)        162.3029         calculate D2E/DX2 analytically  !
 ! D79   D(10,11,17,46)         38.0601         calculate D2E/DX2 analytically  !
 ! D80   D(10,11,17,47)        -76.9231         calculate D2E/DX2 analytically  !
 ! D81   D(12,11,17,16)        -18.7307         calculate D2E/DX2 analytically  !
 ! D82   D(12,11,17,46)       -142.9735         calculate D2E/DX2 analytically  !
 ! D83   D(12,11,17,47)        102.0433         calculate D2E/DX2 analytically  !
 ! D84   D(11,12,13,8)          -1.1012         calculate D2E/DX2 analytically  !
 ! D85   D(11,12,13,60)       -171.4053         calculate D2E/DX2 analytically  !
 ! D86   D(14,12,13,8)         177.4143         calculate D2E/DX2 analytically  !
 ! D87   D(14,12,13,60)          7.1102         calculate D2E/DX2 analytically  !
 ! D88   D(11,12,14,15)        -19.0995         calculate D2E/DX2 analytically  !
 ! D89   D(11,12,14,40)       -145.23           calculate D2E/DX2 analytically  !
 ! D90   D(11,12,14,41)        101.2578         calculate D2E/DX2 analytically  !
 ! D91   D(13,12,14,15)        162.4184         calculate D2E/DX2 analytically  !
 ! D92   D(13,12,14,40)         36.288          calculate D2E/DX2 analytically  !
 ! D93   D(13,12,14,41)        -77.2242         calculate D2E/DX2 analytically  !
 ! D94   D(8,13,60,6)           16.2305         calculate D2E/DX2 analytically  !
 ! D95   D(8,13,60,61)         -73.1767         calculate D2E/DX2 analytically  !
 ! D96   D(8,13,60,62)         143.3358         calculate D2E/DX2 analytically  !
 ! D97   D(12,13,60,6)        -172.6983         calculate D2E/DX2 analytically  !
 ! D98   D(12,13,60,61)         97.8946         calculate D2E/DX2 analytically  !
 ! D99   D(12,13,60,62)        -45.5929         calculate D2E/DX2 analytically  !
 ! D100  D(12,14,15,16)         47.548          calculate D2E/DX2 analytically  !
 ! D101  D(12,14,15,42)        -73.2344         calculate D2E/DX2 analytically  !
 ! D102  D(12,14,15,43)        169.8476         calculate D2E/DX2 analytically  !
 ! D103  D(40,14,15,16)        171.1138         calculate D2E/DX2 analytically  !
 ! D104  D(40,14,15,42)         50.3314         calculate D2E/DX2 analytically  !
 ! D105  D(40,14,15,43)        -66.5866         calculate D2E/DX2 analytically  !
 ! D106  D(41,14,15,16)        -71.3289         calculate D2E/DX2 analytically  !
 ! D107  D(41,14,15,42)        167.8886         calculate D2E/DX2 analytically  !
 ! D108  D(41,14,15,43)         50.9706         calculate D2E/DX2 analytically  !
 ! D109  D(14,15,16,17)        -62.8848         calculate D2E/DX2 analytically  !
 ! D110  D(14,15,16,44)        175.5071         calculate D2E/DX2 analytically  !
 ! D111  D(14,15,16,45)         57.7437         calculate D2E/DX2 analytically  !
 ! D112  D(42,15,16,17)         58.0773         calculate D2E/DX2 analytically  !
 ! D113  D(42,15,16,44)        -63.5308         calculate D2E/DX2 analytically  !
 ! D114  D(42,15,16,45)        178.7058         calculate D2E/DX2 analytically  !
 ! D115  D(43,15,16,17)        175.5779         calculate D2E/DX2 analytically  !
 ! D116  D(43,15,16,44)         53.9698         calculate D2E/DX2 analytically  !
 ! D117  D(43,15,16,45)        -63.7936         calculate D2E/DX2 analytically  !
 ! D118  D(15,16,17,11)         47.3724         calculate D2E/DX2 analytically  !
 ! D119  D(15,16,17,46)        170.7865         calculate D2E/DX2 analytically  !
 ! D120  D(15,16,17,47)        -72.8811         calculate D2E/DX2 analytically  !
 ! D121  D(44,16,17,11)        169.9834         calculate D2E/DX2 analytically  !
 ! D122  D(44,16,17,46)        -66.6025         calculate D2E/DX2 analytically  !
 ! D123  D(44,16,17,47)         49.7299         calculate D2E/DX2 analytically  !
 ! D124  D(45,16,17,11)        -73.0492         calculate D2E/DX2 analytically  !
 ! D125  D(45,16,17,46)         50.3649         calculate D2E/DX2 analytically  !
 ! D126  D(45,16,17,47)        166.6973         calculate D2E/DX2 analytically  !
 ! D127  D(7,18,19,5)          -14.9939         calculate D2E/DX2 analytically  !
 ! D128  D(7,18,19,20)         102.7216         calculate D2E/DX2 analytically  !
 ! D129  D(7,18,19,26)        -136.5357         calculate D2E/DX2 analytically  !
 ! D130  D(5,19,20,21)        -110.0429         calculate D2E/DX2 analytically  !
 ! D131  D(5,19,20,25)          65.5292         calculate D2E/DX2 analytically  !
 ! D132  D(18,19,20,21)        139.7815         calculate D2E/DX2 analytically  !
 ! D133  D(18,19,20,25)        -44.6465         calculate D2E/DX2 analytically  !
 ! D134  D(26,19,20,21)         24.6783         calculate D2E/DX2 analytically  !
 ! D135  D(26,19,20,25)       -159.7496         calculate D2E/DX2 analytically  !
 ! D136  D(5,19,26,27)          15.017          calculate D2E/DX2 analytically  !
 ! D137  D(5,19,26,31)        -165.3983         calculate D2E/DX2 analytically  !
 ! D138  D(18,19,26,27)        125.96           calculate D2E/DX2 analytically  !
 ! D139  D(18,19,26,31)        -54.4552         calculate D2E/DX2 analytically  !
 ! D140  D(20,19,26,27)       -117.7298         calculate D2E/DX2 analytically  !
 ! D141  D(20,19,26,31)         61.855          calculate D2E/DX2 analytically  !
 ! D142  D(19,20,21,22)        176.6972         calculate D2E/DX2 analytically  !
 ! D143  D(19,20,21,48)         -2.9733         calculate D2E/DX2 analytically  !
 ! D144  D(25,20,21,22)          1.0881         calculate D2E/DX2 analytically  !
 ! D145  D(25,20,21,48)       -178.5824         calculate D2E/DX2 analytically  !
 ! D146  D(19,20,25,24)       -176.9221         calculate D2E/DX2 analytically  !
 ! D147  D(19,20,25,52)         -2.0758         calculate D2E/DX2 analytically  !
 ! D148  D(21,20,25,24)         -1.2898         calculate D2E/DX2 analytically  !
 ! D149  D(21,20,25,52)        173.5566         calculate D2E/DX2 analytically  !
 ! D150  D(20,21,22,23)          0.0251         calculate D2E/DX2 analytically  !
 ! D151  D(20,21,22,49)        179.988          calculate D2E/DX2 analytically  !
 ! D152  D(48,21,22,23)        179.6966         calculate D2E/DX2 analytically  !
 ! D153  D(48,21,22,49)         -0.3406         calculate D2E/DX2 analytically  !
 ! D154  D(21,22,23,24)         -0.9385         calculate D2E/DX2 analytically  !
 ! D155  D(21,22,23,50)        179.8977         calculate D2E/DX2 analytically  !
 ! D156  D(49,22,23,24)        179.0989         calculate D2E/DX2 analytically  !
 ! D157  D(49,22,23,50)         -0.0648         calculate D2E/DX2 analytically  !
 ! D158  D(22,23,24,25)          0.7337         calculate D2E/DX2 analytically  !
 ! D159  D(22,23,24,51)       -178.0892         calculate D2E/DX2 analytically  !
 ! D160  D(50,23,24,25)        179.8972         calculate D2E/DX2 analytically  !
 ! D161  D(50,23,24,51)          1.0742         calculate D2E/DX2 analytically  !
 ! D162  D(23,24,25,20)          0.3863         calculate D2E/DX2 analytically  !
 ! D163  D(23,24,25,52)       -174.6302         calculate D2E/DX2 analytically  !
 ! D164  D(51,24,25,20)        179.224          calculate D2E/DX2 analytically  !
 ! D165  D(51,24,25,52)          4.2076         calculate D2E/DX2 analytically  !
 ! D166  D(19,26,27,28)        179.3633         calculate D2E/DX2 analytically  !
 ! D167  D(19,26,27,53)         -0.6369         calculate D2E/DX2 analytically  !
 ! D168  D(31,26,27,28)         -0.2168         calculate D2E/DX2 analytically  !
 ! D169  D(31,26,27,53)        179.7831         calculate D2E/DX2 analytically  !
 ! D170  D(19,26,31,30)       -179.9199         calculate D2E/DX2 analytically  !
 ! D171  D(19,26,31,57)         -0.0853         calculate D2E/DX2 analytically  !
 ! D172  D(27,26,31,30)         -0.3118         calculate D2E/DX2 analytically  !
 ! D173  D(27,26,31,57)        179.5228         calculate D2E/DX2 analytically  !
 ! D174  D(26,27,28,29)          0.4833         calculate D2E/DX2 analytically  !
 ! D175  D(26,27,28,54)       -179.6828         calculate D2E/DX2 analytically  !
 ! D176  D(53,27,28,29)       -179.5165         calculate D2E/DX2 analytically  !
 ! D177  D(53,27,28,54)          0.3174         calculate D2E/DX2 analytically  !
 ! D178  D(27,28,29,30)         -0.2183         calculate D2E/DX2 analytically  !
 ! D179  D(27,28,29,55)        179.823          calculate D2E/DX2 analytically  !
 ! D180  D(54,28,29,30)        179.9492         calculate D2E/DX2 analytically  !
 ! D181  D(54,28,29,55)         -0.0095         calculate D2E/DX2 analytically  !
 ! D182  D(28,29,30,31)         -0.3065         calculate D2E/DX2 analytically  !
 ! D183  D(28,29,30,56)        179.9469         calculate D2E/DX2 analytically  !
 ! D184  D(55,29,30,31)        179.6522         calculate D2E/DX2 analytically  !
 ! D185  D(55,29,30,56)         -0.0944         calculate D2E/DX2 analytically  !
 ! D186  D(29,30,31,26)          0.5763         calculate D2E/DX2 analytically  !
 ! D187  D(29,30,31,57)       -179.2567         calculate D2E/DX2 analytically  !
 ! D188  D(56,30,31,26)       -179.676          calculate D2E/DX2 analytically  !
 ! D189  D(56,30,31,57)          0.491          calculate D2E/DX2 analytically  !
 ! D190  D(4,32,33,1)           -0.5683         calculate D2E/DX2 analytically  !
 ! D191  D(4,32,33,59)         179.9143         calculate D2E/DX2 analytically  !
 ! D192  D(58,32,33,1)         179.3158         calculate D2E/DX2 analytically  !
 ! D193  D(58,32,33,59)         -0.2017         calculate D2E/DX2 analytically  !
 --------------------------------------------------------------------------------
 Trust Radius=3.00D-01 FncErr=1.00D-07 GrdErr=1.00D-07 EigMax=2.50D+02 EigMin=1.00D-04
 Number of steps in this run=      2 maximum allowed number of steps=      2.
 GradGradGradGradGradGradGradGradGradGradGradGradGradGradGradGradGradGrad

 Stoichiometry    C30H26F2N2NiO(3)
 Framework group  C1[X(C30H26F2N2NiO)]
 Deg. of freedom   180
 Full point group                 C1      NOp   1
 Largest Abelian subgroup         C1      NOp   1
 Largest concise Abelian subgroup C1      NOp   1
                         Standard orientation:                         
 ---------------------------------------------------------------------
 Center     Atomic      Atomic             Coordinates (Angstroms)
 Number     Number       Type             X           Y           Z
 ---------------------------------------------------------------------
      1          6           0       -3.246814   -4.118569   -0.584544
      2          6           0       -2.067817   -3.839850    0.105989
      3          6           0       -1.434718   -2.604153   -0.030936
      4          6           0       -1.979504   -1.632632   -0.879961
      5          6           0       -1.347240   -0.266536   -1.043413
      6          7           0        0.112059   -0.232690   -0.841915
      7          6           0        0.399181    0.849194   -0.211013
      8          6           0        1.787024    1.228725    0.081431
      9          6           0        2.169199    2.462759    0.588840
     10          6           0        3.533934    2.691382    0.757074
     11          6           0        4.467398    1.705752    0.433450
     12          6           0        3.988089    0.466974   -0.045097
     13          7           0        2.677514    0.265028   -0.217622
     14          6           0        4.899221   -0.694349   -0.352256
     15          6           0        6.354923   -0.261933   -0.543230
     16          6           0        6.787304    0.674769    0.589608
     17          6           0        5.953295    1.961595    0.568245
     18          8           0       -0.596595    1.626765    0.204763
     19          6           0       -1.864711    0.863564   -0.057138
     20          6           0       -2.324840    0.298696    1.278036
     21          6           0       -3.680569    0.294974    1.619479
     22          6           0       -4.108749   -0.285056    2.813713
     23          6           0       -3.184562   -0.867092    3.679217
     24          6           0       -1.832388   -0.882629    3.333351
     25          6           0       -1.399706   -0.308961    2.140472
     26          6           0       -2.820559    1.885961   -0.641898
     27          6           0       -3.488736    1.725696   -1.856560
     28          6           0       -4.365487    2.709109   -2.322891
     29          6           0       -4.576382    3.869565   -1.583730
     30          6           0       -3.907974    4.042266   -0.368632
     31          6           0       -3.044411    3.057549    0.098675
     32          6           0       -3.154926   -1.922152   -1.581723
     33          6           0       -3.790221   -3.153747   -1.432831
     34          1           0       -3.735944   -5.081900   -0.469166
     35          1           0       -1.630484   -4.586429    0.763052
     36          1           0       -0.517066   -2.408013    0.518679
     37          1           0       -1.513154    0.064444   -2.073670
     38          1           0        1.422699    3.209516    0.832215
     39          1           0        3.879169    3.647046    1.143277
     40          1           0        4.493426   -1.238101   -1.212316
     41          1           0        4.830288   -1.391086    0.497293
     42          1           0        6.466173    0.253503   -1.507309
     43          1           0        6.997547   -1.147495   -0.582542
     44          1           0        7.849957    0.928241    0.508206
     45          1           0        6.652842    0.164402    1.552942
     46          1           0        6.139596    2.564109    1.465457
     47          1           0        6.271695    2.580332   -0.283997
     48          1           0       -4.407313    0.741031    0.950033
     49          1           0       -5.165893   -0.279089    3.063736
     50          1           0       -3.516305   -1.317763    4.610469
     51          1           0       -1.105283   -1.360086    3.983529
     52          1           0       -0.355491   -0.419681    1.866643
     53          1           0       -3.340022    0.838224   -2.458161
     54          1           0       -4.878957    2.561439   -3.268455
     55          1           0       -5.255687    4.634752   -1.948069
     56          1           0       -4.063701    4.943925    0.216719
     57          1           0       -2.535068    3.186948    1.047963
     58          1           0       -3.584256   -1.185652   -2.254371
     59          1           0       -4.702902   -3.359702   -1.985117
     60         28           0        1.730735   -1.513629   -0.663827
     61          9           0        1.259308   -1.866975    1.107877
     62          9           0        2.715557   -2.256024   -1.988054
 ---------------------------------------------------------------------
 Rotational constants (GHZ):           0.1617433           0.0761757           0.0648308
 Basis read from chk: "Lig2120_xyz.chk" (6D, 7F)
 Pseudo-potential data read from chk file.
 There are   654 symmetry adapted cartesian basis functions of A   symmetry.
 There are   651 symmetry adapted basis functions of A   symmetry.
   651 basis functions,  1238 primitive gaussians,   654 cartesian basis functions
   133 alpha electrons      131 beta electrons
       nuclear repulsion energy      4226.1825931521 Hartrees.
 NAtoms=   62 NActive=   62 NUniq=   62 SFac= 1.00D+00 NAtFMM=   60 NAOKFM=T Big=T
 Integral buffers will be    131072 words long.
 Raffenetti 2 integral format.
 Two-electron integral symmetry is turned on.
 Nuclear repulsion after empirical dispersion term =     4226.0154600305 Hartrees.
 One-electron integrals computed using PRISM.
 PrsmSu:  requested number of processors reduced to:  12 ShMem   1 Linda.
   1 Symmetry operations used in ECPInt.
 ECPInt:  NShTT=   22791 NPrTT=  142008 LenC2=   18105 LenP2D=   59483.
 LDataN:  DoStor=T MaxTD1= 6 Len=  172
 Number of processors reduced to  11 by ecpmxn.
 NBasis=   651 RedAO= T EigKep=  1.03D-06  NBF=   651
 NBsUse=   651 1.00D-06 EigRej= -1.00D+00 NBFU=   651
 Initial guess from the checkpoint file:  "Lig2120_xyz.chk"
 B after Tr=    -0.000000   -0.000000   -0.000000
         Rot=    1.000000    0.000000   -0.000000    0.000000 Ang=   0.00 deg.
 Initial guess <Sx>= 0.0000 <Sy>= 0.0000 <Sz>= 1.0000 <S**2>= 2.0056 S= 1.0019
 Requested convergence on RMS density matrix=1.00D-08 within 128 cycles.
 Requested convergence on MAX density matrix=1.00D-06.
 Requested convergence on             energy=1.00D-06.
 No special actions if energy rises.
 SCF Done:  E(UB3LYP) =  -1712.90461585     A.U. after    2 cycles
            NFock=  2  Conv=0.19D-09     -V/T= 2.0467
 <Sx>= 0.0000 <Sy>= 0.0000 <Sz>= 1.0000 <S**2>= 2.0056 S= 1.0019
 <L.S>=  0.00000000000    
 Annihilation of the first spin contaminant:
 S**2 before annihilation     2.0056,   after     2.0000
 DoSCS=F DFT=T ScalE2(SS,OS)=  1.000000  1.000000
 Range of M.O.s used for correlation:     1   651
 NBasis=   651 NAE=   133 NBE=   131 NFC=     0 NFV=     0
 NROrb=    651 NOA=   133 NOB=   131 NVA=   518 NVB=   520

 **** Warning!!: The largest alpha MO coefficient is  0.17604147D+03


 **** Warning!!: The largest beta MO coefficient is  0.16922959D+03

 PrsmSu:  requested number of processors reduced to:  10 ShMem   1 Linda.
 PrsmSu:  requested number of processors reduced to:   2 ShMem   1 Linda.
   1 Symmetry operations used in ECPInt.
 ECPInt:  NShTT=   22791 NPrTT=  142008 LenC2=   18105 LenP2D=   59483.
 LDataN:  DoStor=T MaxTD1= 7 Len=  274
 Number of processors reduced to   1 by ecpmxn.
 Symmetrizing basis deriv contribution to polar:
 IMax=3 JMax=2 DiffMx= 0.00D+00
 G2DrvN: will do     1 centers at a time, making   63 passes.
 Estimated number of processors is:   15
 Calling FoFCou, ICntrl=  3107 FMM=T I1Cent=   0 AccDes= 0.00D+00.
 Calling FoFCou, ICntrl=  3107 FMM=T I1Cent=   0 AccDes= 0.00D+00.
 CoulSu:  requested number of processors reduced to:  15 ShMem   1 Linda.
 Calling FoFCou, ICntrl=  3107 FMM=T I1Cent=   0 AccDes= 0.00D+00.
 CoulSu:  requested number of processors reduced to:  15 ShMem   1 Linda.
 Calling FoFCou, ICntrl=  3107 FMM=T I1Cent=   0 AccDes= 0.00D+00.
 CoulSu:  requested number of processors reduced to:  15 ShMem   1 Linda.
 Calling FoFCou, ICntrl=  3107 FMM=T I1Cent=   0 AccDes= 0.00D+00.
 CoulSu:  requested number of processors reduced to:  15 ShMem   1 Linda.
 Calling FoFCou, ICntrl=  3107 FMM=T I1Cent=   0 AccDes= 0.00D+00.
 CoulSu:  requested number of processors reduced to:  15 ShMem   1 Linda.
 Calling FoFCou, ICntrl=  3107 FMM=T I1Cent=   0 AccDes= 0.00D+00.
 CoulSu:  requested number of processors reduced to:  15 ShMem   1 Linda.
 Calling FoFCou, ICntrl=  3107 FMM=T I1Cent=   0 AccDes= 0.00D+00.
 CoulSu:  requested number of processors reduced to:  15 ShMem   1 Linda.
 Calling FoFCou, ICntrl=  3107 FMM=T I1Cent=   0 AccDes= 0.00D+00.
 CoulSu:  requested number of processors reduced to:  15 ShMem   1 Linda.
 Calling FoFCou, ICntrl=  3107 FMM=T I1Cent=   0 AccDes= 0.00D+00.
 CoulSu:  requested number of processors reduced to:  15 ShMem   1 Linda.
 Calling FoFCou, ICntrl=  3107 FMM=T I1Cent=   0 AccDes= 0.00D+00.
 CoulSu:  requested number of processors reduced to:  15 ShMem   1 Linda.
 Calling FoFCou, ICntrl=  3107 FMM=T I1Cent=   0 AccDes= 0.00D+00.
 CoulSu:  requested number of processors reduced to:  15 ShMem   1 Linda.
 Calling FoFCou, ICntrl=  3107 FMM=T I1Cent=   0 AccDes= 0.00D+00.
 CoulSu:  requested number of processors reduced to:  15 ShMem   1 Linda.
 Calling FoFCou, ICntrl=  3107 FMM=T I1Cent=   0 AccDes= 0.00D+00.
 CoulSu:  requested number of processors reduced to:  15 ShMem   1 Linda.
 Calling FoFCou, ICntrl=  3107 FMM=T I1Cent=   0 AccDes= 0.00D+00.
 CoulSu:  requested number of processors reduced to:  15 ShMem   1 Linda.
 Calling FoFCou, ICntrl=  3107 FMM=T I1Cent=   0 AccDes= 0.00D+00.
 CoulSu:  requested number of processors reduced to:  15 ShMem   1 Linda.
 Calling FoFCou, ICntrl=  3107 FMM=T I1Cent=   0 AccDes= 0.00D+00.
 CoulSu:  requested number of processors reduced to:  15 ShMem   1 Linda.
 Calling FoFCou, ICntrl=  3107 FMM=T I1Cent=   0 AccDes= 0.00D+00.
 CoulSu:  requested number of processors reduced to:  15 ShMem   1 Linda.
 Calling FoFCou, ICntrl=  3107 FMM=T I1Cent=   0 AccDes= 0.00D+00.
 CoulSu:  requested number of processors reduced to:  15 ShMem   1 Linda.
 Calling FoFCou, ICntrl=  3107 FMM=T I1Cent=   0 AccDes= 0.00D+00.
 CoulSu:  requested number of processors reduced to:  15 ShMem   1 Linda.
 Calling FoFCou, ICntrl=  3107 FMM=T I1Cent=   0 AccDes= 0.00D+00.
 CoulSu:  requested number of processors reduced to:  15 ShMem   1 Linda.
 Calling FoFCou, ICntrl=  3107 FMM=T I1Cent=   0 AccDes= 0.00D+00.
 CoulSu:  requested number of processors reduced to:  15 ShMem   1 Linda.
 Calling FoFCou, ICntrl=  3107 FMM=T I1Cent=   0 AccDes= 0.00D+00.
 CoulSu:  requested number of processors reduced to:  15 ShMem   1 Linda.
 Calling FoFCou, ICntrl=  3107 FMM=T I1Cent=   0 AccDes= 0.00D+00.
 CoulSu:  requested number of processors reduced to:  15 ShMem   1 Linda.
 Calling FoFCou, ICntrl=  3107 FMM=T I1Cent=   0 AccDes= 0.00D+00.
 CoulSu:  requested number of processors reduced to:  15 ShMem   1 Linda.
 Calling FoFCou, ICntrl=  3107 FMM=T I1Cent=   0 AccDes= 0.00D+00.
 CoulSu:  requested number of processors reduced to:  15 ShMem   1 Linda.
 Calling FoFCou, ICntrl=  3107 FMM=T I1Cent=   0 AccDes= 0.00D+00.
 CoulSu:  requested number of processors reduced to:  15 ShMem   1 Linda.
 Calling FoFCou, ICntrl=  3107 FMM=T I1Cent=   0 AccDes= 0.00D+00.
 CoulSu:  requested number of processors reduced to:  15 ShMem   1 Linda.
 Calling FoFCou, ICntrl=  3107 FMM=T I1Cent=   0 AccDes= 0.00D+00.
 CoulSu:  requested number of processors reduced to:  15 ShMem   1 Linda.
 Calling FoFCou, ICntrl=  3107 FMM=T I1Cent=   0 AccDes= 0.00D+00.
 CoulSu:  requested number of processors reduced to:  15 ShMem   1 Linda.
 Calling FoFCou, ICntrl=  3107 FMM=T I1Cent=   0 AccDes= 0.00D+00.
 CoulSu:  requested number of processors reduced to:  15 ShMem   1 Linda.
 Calling FoFCou, ICntrl=  3107 FMM=T I1Cent=   0 AccDes= 0.00D+00.
 CoulSu:  requested number of processors reduced to:  15 ShMem   1 Linda.
 Calling FoFCou, ICntrl=  3107 FMM=T I1Cent=   0 AccDes= 0.00D+00.
 CoulSu:  requested number of processors reduced to:  15 ShMem   1 Linda.
 Calling FoFCou, ICntrl=  3107 FMM=T I1Cent=   0 AccDes= 0.00D+00.
 CoulSu:  requested number of processors reduced to:  15 ShMem   1 Linda.
 Calling FoFCou, ICntrl=  3107 FMM=T I1Cent=   0 AccDes= 0.00D+00.
 CoulSu:  requested number of processors reduced to:  15 ShMem   1 Linda.
 Calling FoFCou, ICntrl=  3107 FMM=T I1Cent=   0 AccDes= 0.00D+00.
 CoulSu:  requested number of processors reduced to:  15 ShMem   1 Linda.
 Calling FoFCou, ICntrl=  3107 FMM=T I1Cent=   0 AccDes= 0.00D+00.
 CoulSu:  requested number of processors reduced to:  15 ShMem   1 Linda.
 Calling FoFCou, ICntrl=  3107 FMM=T I1Cent=   0 AccDes= 0.00D+00.
 CoulSu:  requested number of processors reduced to:  15 ShMem   1 Linda.
 Calling FoFCou, ICntrl=  3107 FMM=T I1Cent=   0 AccDes= 0.00D+00.
 CoulSu:  requested number of processors reduced to:  15 ShMem   1 Linda.
 Calling FoFCou, ICntrl=  3107 FMM=T I1Cent=   0 AccDes= 0.00D+00.
 CoulSu:  requested number of processors reduced to:  15 ShMem   1 Linda.
 Calling FoFCou, ICntrl=  3107 FMM=T I1Cent=   0 AccDes= 0.00D+00.
 CoulSu:  requested number of processors reduced to:  15 ShMem   1 Linda.
 Calling FoFCou, ICntrl=  3107 FMM=T I1Cent=   0 AccDes= 0.00D+00.
 CoulSu:  requested number of processors reduced to:  15 ShMem   1 Linda.
 Calling FoFCou, ICntrl=  3107 FMM=T I1Cent=   0 AccDes= 0.00D+00.
 CoulSu:  requested number of processors reduced to:  15 ShMem   1 Linda.
 Calling FoFCou, ICntrl=  3107 FMM=T I1Cent=   0 AccDes= 0.00D+00.
 CoulSu:  requested number of processors reduced to:  15 ShMem   1 Linda.
 Calling FoFCou, ICntrl=  3107 FMM=T I1Cent=   0 AccDes= 0.00D+00.
 CoulSu:  requested number of processors reduced to:  15 ShMem   1 Linda.
 Calling FoFCou, ICntrl=  3107 FMM=T I1Cent=   0 AccDes= 0.00D+00.
 CoulSu:  requested number of processors reduced to:  15 ShMem   1 Linda.
 Calling FoFCou, ICntrl=  3107 FMM=T I1Cent=   0 AccDes= 0.00D+00.
 CoulSu:  requested number of processors reduced to:  15 ShMem   1 Linda.
 Calling FoFCou, ICntrl=  3107 FMM=T I1Cent=   0 AccDes= 0.00D+00.
 CoulSu:  requested number of processors reduced to:  15 ShMem   1 Linda.
 Calling FoFCou, ICntrl=  3107 FMM=T I1Cent=   0 AccDes= 0.00D+00.
 CoulSu:  requested number of processors reduced to:  15 ShMem   1 Linda.
 Calling FoFCou, ICntrl=  3107 FMM=T I1Cent=   0 AccDes= 0.00D+00.
 CoulSu:  requested number of processors reduced to:  15 ShMem   1 Linda.
 Calling FoFCou, ICntrl=  3107 FMM=T I1Cent=   0 AccDes= 0.00D+00.
 CoulSu:  requested number of processors reduced to:  15 ShMem   1 Linda.
 Calling FoFCou, ICntrl=  3107 FMM=T I1Cent=   0 AccDes= 0.00D+00.
 CoulSu:  requested number of processors reduced to:  15 ShMem   1 Linda.
 Calling FoFCou, ICntrl=  3107 FMM=T I1Cent=   0 AccDes= 0.00D+00.
 CoulSu:  requested number of processors reduced to:  15 ShMem   1 Linda.
 Calling FoFCou, ICntrl=  3107 FMM=T I1Cent=   0 AccDes= 0.00D+00.
 CoulSu:  requested number of processors reduced to:  15 ShMem   1 Linda.
 Calling FoFCou, ICntrl=  3107 FMM=T I1Cent=   0 AccDes= 0.00D+00.
 CoulSu:  requested number of processors reduced to:  15 ShMem   1 Linda.
 Calling FoFCou, ICntrl=  3107 FMM=T I1Cent=   0 AccDes= 0.00D+00.
 CoulSu:  requested number of processors reduced to:  15 ShMem   1 Linda.
 Calling FoFCou, ICntrl=  3107 FMM=T I1Cent=   0 AccDes= 0.00D+00.
 CoulSu:  requested number of processors reduced to:  15 ShMem   1 Linda.
 Calling FoFCou, ICntrl=  3107 FMM=T I1Cent=   0 AccDes= 0.00D+00.
 CoulSu:  requested number of processors reduced to:  15 ShMem   1 Linda.
 Calling FoFCou, ICntrl=  3107 FMM=T I1Cent=   0 AccDes= 0.00D+00.
 CoulSu:  requested number of processors reduced to:  15 ShMem   1 Linda.
 Calling FoFCou, ICntrl=  3107 FMM=T I1Cent=   0 AccDes= 0.00D+00.
 CoulSu:  requested number of processors reduced to:  15 ShMem   1 Linda.
 Calling FoFCou, ICntrl=  3107 FMM=T I1Cent=   0 AccDes= 0.00D+00.
 CoulSu:  requested number of processors reduced to:  15 ShMem   1 Linda.
 Calling FoFCou, ICntrl=  3107 FMM=T I1Cent=   0 AccDes= 0.00D+00.
 CoulSu:  requested number of processors reduced to:  15 ShMem   1 Linda.
 Calling FoFCou, ICntrl=  3107 FMM=T I1Cent=   0 AccDes= 0.00D+00.
 CoulSu:  requested number of processors reduced to:  15 ShMem   1 Linda.
 End of G2Drv F.D. properties file   721 does not exist.
 End of G2Drv F.D. properties file   722 does not exist.
 End of G2Drv F.D. properties file   788 does not exist.
          IDoAtm=11111111111111111111111111111111111111111111111111
          IDoAtm=111111111111
          Differentiating once with respect to electric field.
                with respect to dipole field.
          Differentiating once with respect to nuclear coordinates.
 CalDSu exits because no D1Ps are significant.
          There are   189 degrees of freedom in the 1st order CPHF.  IDoFFX=6 NUNeed=     3.
    189 vectors produced by pass  0 Test12= 1.37D-13 1.00D-09 XBig12= 8.51D+02 6.02D+00.
 AX will form     3 AO Fock derivatives at one time.
    189 vectors produced by pass  1 Test12= 1.37D-13 1.00D-09 XBig12= 1.75D+02 1.39D+00.
