 Entering Gaussian System, Link 0=g16
 Input=Lig2120_xyz_4.com
 Output=Lig2120_xyz_4.log
 Initial command:
 /uufs/chpc.utah.edu/sys/installdir/gaussian16/C01/AVX/g16/l1.exe "/scratch/general/vast/u1365460/GAUSSSCRDIR/11267744-notchpeak.peaks/Gau-774735.inp" -scrdir="/scratch/general/vast/u1365460/GAUSSSCRDIR/11267744-notchpeak.peaks/"
 Entering Link 1 = /uufs/chpc.utah.edu/sys/installdir/gaussian16/C01/AVX/g16/l1.exe PID=    774739.
  
 Copyright (c) 1988-2019, Gaussian, Inc.  All Rights Reserved.
  
 This is part of the Gaussian(R) 16 program.  It is based on
 the Gaussian(R) 09 system (copyright 2009, Gaussian, Inc.),
 the Gaussian(R) 03 system (copyright 2003, Gaussian, Inc.),
 the Gaussian(R) 98 system (copyright 1998, Gaussian, Inc.),
 the Gaussian(R) 94 system (copyright 1995, Gaussian, Inc.),
 the Gaussian 92(TM) system (copyright 1992, Gaussian, Inc.),
 the Gaussian 90(TM) system (copyright 1990, Gaussian, Inc.),
 the Gaussian 88(TM) system (copyright 1988, Gaussian, Inc.),
 the Gaussian 86(TM) system (copyright 1986, Carnegie Mellon
 University), and the Gaussian 82(TM) system (copyright 1983,
 Carnegie Mellon University). Gaussian is a federally registered
 trademark of Gaussian, Inc.
  
 This software contains proprietary and confidential information,
 including trade secrets, belonging to Gaussian, Inc.
  
 This software is provided under written license and may be
 used, copied, transmitted, or stored only in accord with that
 written license.
  
 The following legend is applicable only to US Government
 contracts under FAR:
  
                    RESTRICTED RIGHTS LEGEND
  
 Use, reproduction and disclosure by the US Government is
 subject to restrictions as set forth in subparagraphs (a)
 and (c) of the Commercial Computer Software - Restricted
 Rights clause in FAR 52.227-19.
  
 Gaussian, Inc.
 340 Quinnipiac St., Bldg. 40, Wallingford CT 06492
  
  
 ---------------------------------------------------------------
 Warning -- This program may not be used in any manner that
 competes with the business of Gaussian, Inc. or will provide
 assistance to any competitor of Gaussian, Inc.  The licensee
 of this program is prohibited from giving any competitor of
 Gaussian, Inc. access to this program.  By using this program,
 the user acknowledges that Gaussian, Inc. is engaged in the
 business of creating and licensing software in the field of
 computational chemistry and represents and warrants to the
 licensee that it is not a competitor of Gaussian, Inc. and that
 it will not use this program in any manner prohibited above.
 ---------------------------------------------------------------
  

 Cite this work as:
 Gaussian 16, Revision C.01,
 M. J. Frisch, G. W. Trucks, H. B. Schlegel, G. E. Scuseria, 
 M. A. Robb, J. R. Cheeseman, G. Scalmani, V. Barone, 
 G. A. Petersson, H. Nakatsuji, X. Li, M. Caricato, A. V. Marenich, 
 J. Bloino, B. G. Janesko, R. Gomperts, B. Mennucci, H. P. Hratchian, 
 J. V. Ortiz, A. F. Izmaylov, J. L. Sonnenberg, D. Williams-Young, 
 F. Ding, F. Lipparini, F. Egidi, J. Goings, B. Peng, A. Petrone, 
 T. Henderson, D. Ranasinghe, V. G. Zakrzewski, J. Gao, N. Rega, 
 G. Zheng, W. Liang, M. Hada, M. Ehara, K. Toyota, R. Fukuda, 
 J. Hasegawa, M. Ishida, T. Nakajima, Y. Honda, O. Kitao, H. Nakai, 
 T. Vreven, K. Throssell, J. A. Montgomery, Jr., J. E. Peralta, 
 F. Ogliaro, M. J. Bearpark, J. J. Heyd, E. N. Brothers, K. N. Kudin, 
 V. N. Staroverov, T. A. Keith, R. Kobayashi, J. Normand, 
 K. Raghavachari, A. P. Rendell, J. C. Burant, S. S. Iyengar, 
 J. Tomasi, M. Cossi, J. M. Millam, M. Klene, C. Adamo, R. Cammi, 
 J. W. Ochterski, R. L. Martin, K. Morokuma, O. Farkas, 
 J. B. Foresman, and D. J. Fox, Gaussian, Inc., Wallingford CT, 2019.
 
 ******************************************
 Gaussian 16:  ES64L-G16RevC.01  3-Jul-2019
                 6-Mar-2026 
 ******************************************
 %NProcShared=16
 Will use up to   16 processors via shared memory.
 %chk=Lig2120_xyz_4.chk
 ----------------------------------------------------------------------
 # B3LYP gen 6D pseudo=read int=(grid=fine) empiricaldispersion=GD3BJ o
 pt freq=noraman
 ----------------------------------------------------------------------
 1/18=20,19=15,26=3,38=1/1,3;
 2/9=110,12=2,17=6,18=5,40=1/2;
 3/5=7,8=2,11=2,16=1,17=8,25=1,30=1,71=1,74=-5,75=-4,124=41/1,2,3;
 4//1;
 5/5=2,38=5/2;
 6/7=2,8=2,9=2,10=2,28=1/1;
 7//1,2,3,16;
 1/18=20,19=15,26=3/3(2);
 2/9=110/2;
 99//99;
 2/9=110/2;
 3/5=7,6=1,8=2,11=2,16=1,17=8,25=1,30=1,71=1,74=-5,75=-4,82=7,124=41/1,2,3;
 4/5=5,16=3,69=1/1;
 5/5=2,38=5/2;
 7//1,2,3,16;
 1/18=20,19=15,26=3/3(-5);
 2/9=110/2;
 6/7=2,8=2,9=2,10=2,19=2,28=1/1;
 99/9=1/99;
 -----------
 Lig2120.xyz
 -----------
 Symbolic Z-matrix:
 Charge =  0 Multiplicity = 3
 C                    -3.8929   -3.11187  -1.61494 
 C                    -2.75223  -3.27494  -0.82828 
 C                    -1.83364  -2.23511  -0.67739 
 C                    -2.06103  -1.02157  -1.33375 
 C                    -1.15656   0.16584  -1.1459 
 N                     0.23156  -0.15785  -0.79215 
 C                     0.63914   0.72865   0.04119 
 C                     2.01924   0.74883   0.53446 
 C                     2.53656   1.72499   1.37564 
 C                     3.88034   1.61742   1.73019 
 C                     4.66101   0.56348   1.25313 
 C                     4.04803  -0.39514   0.4167 
 N                     2.75885  -0.27931   0.07814 
 C                     4.78025  -1.59793  -0.12003 
 C                     6.30097  -1.45148  -0.02742 
 C                     6.70911  -0.93939   1.35749 
 C                     6.13068   0.46029   1.60035 
 O                    -0.23404   1.64977   0.46582 
 C                    -1.57476   1.19156   0.0035 
 C                    -2.24542   0.47872   1.16778 
 C                    -1.54192   0.17263   2.33538 
 C                    -2.14289  -0.5688    3.35418 
 C                    -3.45578  -1.01307   3.2204 
 C                    -4.16806  -0.70772   2.05929 
 C                    -3.56904   0.02971   1.04305 
 C                    -2.28649   2.43334  -0.51238 
 C                    -1.78197   3.09765  -1.64106 
 C                    -2.38428   4.25882  -2.11731 
 C                    -3.50268   4.78488  -1.46815 
 C                    -3.99626   4.14887  -0.33129 
 C                    -3.38805   2.98764   0.14776 
 C                    -3.1883   -0.86677  -2.14924 
 C                    -4.10847  -1.90448  -2.28304 
 H                    -4.60471  -3.92606  -1.721 
 H                    -2.56842  -4.21955  -0.32427 
 H                    -0.93114  -2.38446  -0.08693 
 H                    -1.12316   0.70912  -2.09571 
 H                     1.90746   2.53416   1.72783 
 H                     4.32907   2.36086   2.3841 
 H                     4.42688  -1.77915  -1.14194 
 H                     4.4524   -2.46709   0.47031 
 H                     6.65402  -0.74901  -0.79505 
 H                     6.77439  -2.41535  -0.24052 
 H                     7.79918  -0.90589   1.46113 
 H                     6.33531  -1.63045   2.12511 
 H                     6.28141   0.77224   2.641 
 H                     6.67988   1.18712   0.98349 
 H                    -0.52081   0.51067   2.45793 
 H                    -1.57493  -0.8013    4.25019 
 H                    -3.92063  -1.59538   4.01067 
 H                    -5.19008  -1.05355   1.93607 
 H                    -4.12677   0.23718   0.13793 
 H                    -0.89645   2.72282  -2.14456 
 H                    -1.97693   4.75425  -2.99381 
 H                    -3.97738   5.68764  -1.84158 
 H                    -4.8554    4.55673   0.1934 
 H                    -3.77456   2.51433   1.04141 
 H                    -3.35223   0.07667  -2.66612 
 H                    -4.98404  -1.77483  -2.91315 
 Ni                    1.6598   -1.62914  -1.04654 
 F                     0.97683  -2.75726   0.23751 
 F                     2.77095  -1.86846  -2.46771 
 

 GradGradGradGradGradGradGradGradGradGradGradGradGradGradGradGradGradGrad
 Berny optimization.
 Initialization pass.
                           ----------------------------
                           !    Initial Parameters    !
                           ! (Angstroms and Degrees)  !
 --------------------------                            --------------------------
 ! Name  Definition              Value          Derivative Info.                !
 --------------------------------------------------------------------------------
 ! R1    R(1,2)                  1.3952         estimate D2E/DX2                !
 ! R2    R(1,33)                 1.3966         estimate D2E/DX2                !
 ! R3    R(1,34)                 1.0867         estimate D2E/DX2                !
 ! R4    R(2,3)                  1.3956         estimate D2E/DX2                !
 ! R5    R(2,35)                 1.0863         estimate D2E/DX2                !
 ! R6    R(3,4)                  1.3983         estimate D2E/DX2                !
 ! R7    R(3,36)                 1.0888         estimate D2E/DX2                !
 ! R8    R(4,5)                  1.5044         estimate D2E/DX2                !
 ! R9    R(4,32)                 1.3999         estimate D2E/DX2                !
 ! R10   R(5,6)                  1.4686         estimate D2E/DX2                !
 ! R11   R(5,19)                 1.5963         estimate D2E/DX2                !
 ! R12   R(5,37)                 1.0947         estimate D2E/DX2                !
 ! R13   R(6,7)                  1.2832         estimate D2E/DX2                !
 ! R14   R(6,60)                 2.0662         estimate D2E/DX2                !
 ! R15   R(7,8)                  1.4657         estimate D2E/DX2                !
 ! R16   R(7,18)                 1.3384         estimate D2E/DX2                !
 ! R17   R(8,9)                  1.3886         estimate D2E/DX2                !
 ! R18   R(8,13)                 1.3462         estimate D2E/DX2                !
 ! R19   R(9,10)                 1.3939         estimate D2E/DX2                !
 ! R20   R(9,38)                 1.0838         estimate D2E/DX2                !
 ! R21   R(10,11)                1.3956         estimate D2E/DX2                !
 ! R22   R(10,39)                1.087          estimate D2E/DX2                !
 ! R23   R(11,12)                1.4122         estimate D2E/DX2                !
 ! R24   R(11,17)                1.5136         estimate D2E/DX2                !
 ! R25   R(12,13)                1.3379         estimate D2E/DX2                !
 ! R26   R(12,14)                1.507          estimate D2E/DX2                !
 ! R27   R(13,60)                2.0724         estimate D2E/DX2                !
 ! R28   R(14,15)                1.5306         estimate D2E/DX2                !
 ! R29   R(14,40)                1.0964         estimate D2E/DX2                !
 ! R30   R(14,41)                1.1007         estimate D2E/DX2                !
 ! R31   R(15,16)                1.5319         estimate D2E/DX2                !
 ! R32   R(15,42)                1.0988         estimate D2E/DX2                !
 ! R33   R(15,43)                1.0948         estimate D2E/DX2                !
 ! R34   R(16,17)                1.5338         estimate D2E/DX2                !
 ! R35   R(16,44)                1.0955         estimate D2E/DX2                !
 ! R36   R(16,45)                1.0984         estimate D2E/DX2                !
 ! R37   R(17,46)                1.0968         estimate D2E/DX2                !
 ! R38   R(17,47)                1.1002         estimate D2E/DX2                !
 ! R39   R(18,19)                1.4904         estimate D2E/DX2                !
 ! R40   R(19,20)                1.521          estimate D2E/DX2                !
 ! R41   R(19,26)                1.5214         estimate D2E/DX2                !
 ! R42   R(20,21)                1.3971         estimate D2E/DX2                !
 ! R43   R(20,25)                1.4033         estimate D2E/DX2                !
 ! R44   R(21,22)                1.396          estimate D2E/DX2                !
 ! R45   R(21,48)                1.0826         estimate D2E/DX2                !
 ! R46   R(22,23)                1.3925         estimate D2E/DX2                !
 ! R47   R(22,49)                1.086          estimate D2E/DX2                !
 ! R48   R(23,24)                1.396          estimate D2E/DX2                !
 ! R49   R(23,50)                1.0861         estimate D2E/DX2                !
 ! R50   R(24,25)                1.3912         estimate D2E/DX2                !
 ! R51   R(24,51)                1.086          estimate D2E/DX2                !
 ! R52   R(25,52)                1.0832         estimate D2E/DX2                !
 ! R53   R(26,27)                1.4035         estimate D2E/DX2                !
 ! R54   R(26,31)                1.3987         estimate D2E/DX2                !
 ! R55   R(27,28)                1.3921         estimate D2E/DX2                !
 ! R56   R(27,53)                1.0854         estimate D2E/DX2                !
 ! R57   R(28,29)                1.396          estimate D2E/DX2                !
 ! R58   R(28,54)                1.0861         estimate D2E/DX2                !
 ! R59   R(29,30)                1.393          estimate D2E/DX2                !
 ! R60   R(29,55)                1.0862         estimate D2E/DX2                !
 ! R61   R(30,31)                1.3957         estimate D2E/DX2                !
 ! R62   R(30,56)                1.0862         estimate D2E/DX2                !
 ! R63   R(31,57)                1.0826         estimate D2E/DX2                !
 ! R64   R(32,33)                1.3934         estimate D2E/DX2                !
 ! R65   R(32,58)                1.0882         estimate D2E/DX2                !
 ! R66   R(33,59)                1.0865         estimate D2E/DX2                !
 ! R67   R(60,61)                1.8406         estimate D2E/DX2                !
 ! R68   R(60,62)                1.8198         estimate D2E/DX2                !
 ! A1    A(2,1,33)             119.7987         estimate D2E/DX2                !
 ! A2    A(2,1,34)             120.1991         estimate D2E/DX2                !
 ! A3    A(33,1,34)            119.9955         estimate D2E/DX2                !
 ! A4    A(1,2,3)              120.7961         estimate D2E/DX2                !
 ! A5    A(1,2,35)             120.1038         estimate D2E/DX2                !
 ! A6    A(3,2,35)             119.1001         estimate D2E/DX2                !
 ! A7    A(2,3,4)              119.2643         estimate D2E/DX2                !
 ! A8    A(2,3,36)             120.1321         estimate D2E/DX2                !
 ! A9    A(4,3,36)             120.558          estimate D2E/DX2                !
 ! A10   A(3,4,5)              121.912          estimate D2E/DX2                !
 ! A11   A(3,4,32)             120.0239         estimate D2E/DX2                !
 ! A12   A(5,4,32)             118.0073         estimate D2E/DX2                !
 ! A13   A(4,5,6)              115.111          estimate D2E/DX2                !
 ! A14   A(4,5,19)             116.0761         estimate D2E/DX2                !
 ! A15   A(4,5,37)             107.5599         estimate D2E/DX2                !
 ! A16   A(6,5,19)             102.4632         estimate D2E/DX2                !
 ! A17   A(6,5,37)             106.8303         estimate D2E/DX2                !
 ! A18   A(19,5,37)            108.2907         estimate D2E/DX2                !
 ! A19   A(5,6,7)              107.7215         estimate D2E/DX2                !
 ! A20   A(5,6,60)             141.3192         estimate D2E/DX2                !
 ! A21   A(7,6,60)             110.6314         estimate D2E/DX2                !
 ! A22   A(6,7,8)              121.8131         estimate D2E/DX2                !
 ! A23   A(6,7,18)             118.3147         estimate D2E/DX2                !
 ! A24   A(8,7,18)             119.8716         estimate D2E/DX2                !
 ! A25   A(7,8,9)              124.3566         estimate D2E/DX2                !
 ! A26   A(7,8,13)             113.1233         estimate D2E/DX2                !
 ! A27   A(9,8,13)             122.5172         estimate D2E/DX2                !
 ! A28   A(8,9,10)             117.3222         estimate D2E/DX2                !
 ! A29   A(8,9,38)             120.3628         estimate D2E/DX2                !
 ! A30   A(10,9,38)            122.314          estimate D2E/DX2                !
 ! A31   A(9,10,11)            120.7025         estimate D2E/DX2                !
 ! A32   A(9,10,39)            119.8795         estimate D2E/DX2                !
 ! A33   A(11,10,39)           119.418          estimate D2E/DX2                !
 ! A34   A(10,11,12)           118.1815         estimate D2E/DX2                !
 ! A35   A(10,11,17)           121.0768         estimate D2E/DX2                !
 ! A36   A(12,11,17)           120.733          estimate D2E/DX2                !
 ! A37   A(11,12,13)           120.6213         estimate D2E/DX2                !
 ! A38   A(11,12,14)           122.809          estimate D2E/DX2                !
 ! A39   A(13,12,14)           116.5621         estimate D2E/DX2                !
 ! A40   A(8,13,12)            120.6458         estimate D2E/DX2                !
 ! A41   A(8,13,60)            112.9564         estimate D2E/DX2                !
 ! A42   A(12,13,60)           126.2952         estimate D2E/DX2                !
 ! A43   A(12,14,15)           112.6344         estimate D2E/DX2                !
 ! A44   A(12,14,40)           107.8966         estimate D2E/DX2                !
 ! A45   A(12,14,41)           107.1287         estimate D2E/DX2                !
 ! A46   A(15,14,40)           113.1075         estimate D2E/DX2                !
 ! A47   A(15,14,41)           109.8192         estimate D2E/DX2                !
 ! A48   A(40,14,41)           105.8669         estimate D2E/DX2                !
 ! A49   A(14,15,16)           110.573          estimate D2E/DX2                !
 ! A50   A(14,15,42)           109.7635         estimate D2E/DX2                !
 ! A51   A(14,15,43)           109.4891         estimate D2E/DX2                !
 ! A52   A(16,15,42)           109.4056         estimate D2E/DX2                !
 ! A53   A(16,15,43)           110.7971         estimate D2E/DX2                !
 ! A54   A(42,15,43)           106.7338         estimate D2E/DX2                !
 ! A55   A(15,16,17)           110.347          estimate D2E/DX2                !
 ! A56   A(15,16,44)           111.1525         estimate D2E/DX2                !
 ! A57   A(15,16,45)           109.3172         estimate D2E/DX2                !
 ! A58   A(17,16,44)           109.4122         estimate D2E/DX2                !
 ! A59   A(17,16,45)           109.5803         estimate D2E/DX2                !
 ! A60   A(44,16,45)           106.9628         estimate D2E/DX2                !
 ! A61   A(11,17,16)           113.082          estimate D2E/DX2                !
 ! A62   A(11,17,46)           109.3715         estimate D2E/DX2                !
 ! A63   A(11,17,47)           108.1214         estimate D2E/DX2                !
 ! A64   A(16,17,46)           110.9738         estimate D2E/DX2                !
 ! A65   A(16,17,47)           109.0158         estimate D2E/DX2                !
 ! A66   A(46,17,47)           105.99           estimate D2E/DX2                !
 ! A67   A(7,18,19)            106.0748         estimate D2E/DX2                !
 ! A68   A(5,19,18)            100.6752         estimate D2E/DX2                !
 ! A69   A(5,19,20)            111.441          estimate D2E/DX2                !
 ! A70   A(5,19,26)            113.7573         estimate D2E/DX2                !
 ! A71   A(18,19,20)           107.6557         estimate D2E/DX2                !
 ! A72   A(18,19,26)           105.9667         estimate D2E/DX2                !
 ! A73   A(20,19,26)           115.8363         estimate D2E/DX2                !
 ! A74   A(19,20,21)           121.3571         estimate D2E/DX2                !
 ! A75   A(19,20,25)           119.8565         estimate D2E/DX2                !
 ! A76   A(21,20,25)           118.6298         estimate D2E/DX2                !
 ! A77   A(20,21,22)           120.6302         estimate D2E/DX2                !
 ! A78   A(20,21,48)           120.0763         estimate D2E/DX2                !
 ! A79   A(22,21,48)           119.2935         estimate D2E/DX2                !
 ! A80   A(21,22,23)           120.3469         estimate D2E/DX2                !
 ! A81   A(21,22,49)           119.3841         estimate D2E/DX2                !
 ! A82   A(23,22,49)           120.2679         estimate D2E/DX2                !
 ! A83   A(22,23,24)           119.4193         estimate D2E/DX2                !
 ! A84   A(22,23,50)           120.3103         estimate D2E/DX2                !
 ! A85   A(24,23,50)           120.27           estimate D2E/DX2                !
 ! A86   A(23,24,25)           120.2541         estimate D2E/DX2                !
 ! A87   A(23,24,51)           120.3256         estimate D2E/DX2                !
 ! A88   A(25,24,51)           119.4163         estimate D2E/DX2                !
 ! A89   A(20,25,24)           120.7191         estimate D2E/DX2                !
 ! A90   A(20,25,52)           119.9105         estimate D2E/DX2                !
 ! A91   A(24,25,52)           119.3549         estimate D2E/DX2                !
 ! A92   A(19,26,27)           119.3967         estimate D2E/DX2                !
 ! A93   A(19,26,31)           122.1295         estimate D2E/DX2                !
 ! A94   A(27,26,31)           118.364          estimate D2E/DX2                !
 ! A95   A(26,27,28)           120.9578         estimate D2E/DX2                !
 ! A96   A(26,27,53)           120.1893         estimate D2E/DX2                !
 ! A97   A(28,27,53)           118.8379         estimate D2E/DX2                !
 ! A98   A(27,28,29)           120.1225         estimate D2E/DX2                !
 ! A99   A(27,28,54)           119.6232         estimate D2E/DX2                !
 ! A100  A(29,28,54)           120.2539         estimate D2E/DX2                !
 ! A101  A(28,29,30)           119.4254         estimate D2E/DX2                !
 ! A102  A(28,29,55)           120.2279         estimate D2E/DX2                !
 ! A103  A(30,29,55)           120.3441         estimate D2E/DX2                !
 ! A104  A(29,30,31)           120.3704         estimate D2E/DX2                !
 ! A105  A(29,30,56)           120.2015         estimate D2E/DX2                !
 ! A106  A(31,30,56)           119.4272         estimate D2E/DX2                !
 ! A107  A(26,31,30)           120.7252         estimate D2E/DX2                !
 ! A108  A(26,31,57)           119.8345         estimate D2E/DX2                !
 ! A109  A(30,31,57)           119.4401         estimate D2E/DX2                !
 ! A110  A(4,32,33)            120.356          estimate D2E/DX2                !
 ! A111  A(4,32,58)            119.5962         estimate D2E/DX2                !
 ! A112  A(33,32,58)           120.0393         estimate D2E/DX2                !
 ! A113  A(1,33,32)            119.7333         estimate D2E/DX2                !
 ! A114  A(1,33,59)            120.3295         estimate D2E/DX2                !
 ! A115  A(32,33,59)           119.9346         estimate D2E/DX2                !
 ! A116  A(6,60,13)             80.559          estimate D2E/DX2                !
 ! A117  A(6,60,61)             95.397          estimate D2E/DX2                !
 ! A118  A(6,60,62)            127.7237         estimate D2E/DX2                !
 ! A119  A(13,60,61)           102.5557         estimate D2E/DX2                !
 ! A120  A(13,60,62)           100.6997         estimate D2E/DX2                !
 ! A121  A(61,60,62)           133.6906         estimate D2E/DX2                !
 ! D1    D(33,1,2,3)             1.3054         estimate D2E/DX2                !
 ! D2    D(33,1,2,35)         -178.6368         estimate D2E/DX2                !
 ! D3    D(34,1,2,3)          -179.6398         estimate D2E/DX2                !
 ! D4    D(34,1,2,35)            0.418          estimate D2E/DX2                !
 ! D5    D(2,1,33,32)           -0.5787         estimate D2E/DX2                !
 ! D6    D(2,1,33,59)          178.8219         estimate D2E/DX2                !
 ! D7    D(34,1,33,32)        -179.6355         estimate D2E/DX2                !
 ! D8    D(34,1,33,59)          -0.2349         estimate D2E/DX2                !
 ! D9    D(1,2,3,4)             -0.4822         estimate D2E/DX2                !
 ! D10   D(1,2,3,36)          -178.0399         estimate D2E/DX2                !
 ! D11   D(35,2,3,4)           179.4606         estimate D2E/DX2                !
 ! D12   D(35,2,3,36)            1.9029         estimate D2E/DX2                !
 ! D13   D(2,3,4,5)            176.1475         estimate D2E/DX2                !
 ! D14   D(2,3,4,32)            -1.057          estimate D2E/DX2                !
 ! D15   D(36,3,4,5)            -6.3055         estimate D2E/DX2                !
 ! D16   D(36,3,4,32)          176.49           estimate D2E/DX2                !
 ! D17   D(3,4,5,6)             27.4017         estimate D2E/DX2                !
 ! D18   D(3,4,5,19)           -92.2486         estimate D2E/DX2                !
 ! D19   D(3,4,5,37)           146.3289         estimate D2E/DX2                !
 ! D20   D(32,4,5,6)          -155.3397         estimate D2E/DX2                !
 ! D21   D(32,4,5,19)           85.01           estimate D2E/DX2                !
 ! D22   D(32,4,5,37)          -36.4125         estimate D2E/DX2                !
 ! D23   D(3,4,32,33)            1.7835         estimate D2E/DX2                !
 ! D24   D(3,4,32,58)         -179.2777         estimate D2E/DX2                !
 ! D25   D(5,4,32,33)         -175.5288         estimate D2E/DX2                !
 ! D26   D(5,4,32,58)            3.41           estimate D2E/DX2                !
 ! D27   D(4,5,6,7)           -142.9275         estimate D2E/DX2                !
 ! D28   D(4,5,6,60)            29.385          estimate D2E/DX2                !
 ! D29   D(19,5,6,7)           -16.0041         estimate D2E/DX2                !
 ! D30   D(19,5,6,60)          156.3085         estimate D2E/DX2                !
 ! D31   D(37,5,6,7)            97.7401         estimate D2E/DX2                !
 ! D32   D(37,5,6,60)          -89.9473         estimate D2E/DX2                !
 ! D33   D(4,5,19,18)          147.0646         estimate D2E/DX2                !
 ! D34   D(4,5,19,20)           33.1349         estimate D2E/DX2                !
 ! D35   D(4,5,19,26)         -100.0548         estimate D2E/DX2                !
 ! D36   D(6,5,19,18)           20.7633         estimate D2E/DX2                !
 ! D37   D(6,5,19,20)          -93.1664         estimate D2E/DX2                !
 ! D38   D(6,5,19,26)          133.644          estimate D2E/DX2                !
 ! D39   D(37,5,19,18)         -91.9028         estimate D2E/DX2                !
 ! D40   D(37,5,19,20)         154.1675         estimate D2E/DX2                !
 ! D41   D(37,5,19,26)          20.9778         estimate D2E/DX2                !
 ! D42   D(5,6,7,8)           -176.0649         estimate D2E/DX2                !
 ! D43   D(5,6,7,18)             4.2081         estimate D2E/DX2                !
 ! D44   D(60,6,7,8)             9.0603         estimate D2E/DX2                !
 ! D45   D(60,6,7,18)         -170.6667         estimate D2E/DX2                !
 ! D46   D(5,6,60,13)          179.3478         estimate D2E/DX2                !
 ! D47   D(5,6,60,61)          -78.7849         estimate D2E/DX2                !
 ! D48   D(5,6,60,62)           83.0716         estimate D2E/DX2                !
 ! D49   D(7,6,60,13)           -8.4776         estimate D2E/DX2                !
 ! D50   D(7,6,60,61)           93.3897         estimate D2E/DX2                !
 ! D51   D(7,6,60,62)         -104.7538         estimate D2E/DX2                !
 ! D52   D(6,7,8,9)            176.191          estimate D2E/DX2                !
 ! D53   D(6,7,8,13)            -3.1941         estimate D2E/DX2                !
 ! D54   D(18,7,8,9)            -4.0861         estimate D2E/DX2                !
 ! D55   D(18,7,8,13)          176.5288         estimate D2E/DX2                !
 ! D56   D(6,7,18,19)           10.8013         estimate D2E/DX2                !
 ! D57   D(8,7,18,19)         -168.9313         estimate D2E/DX2                !
 ! D58   D(7,8,9,10)          -178.5445         estimate D2E/DX2                !
 ! D59   D(7,8,9,38)             1.0984         estimate D2E/DX2                !
 ! D60   D(13,8,9,10)            0.7849         estimate D2E/DX2                !
 ! D61   D(13,8,9,38)         -179.5722         estimate D2E/DX2                !
 ! D62   D(7,8,13,12)          178.8676         estimate D2E/DX2                !
 ! D63   D(7,8,13,60)           -4.5904         estimate D2E/DX2                !
 ! D64   D(9,8,13,12)           -0.5305         estimate D2E/DX2                !
 ! D65   D(9,8,13,60)          176.0116         estimate D2E/DX2                !
 ! D66   D(8,9,10,11)           -0.1355         estimate D2E/DX2                !
 ! D67   D(8,9,10,39)          179.7961         estimate D2E/DX2                !
 ! D68   D(38,9,10,11)        -179.7709         estimate D2E/DX2                !
 ! D69   D(38,9,10,39)           0.1607         estimate D2E/DX2                !
 ! D70   D(9,10,11,12)          -0.7159         estimate D2E/DX2                !
 ! D71   D(9,10,11,17)         178.2219         estimate D2E/DX2                !
 ! D72   D(39,10,11,12)        179.3522         estimate D2E/DX2                !
 ! D73   D(39,10,11,17)         -1.71           estimate D2E/DX2                !
 ! D74   D(10,11,12,13)          0.9938         estimate D2E/DX2                !
 ! D75   D(10,11,12,14)       -177.9669         estimate D2E/DX2                !
 ! D76   D(17,11,12,13)       -177.9477         estimate D2E/DX2                !
 ! D77   D(17,11,12,14)          3.0916         estimate D2E/DX2                !
 ! D78   D(10,11,17,16)        162.5878         estimate D2E/DX2                !
 ! D79   D(10,11,17,46)         38.3743         estimate D2E/DX2                !
 ! D80   D(10,11,17,47)        -76.6059         estimate D2E/DX2                !
 ! D81   D(12,11,17,16)        -18.5015         estimate D2E/DX2                !
 ! D82   D(12,11,17,46)       -142.715          estimate D2E/DX2                !
 ! D83   D(12,11,17,47)        102.3048         estimate D2E/DX2                !
 ! D84   D(11,12,13,8)          -0.3878         estimate D2E/DX2                !
 ! D85   D(11,12,13,60)       -176.4365         estimate D2E/DX2                !
 ! D86   D(14,12,13,8)         178.6357         estimate D2E/DX2                !
 ! D87   D(14,12,13,60)          2.5869         estimate D2E/DX2                !
 ! D88   D(11,12,14,15)        -17.3155         estimate D2E/DX2                !
 ! D89   D(11,12,14,40)       -142.87           estimate D2E/DX2                !
 ! D90   D(11,12,14,41)        103.5417         estimate D2E/DX2                !
 ! D91   D(13,12,14,15)        163.6844         estimate D2E/DX2                !
 ! D92   D(13,12,14,40)         38.1299         estimate D2E/DX2                !
 ! D93   D(13,12,14,41)        -75.4584         estimate D2E/DX2                !
 ! D94   D(8,13,60,6)            7.1146         estimate D2E/DX2                !
 ! D95   D(8,13,60,61)         -86.3625         estimate D2E/DX2                !
 ! D96   D(8,13,60,62)         133.9709         estimate D2E/DX2                !
 ! D97   D(12,13,60,6)        -176.5769         estimate D2E/DX2                !
 ! D98   D(12,13,60,61)         89.9461         estimate D2E/DX2                !
 ! D99   D(12,13,60,62)        -49.7205         estimate D2E/DX2                !
 ! D100  D(12,14,15,16)         46.5223         estimate D2E/DX2                !
 ! D101  D(12,14,15,42)        -74.2722         estimate D2E/DX2                !
 ! D102  D(12,14,15,43)        168.875          estimate D2E/DX2                !
 ! D103  D(40,14,15,16)        169.1991         estimate D2E/DX2                !
 ! D104  D(40,14,15,42)         48.4047         estimate D2E/DX2                !
 ! D105  D(40,14,15,43)        -68.4481         estimate D2E/DX2                !
 ! D106  D(41,14,15,16)        -72.783          estimate D2E/DX2                !
 ! D107  D(41,14,15,42)        166.4226         estimate D2E/DX2                !
 ! D108  D(41,14,15,43)         49.5698         estimate D2E/DX2                !
 ! D109  D(14,15,16,17)        -62.8929         estimate D2E/DX2                !
 ! D110  D(14,15,16,44)        175.5348         estimate D2E/DX2                !
 ! D111  D(14,15,16,45)         57.6874         estimate D2E/DX2                !
 ! D112  D(42,15,16,17)         58.1144         estimate D2E/DX2                !
 ! D113  D(42,15,16,44)        -63.458          estimate D2E/DX2                !
 ! D114  D(42,15,16,45)        178.6947         estimate D2E/DX2                !
 ! D115  D(43,15,16,17)        175.5232         estimate D2E/DX2                !
 ! D116  D(43,15,16,44)         53.9508         estimate D2E/DX2                !
 ! D117  D(43,15,16,45)        -63.8965         estimate D2E/DX2                !
 ! D118  D(15,16,17,11)         47.782          estimate D2E/DX2                !
 ! D119  D(15,16,17,46)        171.1153         estimate D2E/DX2                !
 ! D120  D(15,16,17,47)        -72.5152         estimate D2E/DX2                !
 ! D121  D(44,16,17,11)        170.3803         estimate D2E/DX2                !
 ! D122  D(44,16,17,46)        -66.2865         estimate D2E/DX2                !
 ! D123  D(44,16,17,47)         50.083          estimate D2E/DX2                !
 ! D124  D(45,16,17,11)        -72.6406         estimate D2E/DX2                !
 ! D125  D(45,16,17,46)         50.6927         estimate D2E/DX2                !
 ! D126  D(45,16,17,47)        167.0622         estimate D2E/DX2                !
 ! D127  D(7,18,19,5)          -18.984          estimate D2E/DX2                !
 ! D128  D(7,18,19,20)          97.7833         estimate D2E/DX2                !
 ! D129  D(7,18,19,26)        -137.6918         estimate D2E/DX2                !
 ! D130  D(5,19,20,21)         100.0608         estimate D2E/DX2                !
 ! D131  D(5,19,20,25)         -75.3276         estimate D2E/DX2                !
 ! D132  D(18,19,20,21)         -9.4419         estimate D2E/DX2                !
 ! D133  D(18,19,20,25)        175.1697         estimate D2E/DX2                !
 ! D134  D(26,19,20,21)       -127.7917         estimate D2E/DX2                !
 ! D135  D(26,19,20,25)         56.8199         estimate D2E/DX2                !
 ! D136  D(5,19,26,27)         -44.6961         estimate D2E/DX2                !
 ! D137  D(5,19,26,31)         139.1776         estimate D2E/DX2                !
 ! D138  D(18,19,26,27)         64.9647         estimate D2E/DX2                !
 ! D139  D(18,19,26,31)       -111.1616         estimate D2E/DX2                !
 ! D140  D(20,19,26,27)       -175.7578         estimate D2E/DX2                !
 ! D141  D(20,19,26,31)          8.1159         estimate D2E/DX2                !
 ! D142  D(19,20,21,22)       -175.2158         estimate D2E/DX2                !
 ! D143  D(19,20,21,48)          4.7988         estimate D2E/DX2                !
 ! D144  D(25,20,21,22)          0.2276         estimate D2E/DX2                !
 ! D145  D(25,20,21,48)       -179.7577         estimate D2E/DX2                !
 ! D146  D(19,20,25,24)        175.3657         estimate D2E/DX2                !
 ! D147  D(19,20,25,52)         -3.1926         estimate D2E/DX2                !
 ! D148  D(21,20,25,24)         -0.148          estimate D2E/DX2                !
 ! D149  D(21,20,25,52)       -178.7062         estimate D2E/DX2                !
 ! D150  D(20,21,22,23)         -0.0741         estimate D2E/DX2                !
 ! D151  D(20,21,22,49)        179.5607         estimate D2E/DX2                !
 ! D152  D(48,21,22,23)        179.9114         estimate D2E/DX2                !
 ! D153  D(48,21,22,49)         -0.4538         estimate D2E/DX2                !
 ! D154  D(21,22,23,24)         -0.1624         estimate D2E/DX2                !
 ! D155  D(21,22,23,50)        179.6027         estimate D2E/DX2                !
 ! D156  D(49,22,23,24)       -179.794          estimate D2E/DX2                !
 ! D157  D(49,22,23,50)         -0.0289         estimate D2E/DX2                !
 ! D158  D(22,23,24,25)          0.2417         estimate D2E/DX2                !
 ! D159  D(22,23,24,51)        179.5065         estimate D2E/DX2                !
 ! D160  D(50,23,24,25)       -179.5234         estimate D2E/DX2                !
 ! D161  D(50,23,24,51)         -0.2586         estimate D2E/DX2                !
 ! D162  D(23,24,25,20)         -0.0862         estimate D2E/DX2                !
 ! D163  D(23,24,25,52)        178.4799         estimate D2E/DX2                !
 ! D164  D(51,24,25,20)       -179.3577         estimate D2E/DX2                !
 ! D165  D(51,24,25,52)         -0.7915         estimate D2E/DX2                !
 ! D166  D(19,26,27,28)       -178.0983         estimate D2E/DX2                !
 ! D167  D(19,26,27,53)          0.4771         estimate D2E/DX2                !
 ! D168  D(31,26,27,28)         -1.8261         estimate D2E/DX2                !
 ! D169  D(31,26,27,53)        176.7493         estimate D2E/DX2                !
 ! D170  D(19,26,31,30)        178.232          estimate D2E/DX2                !
 ! D171  D(19,26,31,57)         -1.6548         estimate D2E/DX2                !
 ! D172  D(27,26,31,30)          2.0674         estimate D2E/DX2                !
 ! D173  D(27,26,31,57)       -177.8195         estimate D2E/DX2                !
 ! D174  D(26,27,28,29)          0.3443         estimate D2E/DX2                !
 ! D175  D(26,27,28,54)       -179.8784         estimate D2E/DX2                !
 ! D176  D(53,27,28,29)       -178.25           estimate D2E/DX2                !
 ! D177  D(53,27,28,54)          1.5273         estimate D2E/DX2                !
 ! D178  D(27,28,29,30)          0.9274         estimate D2E/DX2                !
 ! D179  D(27,28,29,55)       -179.6524         estimate D2E/DX2                !
 ! D180  D(54,28,29,30)       -178.8485         estimate D2E/DX2                !
 ! D181  D(54,28,29,55)          0.5717         estimate D2E/DX2                !
 ! D182  D(28,29,30,31)         -0.6851         estimate D2E/DX2                !
 ! D183  D(28,29,30,56)        178.9615         estimate D2E/DX2                !
 ! D184  D(55,29,30,31)        179.8953         estimate D2E/DX2                !
 ! D185  D(55,29,30,56)         -0.458          estimate D2E/DX2                !
 ! D186  D(29,30,31,26)         -0.8369         estimate D2E/DX2                !
 ! D187  D(29,30,31,57)        179.0504         estimate D2E/DX2                !
 ! D188  D(56,30,31,26)        179.5137         estimate D2E/DX2                !
 ! D189  D(56,30,31,57)         -0.599          estimate D2E/DX2                !
 ! D190  D(4,32,33,1)           -0.9571         estimate D2E/DX2                !
 ! D191  D(4,32,33,59)         179.6399         estimate D2E/DX2                !
 ! D192  D(58,32,33,1)        -179.8912         estimate D2E/DX2                !
 ! D193  D(58,32,33,59)          0.7058         estimate D2E/DX2                !
 --------------------------------------------------------------------------------
 Trust Radius=3.00D-01 FncErr=1.00D-07 GrdErr=1.00D-06 EigMax=2.50D+02 EigMin=1.00D-04
 Number of steps in this run=    372 maximum allowed number of steps=    372.
 GradGradGradGradGradGradGradGradGradGradGradGradGradGradGradGradGradGrad

 Stoichiometry    C30H26F2N2NiO(3)
 Framework group  C1[X(C30H26F2N2NiO)]
 Deg. of freedom   180
 Full point group                 C1      NOp   1
 Largest Abelian subgroup         C1      NOp   1
 Largest concise Abelian subgroup C1      NOp   1
                         Standard orientation:                         
 ---------------------------------------------------------------------
 Center     Atomic      Atomic             Coordinates (Angstroms)
 Number     Number       Type             X           Y           Z
 ---------------------------------------------------------------------
      1          6           0       -3.467872   -3.922027   -0.646199
      2          6           0       -2.252386   -3.758090    0.018833
      3          6           0       -1.534674   -2.565880   -0.087756
      4          6           0       -2.041431   -1.531516   -0.880516
      5          6           0       -1.361869   -0.192321   -0.970280
      6          7           0        0.087841   -0.212148   -0.736317
      7          6           0        0.393974    0.853944   -0.091178
      8          6           0        1.783793    1.189509    0.231593
      9          6           0        2.181244    2.362781    0.858937
     10          6           0        3.547251    2.545540    1.067842
     11          6           0        4.466286    1.577694    0.659837
     12          6           0        3.972368    0.405856    0.045686
     13          7           0        2.659644    0.243055   -0.154985
     14          6           0        4.866581   -0.724595   -0.394067
     15          6           0        6.335306   -0.307034   -0.499421
     16          6           0        6.760275    0.484457    0.741438
     17          6           0        5.954006    1.785066    0.846388
     18          8           0       -0.595346    1.668398    0.294986
     19          6           0       -1.862066    0.918858    0.060837
     20          6           0       -2.283099    0.299556    1.384723
     21          6           0       -1.435274    0.311283    2.495103
     22          6           0       -1.795521   -0.347408    3.672045
     23          6           0       -3.008836   -1.025504    3.755625
     24          6           0       -3.864547   -1.038396    2.652737
     25          6           0       -3.505244   -0.383523    1.479113
     26          6           0       -2.835721    1.920496   -0.542021
     27          6           0       -2.565065    2.469962   -1.804800
     28          6           0       -3.413115    3.418390   -2.369771
     29          6           0       -4.548877    3.843233   -1.678032
     30          6           0       -4.813399    3.324477   -0.412534
     31          6           0       -3.959323    2.377447    0.154527
     32          6           0       -3.244788   -1.705857   -1.574235
     33          6           0       -3.962954   -2.893510   -1.450978
     34          1           0       -4.021499   -4.852290   -0.551722
     35          1           0       -1.851867   -4.563180    0.628348
     36          1           0       -0.571971   -2.461098    0.409931
     37          1           0       -1.513910    0.187809   -1.985556
     38          1           0        1.445323    3.098489    1.161774
     39          1           0        3.904672    3.450620    1.552348
     40          1           0        4.465172   -1.126446   -1.331822
     41          1           0        4.759925   -1.529963    0.348522
     42          1           0        6.482248    0.311973   -1.395300
     43          1           0        6.959991   -1.197248   -0.625434
     44          1           0        7.829698    0.720329    0.712769
     45          1           0        6.590899   -0.127017    1.638066
     46          1           0        6.134354    2.282329    1.807218
     47          1           0        6.301532    2.485702    0.072593
     48          1           0       -0.488588    0.834389    2.449361
     49          1           0       -1.117852   -0.331277    4.520561
     50          1           0       -3.285646   -1.543196    4.669439
     51          1           0       -4.810735   -1.569337    2.699041
     52          1           0       -4.169015   -0.423696    0.624047
     53          1           0       -1.672662    2.175796   -2.348165
     54          1           0       -3.183887    3.827868   -3.349272
     55          1           0       -5.214771    4.578984   -2.119649
     56          1           0       -5.684310    3.658689    0.143888
     57          1           0       -4.170792    1.995806    1.145313
     58          1           0       -3.626767   -0.900579   -2.198530
     59          1           0       -4.899096   -3.019240   -1.987919
     60         28           0        1.737986   -1.438784   -0.940365
     61          9           0        1.393007   -2.444424    0.562150
     62          9           0        2.745456   -1.711035   -2.431180
 ---------------------------------------------------------------------
 Rotational constants (GHZ):           0.1618139           0.0746598           0.0657045
 General basis read from cards:  (6D, 7F)
 ======================================================================================================
                                       Pseudopotential Parameters
 ======================================================================================================
  Center     Atomic      Valence      Angular      Power
  Number     Number     Electrons     Momentum     of R      Exponent        Coefficient   SO-Coeffient
 ======================================================================================================
    1          6
                                   No pseudopotential on this center.
    2          6
                                   No pseudopotential on this center.
    3          6
                                   No pseudopotential on this center.
    4          6
                                   No pseudopotential on this center.
    5          6
                                   No pseudopotential on this center.
    6          7
                                   No pseudopotential on this center.
    7          6
                                   No pseudopotential on this center.
    8          6
                                   No pseudopotential on this center.
    9          6
                                   No pseudopotential on this center.
   10          6
                                   No pseudopotential on this center.
   11          6
                                   No pseudopotential on this center.
   12          6
                                   No pseudopotential on this center.
   13          7
                                   No pseudopotential on this center.
   14          6
                                   No pseudopotential on this center.
   15          6
                                   No pseudopotential on this center.
   16          6
                                   No pseudopotential on this center.
   17          6
                                   No pseudopotential on this center.
   18          8
                                   No pseudopotential on this center.
   19          6
                                   No pseudopotential on this center.
   20          6
                                   No pseudopotential on this center.
   21          6
                                   No pseudopotential on this center.
   22          6
                                   No pseudopotential on this center.
   23          6
                                   No pseudopotential on this center.
   24          6
                                   No pseudopotential on this center.
   25          6
                                   No pseudopotential on this center.
   26          6
                                   No pseudopotential on this center.
   27          6
                                   No pseudopotential on this center.
   28          6
                                   No pseudopotential on this center.
   29          6
                                   No pseudopotential on this center.
   30          6
                                   No pseudopotential on this center.
   31          6
                                   No pseudopotential on this center.
   32          6
                                   No pseudopotential on this center.
   33          6
                                   No pseudopotential on this center.
   34          1
                                   No pseudopotential on this center.
   35          1
                                   No pseudopotential on this center.
   36          1
                                   No pseudopotential on this center.
   37          1
                                   No pseudopotential on this center.
   38          1
                                   No pseudopotential on this center.
   39          1
                                   No pseudopotential on this center.
   40          1
                                   No pseudopotential on this center.
   41          1
                                   No pseudopotential on this center.
   42          1
                                   No pseudopotential on this center.
   43          1
                                   No pseudopotential on this center.
   44          1
                                   No pseudopotential on this center.
   45          1
                                   No pseudopotential on this center.
   46          1
                                   No pseudopotential on this center.
   47          1
                                   No pseudopotential on this center.
   48          1
                                   No pseudopotential on this center.
   49          1
                                   No pseudopotential on this center.
   50          1
                                   No pseudopotential on this center.
   51          1
                                   No pseudopotential on this center.
   52          1
                                   No pseudopotential on this center.
   53          1
                                   No pseudopotential on this center.
   54          1
                                   No pseudopotential on this center.
   55          1
                                   No pseudopotential on this center.
   56          1
                                   No pseudopotential on this center.
   57          1
                                   No pseudopotential on this center.
   58          1
                                   No pseudopotential on this center.
   59          1
                                   No pseudopotential on this center.
   60         28           18
                                      D and up 
                                                     1      469.9324331      -10.00000000    0.00000000
                                                     2       85.4236411      -69.40848050    0.00000000
                                                     2       21.2674984      -12.09510200    0.00000000
                                      S - D
                                                     0      162.1686097        3.00000000    0.00000000
                                                     1      176.5333232       22.02536180    0.00000000
                                                     2       68.9562010      443.01810880    0.00000000
                                                     2       13.5792838      145.56964110    0.00000000
                                      P - D
                                                     0       69.0181506        5.00000000    0.00000000
                                                     1      275.5955596        4.98828240    0.00000000
                                                     2       47.1315453      256.69458530    0.00000000
                                                     2       12.9874075       78.47544500    0.00000000
   61          9
                                   No pseudopotential on this center.
   62          9
                                   No pseudopotential on this center.
 ======================================================================================================
 There are   654 symmetry adapted cartesian basis functions of A   symmetry.
 There are   651 symmetry adapted basis functions of A   symmetry.
   651 basis functions,  1238 primitive gaussians,   654 cartesian basis functions
   133 alpha electrons      131 beta electrons
       nuclear repulsion energy      4215.2994573029 Hartrees.
 NAtoms=   62 NActive=   62 NUniq=   62 SFac= 1.00D+00 NAtFMM=   60 NAOKFM=T Big=T
 Integral buffers will be    131072 words long.
 Raffenetti 2 integral format.
 Two-electron integral symmetry is turned on.
 Nuclear repulsion after empirical dispersion term =     4215.1330607765 Hartrees.
 One-electron integrals computed using PRISM.
 PrsmSu:  requested number of processors reduced to:  12 ShMem   1 Linda.
   1 Symmetry operations used in ECPInt.
 ECPInt:  NShTT=   22791 NPrTT=  142008 LenC2=   18059 LenP2D=   59400.
 LDataN:  DoStor=T MaxTD1= 6 Len=  172
 Number of processors reduced to  11 by ecpmxn.
 NBasis=   651 RedAO= T EigKep=  1.01D-06  NBF=   651
 NBsUse=   651 1.00D-06 EigRej= -1.00D+00 NBFU=   651
 ExpMin= 2.40D-02 ExpMax= 7.14D+04 ExpMxC= 1.07D+04 IAcc=3 IRadAn=         5 AccDes= 0.00D+00
 Harris functional with IExCor=  402 and IRadAn=       5 diagonalized for initial guess.
 HarFok:  IExCor=  402 AccDes= 0.00D+00 IRadAn=         5 IDoV= 1 UseB2=F ITyADJ=14
 ICtDFT=  3500011 ScaDFX=  1.000000  1.000000  1.000000  1.000000
 FoFCou: FMM=F IPFlag=           0 FMFlag=      100000 FMFlg1=        2001
         NFxFlg=           0 DoJE=T BraDBF=F KetDBF=T FulRan=T
         wScrn=  0.000000 ICntrl=       500 IOpCl=  0 I1Cent=   200000004 NGrid=           0
         NMat0=    1 NMatS0=      1 NMatT0=    0 NMatD0=    1 NMtDS0=    0 NMtDT0=    0
 Petite list used in FoFCou.
 Initial guess <Sx>= 0.0000 <Sy>= 0.0000 <Sz>= 1.0000 <S**2>= 2.0000 S= 1.0000
 Requested convergence on RMS density matrix=1.00D-08 within 128 cycles.
 Requested convergence on MAX density matrix=1.00D-06.
 Requested convergence on             energy=1.00D-06.
 No special actions if energy rises.
 Restarting incremental Fock formation.
 Restarting incremental Fock formation.
 SCF Done:  E(UB3LYP) =  -1712.90246437     A.U. after   46 cycles
            NFock= 46  Conv=0.20D-08     -V/T= 2.0467
 <Sx>= 0.0000 <Sy>= 0.0000 <Sz>= 1.0000 <S**2>= 2.0060 S= 1.0020
 <L.S>=  0.00000000000    
 Annihilation of the first spin contaminant:
 S**2 before annihilation     2.0060,   after     2.0000

 **********************************************************************

            Population analysis using the SCF Density.

 **********************************************************************

 Orbital symmetries:
 Alpha Orbitals:
       Occupied  (A) (A) (A) (A) (A) (A) (A) (A) (A) (A) (A) (A)
                 (A) (A) (A) (A) (A) (A) (A) (A) (A) (A) (A) (A)
                 (A) (A) (A) (A) (A) (A) (A) (A) (A) (A) (A) (A)
                 (A) (A) (A) (A) (A) (A) (A) (A) (A) (A) (A) (A)
                 (A) (A) (A) (A) (A) (A) (A) (A) (A) (A) (A) (A)
                 (A) (A) (A) (A) (A) (A) (A) (A) (A) (A) (A) (A)
                 (A) (A) (A) (A) (A) (A) (A) (A) (A) (A) (A) (A)
                 (A) (A) (A) (A) (A) (A) (A) (A) (A) (A) (A) (A)
                 (A) (A) (A) (A) (A) (A) (A) (A) (A) (A) (A) (A)
                 (A) (A) (A) (A) (A) (A) (A) (A) (A) (A) (A) (A)
                 (A) (A) (A) (A) (A) (A) (A) (A) (A) (A) (A) (A)
                 (A)
       Virtual   (A) (A) (A) (A) (A) (A) (A) (A) (A) (A) (A) (A)
                 (A) (A) (A) (A) (A) (A) (A) (A) (A) (A) (A) (A)
                 (A) (A) (A) (A) (A) (A) (A) (A) (A) (A) (A) (A)
                 (A) (A) (A) (A) (A) (A) (A) (A) (A) (A) (A) (A)
                 (A) (A) (A) (A) (A) (A) (A) (A) (A) (A) (A) (A)
                 (A) (A) (A) (A) (A) (A) (A) (A) (A) (A) (A) (A)
                 (A) (A) (A) (A) (A) (A) (A) (A) (A) (A) (A) (A)
                 (A) (A) (A) (A) (A) (A) (A) (A) (A) (A) (A) (A)
                 (A) (A) (A) (A) (A) (A) (A) (A) (A) (A) (A) (A)
                 (A) (A) (A) (A) (A) (A) (A) (A) (A) (A) (A) (A)
                 (A) (A) (A) (A) (A) (A) (A) (A) (A) (A) (A) (A)
                 (A) (A) (A) (A) (A) (A) (A) (A) (A) (A) (A) (A)
                 (A) (A) (A) (A) (A) (A) (A) (A) (A) (A) (A) (A)
                 (A) (A) (A) (A) (A) (A) (A) (A) (A) (A) (A) (A)
                 (A) (A) (A) (A) (A) (A) (A) (A) (A) (A) (A) (A)
                 (A) (A) (A) (A) (A) (A) (A) (A) (A) (A) (A) (A)
                 (A) (A) (A) (A) (A) (A) (A) (A) (A) (A) (A) (A)
                 (A) (A) (A) (A) (A) (A) (A) (A) (A) (A) (A) (A)
                 (A) (A) (A) (A) (A) (A) (A) (A) (A) (A) (A) (A)
                 (A) (A) (A) (A) (A) (A) (A) (A) (A) (A) (A) (A)
                 (A) (A) (A) (A) (A) (A) (A) (A) (A) (A) (A) (A)
                 (A) (A) (A) (A) (A) (A) (A) (A) (A) (A) (A) (A)
                 (A) (A) (A) (A) (A) (A) (A) (A) (A) (A) (A) (A)
                 (A) (A) (A) (A) (A) (A) (A) (A) (A) (A) (A) (A)
                 (A) (A) (A) (A) (A) (A) (A) (A) (A) (A) (A) (A)
                 (A) (A) (A) (A) (A) (A) (A) (A) (A) (A) (A) (A)
                 (A) (A) (A) (A) (A) (A) (A) (A) (A) (A) (A) (A)
                 (A) (A) (A) (A) (A) (A) (A) (A) (A) (A) (A) (A)
                 (A) (A) (A) (A) (A) (A) (A) (A) (A) (A) (A) (A)
                 (A) (A) (A) (A) (A) (A) (A) (A) (A) (A) (A) (A)
                 (A) (A) (A) (A) (A) (A) (A) (A) (A) (A) (A) (A)
                 (A) (A) (A) (A) (A) (A) (A) (A) (A) (A) (A) (A)
                 (A) (A) (A) (A) (A) (A) (A) (A) (A) (A) (A) (A)
                 (A) (A) (A) (A) (A) (A) (A) (A) (A) (A) (A) (A)
                 (A) (A) (A) (A) (A) (A) (A) (A) (A) (A) (A) (A)
                 (A) (A) (A) (A) (A) (A) (A) (A) (A) (A) (A) (A)
                 (A) (A) (A) (A) (A) (A) (A) (A) (A) (A) (A) (A)
                 (A) (A) (A) (A) (A) (A) (A) (A) (A) (A) (A) (A)
                 (A) (A) (A) (A) (A) (A) (A) (A) (A) (A) (A) (A)
                 (A) (A) (A) (A) (A) (A) (A) (A) (A) (A) (A) (A)
                 (A) (A) (A) (A) (A) (A) (A) (A) (A) (A) (A) (A)
                 (A) (A) (A) (A) (A) (A) (A) (A) (A) (A) (A) (A)
                 (A) (A) (A) (A) (A) (A) (A) (A) (A) (A) (A) (A)
                 (A) (A)
 Beta  Orbitals:
       Occupied  (A) (A) (A) (A) (A) (A) (A) (A) (A) (A) (A) (A)
                 (A) (A) (A) (A) (A) (A) (A) (A) (A) (A) (A) (A)
                 (A) (A) (A) (A) (A) (A) (A) (A) (A) (A) (A) (A)
                 (A) (A) (A) (A) (A) (A) (A) (A) (A) (A) (A) (A)
                 (A) (A) (A) (A) (A) (A) (A) (A) (A) (A) (A) (A)
                 (A) (A) (A) (A) (A) (A) (A) (A) (A) (A) (A) (A)
                 (A) (A) (A) (A) (A) (A) (A) (A) (A) (A) (A) (A)
                 (A) (A) (A) (A) (A) (A) (A) (A) (A) (A) (A) (A)
                 (A) (A) (A) (A) (A) (A) (A) (A) (A) (A) (A) (A)
                 (A) (A) (A) (A) (A) (A) (A) (A) (A) (A) (A) (A)
                 (A) (A) (A) (A) (A) (A) (A) (A) (A) (A) (A)
       Virtual   (A) (A) (A) (A) (A) (A) (A) (A) (A) (A) (A) (A)
                 (A) (A) (A) (A) (A) (A) (A) (A) (A) (A) (A) (A)
                 (A) (A) (A) (A) (A) (A) (A) (A) (A) (A) (A) (A)
                 (A) (A) (A) (A) (A) (A) (A) (A) (A) (A) (A) (A)
                 (A) (A) (A) (A) (A) (A) (A) (A) (A) (A) (A) (A)
                 (A) (A) (A) (A) (A) (A) (A) (A) (A) (A) (A) (A)
                 (A) (A) (A) (A) (A) (A) (A) (A) (A) (A) (A) (A)
                 (A) (A) (A) (A) (A) (A) (A) (A) (A) (A) (A) (A)
                 (A) (A) (A) (A) (A) (A) (A) (A) (A) (A) (A) (A)
                 (A) (A) (A) (A) (A) (A) (A) (A) (A) (A) (A) (A)
                 (A) (A) (A) (A) (A) (A) (A) (A) (A) (A) (A) (A)
                 (A) (A) (A) (A) (A) (A) (A) (A) (A) (A) (A) (A)
                 (A) (A) (A) (A) (A) (A) (A) (A) (A) (A) (A) (A)
                 (A) (A) (A) (A) (A) (A) (A) (A) (A) (A) (A) (A)
                 (A) (A) (A) (A) (A) (A) (A) (A) (A) (A) (A) (A)
                 (A) (A) (A) (A) (A) (A) (A) (A) (A) (A) (A) (A)
                 (A) (A) (A) (A) (A) (A) (A) (A) (A) (A) (A) (A)
                 (A) (A) (A) (A) (A) (A) (A) (A) (A) (A) (A) (A)
                 (A) (A) (A) (A) (A) (A) (A) (A) (A) (A) (A) (A)
                 (A) (A) (A) (A) (A) (A) (A) (A) (A) (A) (A) (A)
                 (A) (A) (A) (A) (A) (A) (A) (A) (A) (A) (A) (A)
                 (A) (A) (A) (A) (A) (A) (A) (A) (A) (A) (A) (A)
                 (A) (A) (A) (A) (A) (A) (A) (A) (A) (A) (A) (A)
                 (A) (A) (A) (A) (A) (A) (A) (A) (A) (A) (A) (A)
                 (A) (A) (A) (A) (A) (A) (A) (A) (A) (A) (A) (A)
                 (A) (A) (A) (A) (A) (A) (A) (A) (A) (A) (A) (A)
                 (A) (A) (A) (A) (A) (A) (A) (A) (A) (A) (A) (A)
                 (A) (A) (A) (A) (A) (A) (A) (A) (A) (A) (A) (A)
                 (A) (A) (A) (A) (A) (A) (A) (A) (A) (A) (A) (A)
                 (A) (A) (A) (A) (A) (A) (A) (A) (A) (A) (A) (A)
                 (A) (A) (A) (A) (A) (A) (A) (A) (A) (A) (A) (A)
                 (A) (A) (A) (A) (A) (A) (A) (A) (A) (A) (A) (A)
                 (A) (A) (A) (A) (A) (A) (A) (A) (A) (A) (A) (A)
                 (A) (A) (A) (A) (A) (A) (A) (A) (A) (A) (A) (A)
                 (A) (A) (A) (A) (A) (A) (A) (A) (A) (A) (A) (A)
                 (A) (A) (A) (A) (A) (A) (A) (A) (A) (A) (A) (A)
                 (A) (A) (A) (A) (A) (A) (A) (A) (A) (A) (A) (A)
                 (A) (A) (A) (A) (A) (A) (A) (A) (A) (A) (A) (A)
                 (A) (A) (A) (A) (A) (A) (A) (A) (A) (A) (A) (A)
                 (A) (A) (A) (A) (A) (A) (A) (A) (A) (A) (A) (A)
                 (A) (A) (A) (A) (A) (A) (A) (A) (A) (A) (A) (A)
                 (A) (A) (A) (A) (A) (A) (A) (A) (A) (A) (A) (A)
                 (A) (A) (A) (A) (A) (A) (A) (A) (A) (A) (A) (A)
                 (A) (A) (A) (A)
 The electronic state is 3-A.
 Alpha  occ. eigenvalues --  -24.55759 -24.54588 -19.21468 -14.38131 -14.36182
 Alpha  occ. eigenvalues --  -10.31253 -10.28440 -10.26617 -10.25699 -10.24426
 Alpha  occ. eigenvalues --  -10.23311 -10.23137 -10.23030 -10.21468 -10.21033
 Alpha  occ. eigenvalues --  -10.20546 -10.20405 -10.20385 -10.20345 -10.20232
 Alpha  occ. eigenvalues --  -10.20144 -10.19611 -10.19307 -10.19233 -10.19206
 Alpha  occ. eigenvalues --  -10.19152 -10.19133 -10.19022 -10.18984 -10.18470
 Alpha  occ. eigenvalues --  -10.18438 -10.18350 -10.18155 -10.17661 -10.16720
 Alpha  occ. eigenvalues --   -4.08952  -2.70405  -2.69373  -2.67833  -1.12216
 Alpha  occ. eigenvalues --   -1.01641  -1.00488  -0.99014  -0.94083  -0.87950
 Alpha  occ. eigenvalues --   -0.86031  -0.85590  -0.84611  -0.83532  -0.81525
 Alpha  occ. eigenvalues --   -0.78269  -0.76245  -0.75977  -0.75404  -0.75124
 Alpha  occ. eigenvalues --   -0.74623  -0.73376  -0.72021  -0.67859  -0.67094
 Alpha  occ. eigenvalues --   -0.65101  -0.63665  -0.62363  -0.61902  -0.60871
 Alpha  occ. eigenvalues --   -0.60276  -0.59655  -0.58286  -0.57710  -0.56668
 Alpha  occ. eigenvalues --   -0.54835  -0.53694  -0.53235  -0.51902  -0.50689
 Alpha  occ. eigenvalues --   -0.49726  -0.48899  -0.48342  -0.47388  -0.46855
 Alpha  occ. eigenvalues --   -0.46144  -0.45680  -0.45450  -0.45171  -0.44972
 Alpha  occ. eigenvalues --   -0.44351  -0.43982  -0.43743  -0.43371  -0.42993
 Alpha  occ. eigenvalues --   -0.42497  -0.41917  -0.41378  -0.41145  -0.41025
 Alpha  occ. eigenvalues --   -0.40405  -0.40230  -0.39796  -0.39432  -0.39243
 Alpha  occ. eigenvalues --   -0.37921  -0.37421  -0.36871  -0.36813  -0.36495
 Alpha  occ. eigenvalues --   -0.35992  -0.35372  -0.35134  -0.34994  -0.34583
 Alpha  occ. eigenvalues --   -0.34342  -0.34082  -0.33732  -0.33535  -0.33226
 Alpha  occ. eigenvalues --   -0.32869  -0.32579  -0.31229  -0.30177  -0.29177
 Alpha  occ. eigenvalues --   -0.28648  -0.28330  -0.26610  -0.26468  -0.26251
 Alpha  occ. eigenvalues --   -0.25585  -0.25144  -0.24793  -0.24453  -0.23902
 Alpha  occ. eigenvalues --   -0.23563  -0.23395  -0.23215
 Alpha virt. eigenvalues --   -0.08175  -0.04647  -0.02827  -0.01832  -0.00794
 Alpha virt. eigenvalues --   -0.00287   0.00461   0.00918   0.01725   0.02647
 Alpha virt. eigenvalues --    0.03293   0.03716   0.04591   0.08436   0.08961
 Alpha virt. eigenvalues --    0.09098   0.09816   0.10175   0.10445   0.11289
 Alpha virt. eigenvalues --    0.11615   0.12640   0.13090   0.13120   0.13557
 Alpha virt. eigenvalues --    0.13736   0.14188   0.14384   0.14952   0.15126
 Alpha virt. eigenvalues --    0.15495   0.15924   0.16141   0.16173   0.16923
 Alpha virt. eigenvalues --    0.17292   0.17448   0.17558   0.17818   0.18298
 Alpha virt. eigenvalues --    0.18579   0.18691   0.19202   0.19484   0.19565
 Alpha virt. eigenvalues --    0.20384   0.20659   0.20939   0.21579   0.22205
 Alpha virt. eigenvalues --    0.23083   0.23240   0.24199   0.24924   0.25298
 Alpha virt. eigenvalues --    0.25799   0.26043   0.26623   0.27338   0.27855
 Alpha virt. eigenvalues --    0.28431   0.29207   0.29296   0.29762   0.30435
 Alpha virt. eigenvalues --    0.30563   0.31280   0.31686   0.32163   0.33305
 Alpha virt. eigenvalues --    0.33463   0.34000   0.34579   0.35282   0.35651
 Alpha virt. eigenvalues --    0.35855   0.36813   0.37564   0.39091   0.39853
 Alpha virt. eigenvalues --    0.41299   0.44075   0.45903   0.46729   0.47045
 Alpha virt. eigenvalues --    0.47601   0.47798   0.48682   0.50068   0.50922
 Alpha virt. eigenvalues --    0.51467   0.51961   0.52283   0.52729   0.52974
 Alpha virt. eigenvalues --    0.53620   0.53796   0.54213   0.54290   0.55005
 Alpha virt. eigenvalues --    0.55385   0.55508   0.55885   0.56355   0.57025
 Alpha virt. eigenvalues --    0.57212   0.57886   0.57958   0.58144   0.58639
 Alpha virt. eigenvalues --    0.58860   0.59204   0.59655   0.59782   0.60102
 Alpha virt. eigenvalues --    0.60472   0.60632   0.60719   0.61096   0.61337
 Alpha virt. eigenvalues --    0.61598   0.61933   0.62173   0.62242   0.62858
 Alpha virt. eigenvalues --    0.63078   0.63492   0.63654   0.64074   0.64455
 Alpha virt. eigenvalues --    0.64790   0.65147   0.65557   0.66108   0.66522
 Alpha virt. eigenvalues --    0.67063   0.67224   0.67711   0.68198   0.69493
 Alpha virt. eigenvalues --    0.69872   0.70618   0.70827   0.71519   0.71909
 Alpha virt. eigenvalues --    0.73484   0.74568   0.75062   0.76179   0.76509
 Alpha virt. eigenvalues --    0.77379   0.78338   0.79195   0.79410   0.80575
 Alpha virt. eigenvalues --    0.80992   0.81879   0.82453   0.82744   0.82999
 Alpha virt. eigenvalues --    0.83349   0.83476   0.83778   0.84008   0.84224
 Alpha virt. eigenvalues --    0.84681   0.84859   0.85205   0.85847   0.86000
 Alpha virt. eigenvalues --    0.87093   0.87264   0.87459   0.88303   0.88532
 Alpha virt. eigenvalues --    0.89031   0.90119   0.90406   0.90999   0.91662
 Alpha virt. eigenvalues --    0.91985   0.92043   0.92241   0.92880   0.93518
 Alpha virt. eigenvalues --    0.93796   0.94466   0.94691   0.95219   0.95496
 Alpha virt. eigenvalues --    0.95691   0.96276   0.97006   0.97836   0.98723
 Alpha virt. eigenvalues --    0.98960   0.99983   1.00472   1.01462   1.02471
 Alpha virt. eigenvalues --    1.03279   1.03894   1.04659   1.04766   1.05431
 Alpha virt. eigenvalues --    1.06940   1.07552   1.07871   1.08209   1.08728
 Alpha virt. eigenvalues --    1.09582   1.10127   1.11021   1.12409   1.12956
 Alpha virt. eigenvalues --    1.13792   1.14453   1.15567   1.16181   1.16984
 Alpha virt. eigenvalues --    1.18146   1.18406   1.19097   1.19350   1.20092
 Alpha virt. eigenvalues --    1.21329   1.21559   1.22224   1.23043   1.24550
 Alpha virt. eigenvalues --    1.26379   1.26917   1.27552   1.28633   1.30038
 Alpha virt. eigenvalues --    1.30725   1.30949   1.34657   1.36147   1.36324
 Alpha virt. eigenvalues --    1.36936   1.38065   1.38683   1.40145   1.41521
 Alpha virt. eigenvalues --    1.41802   1.42319   1.43190   1.43438   1.43737
 Alpha virt. eigenvalues --    1.44042   1.44348   1.45086   1.45746   1.46438
 Alpha virt. eigenvalues --    1.46550   1.46831   1.47871   1.48112   1.48781
 Alpha virt. eigenvalues --    1.49242   1.49999   1.50321   1.50625   1.50945
 Alpha virt. eigenvalues --    1.51299   1.51543   1.51878   1.52834   1.53331
 Alpha virt. eigenvalues --    1.55157   1.55711   1.57654   1.58933   1.60499
 Alpha virt. eigenvalues --    1.62180   1.63704   1.65338   1.66191   1.68182
 Alpha virt. eigenvalues --    1.68574   1.69108   1.70140   1.71098   1.72163
 Alpha virt. eigenvalues --    1.72941   1.74368   1.75769   1.76410   1.77387
 Alpha virt. eigenvalues --    1.78278   1.78663   1.79879   1.80933   1.81444
 Alpha virt. eigenvalues --    1.81917   1.82665   1.83687   1.84213   1.84345
 Alpha virt. eigenvalues --    1.85703   1.86731   1.87150   1.87421   1.88387
 Alpha virt. eigenvalues --    1.89432   1.89935   1.90392   1.90765   1.90863
 Alpha virt. eigenvalues --    1.91288   1.91510   1.92528   1.92735   1.92954
 Alpha virt. eigenvalues --    1.93918   1.94716   1.95392   1.96094   1.96919
 Alpha virt. eigenvalues --    1.97361   1.97639   1.98428   1.99188   1.99973
 Alpha virt. eigenvalues --    2.00330   2.00839   2.01586   2.01976   2.03096
 Alpha virt. eigenvalues --    2.04524   2.05243   2.06312   2.06630   2.06970
 Alpha virt. eigenvalues --    2.07164   2.08747   2.09444   2.10003   2.11711
 Alpha virt. eigenvalues --    2.12197   2.12830   2.13298   2.13547   2.14463
 Alpha virt. eigenvalues --    2.14786   2.15396   2.15728   2.16253   2.17000
 Alpha virt. eigenvalues --    2.17214   2.17504   2.17742   2.18970   2.19579
 Alpha virt. eigenvalues --    2.19863   2.20408   2.20818   2.22165   2.22560
 Alpha virt. eigenvalues --    2.24213   2.24696   2.24867   2.25890   2.26824
 Alpha virt. eigenvalues --    2.27486   2.28859   2.28918   2.30091   2.30496
 Alpha virt. eigenvalues --    2.30897   2.31287   2.31580   2.32403   2.32872
 Alpha virt. eigenvalues --    2.34103   2.36150   2.36773   2.38100   2.38786
 Alpha virt. eigenvalues --    2.39714   2.40277   2.41042   2.42083   2.42888
 Alpha virt. eigenvalues --    2.43642   2.44756   2.46822   2.47531   2.48794
 Alpha virt. eigenvalues --    2.52249   2.53091   2.54435   2.54833   2.56378
 Alpha virt. eigenvalues --    2.57516   2.58175   2.58394   2.58470   2.60234
 Alpha virt. eigenvalues --    2.60543   2.60802   2.61671   2.61847   2.62556
 Alpha virt. eigenvalues --    2.63860   2.64683   2.65038   2.66072   2.66902
 Alpha virt. eigenvalues --    2.68039   2.68507   2.69487   2.70328   2.71153
 Alpha virt. eigenvalues --    2.71968   2.72612   2.72835   2.73808   2.74311
 Alpha virt. eigenvalues --    2.75017   2.75386   2.75805   2.76363   2.77073
 Alpha virt. eigenvalues --    2.78177   2.78634   2.79348   2.79548   2.81427
 Alpha virt. eigenvalues --    2.83277   2.85690   2.87263   2.88038   2.90997
 Alpha virt. eigenvalues --    2.92428   2.92819   2.95365   2.99180   3.01750
 Alpha virt. eigenvalues --    3.04404   3.07091   3.07571   3.12329   3.13997
 Alpha virt. eigenvalues --    3.16210   3.30700   3.35413   3.40007   3.42268
 Alpha virt. eigenvalues --    3.42957   3.44503   3.54526   3.57597   3.76460
 Alpha virt. eigenvalues --    3.96332   4.07785   4.08073   4.08830   4.10432
 Alpha virt. eigenvalues --    4.10867   4.11506   4.12305   4.12936   4.15296
 Alpha virt. eigenvalues --    4.16350   4.18653   4.19340   4.23763   4.25121
 Alpha virt. eigenvalues --    4.26910   4.27560   4.30140   4.33739   4.36158
 Alpha virt. eigenvalues --    4.36475   4.37547   4.40885   4.45918   4.50278
 Alpha virt. eigenvalues --    4.51555   4.53714   4.54544   4.55644   4.60503
 Alpha virt. eigenvalues --    4.70852   4.74061   4.74804   4.80812   4.86222
 Alpha virt. eigenvalues --    4.98781   5.12134   5.90911   6.01705   6.06301
 Alpha virt. eigenvalues --    6.12377   6.24163  11.33317  17.43753  17.79041
 Alpha virt. eigenvalues --   17.85561  18.18906  18.60921  22.79136  22.94663
 Alpha virt. eigenvalues --   23.07222  26.29850  57.01295 118.87872 118.98168
 Alpha virt. eigenvalues --  119.04510 134.97712 381.85665 927.03058 927.34895
 Alpha virt. eigenvalues --  928.121931467.67032**********
  Beta  occ. eigenvalues --  -24.55468 -24.54343 -19.21466 -14.37922 -14.36044
  Beta  occ. eigenvalues --  -10.31260 -10.28433 -10.26625 -10.25708 -10.24419
  Beta  occ. eigenvalues --  -10.23319 -10.23127 -10.23023 -10.21467 -10.21032
  Beta  occ. eigenvalues --  -10.20545 -10.20405 -10.20386 -10.20345 -10.20232
  Beta  occ. eigenvalues --  -10.20144 -10.19611 -10.19306 -10.19233 -10.19206
  Beta  occ. eigenvalues --  -10.19152 -10.19133 -10.19021 -10.18985 -10.18467
  Beta  occ. eigenvalues --  -10.18438 -10.18349 -10.18155 -10.17661 -10.16721
  Beta  occ. eigenvalues --   -3.98029  -2.58049  -2.57781  -2.57169  -1.12196
  Beta  occ. eigenvalues --   -1.00935  -0.99865  -0.98808  -0.93932  -0.87945
  Beta  occ. eigenvalues --   -0.86026  -0.85562  -0.84598  -0.83494  -0.81519
  Beta  occ. eigenvalues --   -0.78257  -0.76235  -0.75975  -0.75386  -0.75120
  Beta  occ. eigenvalues --   -0.74622  -0.73376  -0.72008  -0.67832  -0.67066
  Beta  occ. eigenvalues --   -0.65074  -0.63597  -0.62357  -0.61883  -0.60853
  Beta  occ. eigenvalues --   -0.60270  -0.59651  -0.58266  -0.57671  -0.56624
  Beta  occ. eigenvalues --   -0.54745  -0.53657  -0.53150  -0.51882  -0.50656
  Beta  occ. eigenvalues --   -0.49696  -0.48860  -0.48321  -0.47354  -0.46829
  Beta  occ. eigenvalues --   -0.46056  -0.45618  -0.45432  -0.45142  -0.44859
  Beta  occ. eigenvalues --   -0.44261  -0.43893  -0.43505  -0.43310  -0.42949
  Beta  occ. eigenvalues --   -0.42433  -0.41659  -0.41302  -0.41137  -0.40962
  Beta  occ. eigenvalues --   -0.40379  -0.40045  -0.39453  -0.38068  -0.37502
  Beta  occ. eigenvalues --   -0.37024  -0.36818  -0.36305  -0.35474  -0.35063
  Beta  occ. eigenvalues --   -0.34894  -0.34646  -0.34468  -0.34306  -0.33902
  Beta  occ. eigenvalues --   -0.33817  -0.33617  -0.33396  -0.32460  -0.31854
  Beta  occ. eigenvalues --   -0.31281  -0.30678  -0.29271  -0.29064  -0.27605
  Beta  occ. eigenvalues --   -0.27448  -0.26501  -0.26288  -0.26221  -0.25902
  Beta  occ. eigenvalues --   -0.25182  -0.24937  -0.23900  -0.23339  -0.22385
  Beta  occ. eigenvalues --   -0.21211
  Beta virt. eigenvalues --   -0.08139  -0.04625  -0.03216  -0.02775  -0.01830
  Beta virt. eigenvalues --   -0.01611  -0.00718  -0.00282   0.00473   0.00954
  Beta virt. eigenvalues --    0.01789   0.02770   0.03320   0.03915   0.04637
  Beta virt. eigenvalues --    0.08565   0.08969   0.09144   0.09899   0.10242
  Beta virt. eigenvalues --    0.10690   0.11327   0.12097   0.12794   0.13157
  Beta virt. eigenvalues --    0.13216   0.13622   0.13764   0.14253   0.14430
  Beta virt. eigenvalues --    0.14994   0.15192   0.15521   0.15939   0.16155
  Beta virt. eigenvalues --    0.16201   0.16967   0.17345   0.17481   0.17585
  Beta virt. eigenvalues --    0.17859   0.18313   0.18616   0.18717   0.19246
  Beta virt. eigenvalues --    0.19497   0.19593   0.20440   0.20717   0.20971
  Beta virt. eigenvalues --    0.21636   0.22296   0.23096   0.23320   0.24263
  Beta virt. eigenvalues --    0.25090   0.25351   0.25831   0.26423   0.26692
  Beta virt. eigenvalues --    0.27427   0.27911   0.28553   0.29281   0.29335
  Beta virt. eigenvalues --    0.29921   0.30566   0.30780   0.31371   0.31840
  Beta virt. eigenvalues --    0.32238   0.33439   0.33666   0.34132   0.34678
  Beta virt. eigenvalues --    0.35344   0.35764   0.35915   0.36892   0.37643
  Beta virt. eigenvalues --    0.39138   0.40059   0.41375   0.44107   0.45957
  Beta virt. eigenvalues --    0.46812   0.47200   0.47633   0.47872   0.48786
  Beta virt. eigenvalues --    0.50088   0.50950   0.51498   0.51969   0.52295
  Beta virt. eigenvalues --    0.52750   0.53045   0.53669   0.53901   0.54319
  Beta virt. eigenvalues --    0.54325   0.55071   0.55418   0.55591   0.55913
  Beta virt. eigenvalues --    0.56373   0.57172   0.57292   0.57917   0.57966
  Beta virt. eigenvalues --    0.58183   0.58672   0.58969   0.59210   0.59694
  Beta virt. eigenvalues --    0.59843   0.60130   0.60540   0.60659   0.60764
  Beta virt. eigenvalues --    0.61138   0.61351   0.61621   0.61951   0.62201
  Beta virt. eigenvalues --    0.62283   0.62919   0.63164   0.63622   0.63732
  Beta virt. eigenvalues --    0.64197   0.64532   0.65116   0.65390   0.65676
  Beta virt. eigenvalues --    0.66392   0.66591   0.67132   0.67335   0.67807
  Beta virt. eigenvalues --    0.68268   0.69532   0.70048   0.70737   0.71003
  Beta virt. eigenvalues --    0.71551   0.72100   0.73646   0.74662   0.75377
  Beta virt. eigenvalues --    0.76234   0.76628   0.77448   0.78373   0.79268
  Beta virt. eigenvalues --    0.79476   0.80634   0.81091   0.82115   0.82483
  Beta virt. eigenvalues --    0.82781   0.83046   0.83380   0.83494   0.83816
  Beta virt. eigenvalues --    0.84076   0.84252   0.84714   0.84916   0.85240
  Beta virt. eigenvalues --    0.85877   0.86022   0.87172   0.87297   0.87553
  Beta virt. eigenvalues --    0.88366   0.88664   0.89552   0.90178   0.90471
  Beta virt. eigenvalues --    0.91121   0.91765   0.92030   0.92214   0.92333
  Beta virt. eigenvalues --    0.93184   0.93592   0.93847   0.94575   0.94853
  Beta virt. eigenvalues --    0.95333   0.95584   0.95772   0.96323   0.97270
  Beta virt. eigenvalues --    0.97919   0.98851   0.99165   1.00178   1.00796
  Beta virt. eigenvalues --    1.01565   1.02626   1.03571   1.04058   1.04855
  Beta virt. eigenvalues --    1.05010   1.05872   1.07039   1.07845   1.08111
  Beta virt. eigenvalues --    1.08349   1.08795   1.09680   1.10223   1.11284
  Beta virt. eigenvalues --    1.12531   1.12995   1.14011   1.14521   1.15616
  Beta virt. eigenvalues --    1.16441   1.17032   1.18187   1.18437   1.19178
  Beta virt. eigenvalues --    1.19513   1.20171   1.21347   1.21577   1.22250
  Beta virt. eigenvalues --    1.23097   1.24608   1.26452   1.26946   1.27610
  Beta virt. eigenvalues --    1.28649   1.30154   1.30837   1.30989   1.34969
  Beta virt. eigenvalues --    1.36288   1.36777   1.37135   1.38192   1.38744
  Beta virt. eigenvalues --    1.40216   1.41654   1.41819   1.42357   1.43262
  Beta virt. eigenvalues --    1.43524   1.43773   1.44332   1.44407   1.45159
  Beta virt. eigenvalues --    1.45783   1.46468   1.46639   1.46994   1.47899
  Beta virt. eigenvalues --    1.48133   1.48788   1.49259   1.50014   1.50340
  Beta virt. eigenvalues --    1.50731   1.51059   1.51355   1.51716   1.52057
  Beta virt. eigenvalues --    1.52974   1.53394   1.55299   1.55861   1.57804
  Beta virt. eigenvalues --    1.59102   1.60598   1.62239   1.63805   1.65437
  Beta virt. eigenvalues --    1.66345   1.68276   1.68689   1.69255   1.70208
  Beta virt. eigenvalues --    1.71261   1.72325   1.73059   1.74472   1.75871
  Beta virt. eigenvalues --    1.76647   1.77415   1.78498   1.78696   1.79915
  Beta virt. eigenvalues --    1.81019   1.81629   1.81956   1.82700   1.83745
  Beta virt. eigenvalues --    1.84319   1.84390   1.85792   1.86961   1.87222
  Beta virt. eigenvalues --    1.87595   1.88467   1.89515   1.90045   1.90415
  Beta virt. eigenvalues --    1.90884   1.90987   1.91336   1.91921   1.92612
  Beta virt. eigenvalues --    1.92773   1.93303   1.93951   1.94941   1.95480
  Beta virt. eigenvalues --    1.96615   1.97060   1.97422   1.97776   1.98517
  Beta virt. eigenvalues --    1.99241   2.00083   2.00385   2.01128   2.01735
  Beta virt. eigenvalues --    2.02327   2.03192   2.04574   2.05285   2.06435
  Beta virt. eigenvalues --    2.06775   2.07218   2.07299   2.08837   2.09665
  Beta virt. eigenvalues --    2.10160   2.11785   2.12365   2.13067   2.13412
  Beta virt. eigenvalues --    2.13696   2.14506   2.14839   2.15439   2.15837
  Beta virt. eigenvalues --    2.16317   2.17101   2.17273   2.17603   2.17794
  Beta virt. eigenvalues --    2.19153   2.19667   2.20022   2.20542   2.20924
  Beta virt. eigenvalues --    2.22366   2.22604   2.24593   2.24904   2.25065
  Beta virt. eigenvalues --    2.26158   2.26971   2.27799   2.28909   2.28933
  Beta virt. eigenvalues --    2.30114   2.30748   2.30964   2.31316   2.31691
  Beta virt. eigenvalues --    2.32586   2.32964   2.34165   2.36515   2.36937
  Beta virt. eigenvalues --    2.38257   2.39413   2.40103   2.40473   2.41325
  Beta virt. eigenvalues --    2.42379   2.43157   2.44140   2.45258   2.47153
  Beta virt. eigenvalues --    2.47926   2.50237   2.52687   2.53744   2.55052
  Beta virt. eigenvalues --    2.55399   2.56656   2.58032   2.58485   2.58611
  Beta virt. eigenvalues --    2.58722   2.60625   2.60848   2.61559   2.61914
  Beta virt. eigenvalues --    2.62488   2.63074   2.64515   2.64782   2.65616
  Beta virt. eigenvalues --    2.66203   2.67523   2.68490   2.69538   2.70005
  Beta virt. eigenvalues --    2.70409   2.72228   2.72785   2.72947   2.73843
  Beta virt. eigenvalues --    2.74126   2.74727   2.75456   2.75917   2.75959
  Beta virt. eigenvalues --    2.76771   2.77442   2.78535   2.79239   2.79521
  Beta virt. eigenvalues --    2.80478   2.81676   2.83374   2.87085   2.87752
  Beta virt. eigenvalues --    2.88400   2.91274   2.93040   2.93270   2.95860
  Beta virt. eigenvalues --    3.00380   3.01932   3.04606   3.07159   3.07637
  Beta virt. eigenvalues --    3.12366   3.14203   3.16580   3.30900   3.38088
  Beta virt. eigenvalues --    3.40026   3.42270   3.42961   3.44967   3.57438
  Beta virt. eigenvalues --    3.61512   3.80938   3.99869   4.07829   4.08124
  Beta virt. eigenvalues --    4.08939   4.10454   4.10935   4.11518   4.12572
  Beta virt. eigenvalues --    4.12948   4.15304   4.16509   4.18817   4.19596
  Beta virt. eigenvalues --    4.23877   4.25346   4.26974   4.27615   4.30166
  Beta virt. eigenvalues --    4.33750   4.36173   4.36519   4.37572   4.40983
  Beta virt. eigenvalues --    4.45982   4.50391   4.51578   4.53767   4.54900
  Beta virt. eigenvalues --    4.55815   4.60536   4.70872   4.74067   4.74874
  Beta virt. eigenvalues --    4.80860   4.86520   4.98960   5.15292   5.93776
  Beta virt. eigenvalues --    6.05702   6.09690   6.22239   6.34920  11.38997
  Beta virt. eigenvalues --   17.45307  17.81309  17.87623  18.23752  18.66284
  Beta virt. eigenvalues --   22.90706  23.06864  23.19640  26.38800  57.11340
  Beta virt. eigenvalues --  118.93325 119.04693 119.12063 135.05028 381.29089
  Beta virt. eigenvalues --  923.71115 923.98699 924.637341458.18157**********
          Condensed to atoms (all electrons):
          Atomic-Atomic Spin Densities.
 Mulliken charges and spin densities:
               1          2
     1  C   -0.124497  -0.000111
     2  C   -0.148480   0.000225
     3  C   -0.183182  -0.000331
     4  C    0.139484   0.000519
     5  C   -0.055215   0.000812
     6  N   -0.551607   0.044436
     7  C    0.618637  -0.004155
     8  C    0.336049  -0.004853
     9  C   -0.175284   0.003700
    10  C   -0.153869  -0.006444
    11  C    0.115338   0.005476
    12  C    0.342726  -0.008488
    13  N   -0.639114   0.067076
    14  C   -0.393496   0.002165
    15  C   -0.280284  -0.000178
    16  C   -0.274442   0.000015
    17  C   -0.351206   0.000403
    18  O   -0.535745   0.000085
    19  C    0.109075   0.003528
    20  C    0.110337  -0.000804
    21  C   -0.160097   0.000609
    22  C   -0.128717  -0.000338
    23  C   -0.121915   0.000549
    24  C   -0.135227  -0.000337
    25  C   -0.155894   0.000539
    26  C    0.149147  -0.000213
    27  C   -0.186696   0.000378
    28  C   -0.135480  -0.000217
    29  C   -0.121719   0.000412
    30  C   -0.135644  -0.000238
    31  C   -0.182996   0.000521
    32  C   -0.189515  -0.000200
    33  C   -0.137526   0.000210
    34  H    0.126612   0.000001
    35  H    0.143130  -0.000007
    36  H    0.222275  -0.000510
    37  H    0.175966   0.000223
    38  H    0.179115   0.000609
    39  H    0.151579   0.000237
    40  H    0.241050  -0.000745
    41  H    0.194787  -0.000422
    42  H    0.149043   0.000005
    43  H    0.154917   0.000049
    44  H    0.143401  -0.000020
    45  H    0.151398   0.000003
    46  H    0.155629   0.000285
    47  H    0.167273   0.000079
    48  H    0.138278   0.000011
    49  H    0.135523   0.000016
    50  H    0.133072  -0.000026
    51  H    0.135033   0.000012
    52  H    0.149808  -0.000026
    53  H    0.149509  -0.000006
    54  H    0.139095   0.000007
    55  H    0.137272  -0.000020
    56  H    0.137991   0.000026
    57  H    0.157967  -0.000006
    58  H    0.127914   0.000009
    59  H    0.126711  -0.000012
    60  Ni   0.657003   1.749982
    61  F   -0.467810   0.067992
    62  F   -0.476491   0.077500
 Sum of Mulliken charges =  -0.00000   2.00000
 Mulliken charges and spin densities with hydrogens summed into heavy atoms:
               1          2
     1  C    0.002115  -0.000109
     2  C   -0.005350   0.000218
     3  C    0.039092  -0.000840
     4  C    0.139484   0.000519
     5  C    0.120751   0.001035
     6  N   -0.551607   0.044436
     7  C    0.618637  -0.004155
     8  C    0.336049  -0.004853
     9  C    0.003831   0.004309
    10  C   -0.002290  -0.006207
    11  C    0.115338   0.005476
    12  C    0.342726  -0.008488
    13  N   -0.639114   0.067076
    14  C    0.042341   0.000998
    15  C    0.023676  -0.000125
    16  C    0.020358  -0.000003
    17  C   -0.028304   0.000767
    18  O   -0.535745   0.000085
    19  C    0.109075   0.003528
    20  C    0.110337  -0.000804
    21  C   -0.021819   0.000619
    22  C    0.006806  -0.000322
    23  C    0.011158   0.000523
    24  C   -0.000193  -0.000324
    25  C   -0.006085   0.000514
    26  C    0.149147  -0.000213
    27  C   -0.037187   0.000372
    28  C    0.003616  -0.000210
    29  C    0.015554   0.000392
    30  C    0.002347  -0.000212
    31  C   -0.025029   0.000515
    32  C   -0.061601  -0.000191
    33  C   -0.010815   0.000198
    60  Ni   0.657003   1.749982
    61  F   -0.467810   0.067992
    62  F   -0.476491   0.077500
 Electronic spatial extent (au):  <R**2>=          17288.6024
 Charge=             -0.0000 electrons
 Dipole moment (field-independent basis, Debye):
    X=             -1.2382    Y=              7.5218    Z=              2.9483  Tot=              8.1733
 Quadrupole moment (field-independent basis, Debye-Ang):
   XX=           -172.9072   YY=           -210.6311   ZZ=           -213.2009
   XY=             17.3465   XZ=             13.9773   YZ=             -7.4954
 Traceless Quadrupole moment (field-independent basis, Debye-Ang):
   XX=             26.0059   YY=            -11.7180   ZZ=            -14.2878
   XY=             17.3465   XZ=             13.9773   YZ=             -7.4954
 Octapole moment (field-independent basis, Debye-Ang**2):
  XXX=            180.9529  YYY=            -30.7148  ZZZ=              7.1083  XYY=            -10.0688
  XXY=             45.9482  XXZ=             24.3615  XZZ=            -15.5785  YZZ=              9.9927
  YYZ=             -9.2499  XYZ=             20.1913
 Hexadecapole moment (field-independent basis, Debye-Ang**3):
 XXXX=         -13618.3514 YYYY=          -5145.4118 ZZZZ=          -2922.8235 XXXY=            -34.7116
 XXXZ=             61.0073 YYYX=            -24.1018 YYYZ=             -9.7914 ZZZX=            -24.2436
 ZZZY=           -110.8600 XXYY=          -3054.3283 XXZZ=          -3023.5393 YYZZ=          -1363.3202
 XXYZ=            -45.2433 YYXZ=             94.6334 ZZXY=             23.7538
 N-N= 4.215133060776D+03 E-N=-1.243285773332D+04  KE= 1.636476369357D+03
                          Isotropic Fermi Contact Couplings
        Atom                 a.u.       MegaHertz       Gauss      10(-4) cm-1
     1  C(13)             -0.00001      -0.00822      -0.00293      -0.00274
     2  C(13)              0.00005       0.02561       0.00914       0.00854
     3  C(13)             -0.00034      -0.18866      -0.06732      -0.06293
     4  C(13)              0.00052       0.29467       0.10514       0.09829
     5  C(13)              0.00365       2.04978       0.73141       0.68373
     6  N(14)              0.08235      13.30360       4.74705       4.43760
     7  C(13)              0.00017       0.09814       0.03502       0.03274
     8  C(13)             -0.00182      -1.02313      -0.36508      -0.34128
     9  C(13)              0.00226       1.26888       0.45277       0.42325
    10  C(13)             -0.00060      -0.33491      -0.11950      -0.11171
    11  C(13)              0.00346       1.94417       0.69373       0.64851
    12  C(13)             -0.00025      -0.13990      -0.04992      -0.04667
    13  N(14)              0.10736      17.34367       6.18865       5.78523
    14  C(13)              0.00039       0.21918       0.07821       0.07311
    15  C(13)             -0.00020      -0.11279      -0.04025      -0.03762
    16  C(13)             -0.00003      -0.01740      -0.00621      -0.00580
    17  C(13)              0.00058       0.32767       0.11692       0.10930
    18  O(17)              0.00184      -0.55805      -0.19913      -0.18615
    19  C(13)              0.00203       1.14028       0.40688       0.38036
    20  C(13)             -0.00020      -0.11204      -0.03998      -0.03737
    21  C(13)              0.00010       0.05616       0.02004       0.01873
    22  C(13)             -0.00004      -0.02136      -0.00762      -0.00712
    23  C(13)              0.00006       0.03400       0.01213       0.01134
    24  C(13)             -0.00005      -0.02806      -0.01001      -0.00936
    25  C(13)              0.00006       0.03198       0.01141       0.01067
    26  C(13)              0.00026       0.14770       0.05270       0.04927
    27  C(13)              0.00005       0.02887       0.01030       0.00963
    28  C(13)             -0.00003      -0.01884      -0.00672      -0.00629
    29  C(13)              0.00005       0.02547       0.00909       0.00849
    30  C(13)             -0.00000      -0.00124      -0.00044      -0.00041
    31  C(13)              0.00016       0.08778       0.03132       0.02928
    32  C(13)             -0.00009      -0.05206      -0.01858      -0.01736
    33  C(13)              0.00001       0.00438       0.00156       0.00146
    34  H(1)               0.00000       0.00125       0.00045       0.00042
    35  H(1)              -0.00000      -0.00579      -0.00207      -0.00193
    36  H(1)               0.00004       0.08281       0.02955       0.02762
    37  H(1)               0.00007       0.15905       0.05675       0.05305
    38  H(1)               0.00027       0.60652       0.21642       0.20231
    39  H(1)               0.00008       0.17922       0.06395       0.05978
    40  H(1)              -0.00002      -0.05086      -0.01815      -0.01696
    41  H(1)              -0.00024      -0.52794      -0.18838      -0.17610
    42  H(1)               0.00001       0.01873       0.00668       0.00625
    43  H(1)               0.00003       0.07784       0.02778       0.02597
    44  H(1)              -0.00001      -0.01412      -0.00504      -0.00471
    45  H(1)              -0.00000      -0.00679      -0.00242      -0.00227
    46  H(1)               0.00011       0.24303       0.08672       0.08106
    47  H(1)               0.00004       0.07897       0.02818       0.02634
    48  H(1)              -0.00001      -0.02594      -0.00925      -0.00865
    49  H(1)               0.00000       0.00991       0.00354       0.00331
    50  H(1)              -0.00001      -0.01863      -0.00665      -0.00621
    51  H(1)               0.00000       0.00847       0.00302       0.00283
    52  H(1)              -0.00001      -0.01856      -0.00662      -0.00619
    53  H(1)              -0.00000      -0.00564      -0.00201      -0.00188
    54  H(1)               0.00000       0.00500       0.00179       0.00167
    55  H(1)              -0.00001      -0.01380      -0.00493      -0.00460
    56  H(1)               0.00001       0.02112       0.00754       0.00704
    57  H(1)              -0.00001      -0.01382      -0.00493      -0.00461
    58  H(1)              -0.00000      -0.00001      -0.00000      -0.00000
    59  H(1)              -0.00000      -0.00857      -0.00306      -0.00286
    60  Ni(61)             0.00000      -0.00028      -0.00010      -0.00009
    61  F(19)              0.03087      64.94007      23.17223      21.66168
    62  F(19)              0.02353      49.49081      17.65955      16.50836
 --------------------------------------------------------
       Center         ----  Spin Dipole Couplings  ----
                      3XX-RR        3YY-RR        3ZZ-RR
 --------------------------------------------------------
     1   Atom        0.002171     -0.000639     -0.001531
     2   Atom        0.003243     -0.000876     -0.002367
     3   Atom        0.009576     -0.004243     -0.005333
     4   Atom        0.010751     -0.005101     -0.005650
     5   Atom        0.018182     -0.007721     -0.010462
     6   Atom        0.023128      0.016483     -0.039611
     7   Atom        0.002529      0.008727     -0.011256
     8   Atom       -0.005092      0.017594     -0.012502
     9   Atom       -0.005412      0.006781     -0.001370
    10   Atom        0.001533      0.004149     -0.005682
    11   Atom       -0.001455      0.002739     -0.001284
    12   Atom        0.015931     -0.000686     -0.015246
    13   Atom       -0.062226      0.098291     -0.036065
    14   Atom        0.014295     -0.005896     -0.008399
    15   Atom        0.004720     -0.002200     -0.002520
    16   Atom        0.002288     -0.001029     -0.001259
    17   Atom        0.002053     -0.000437     -0.001616
    18   Atom       -0.000866     -0.000864      0.001730
    19   Atom        0.001443      0.001065     -0.002508
    20   Atom        0.002368     -0.001849     -0.000519
    21   Atom        0.000331     -0.001080      0.000749
    22   Atom        0.000149     -0.001426      0.001277
    23   Atom        0.000381     -0.000684      0.000303
    24   Atom        0.001154     -0.001123     -0.000032
    25   Atom        0.002000     -0.001145     -0.000855
    26   Atom        0.001719      0.000000     -0.001719
    27   Atom        0.000831      0.000646     -0.001478
    28   Atom        0.000419      0.000234     -0.000652
    29   Atom        0.000345      0.000246     -0.000591
    30   Atom        0.000523     -0.000008     -0.000515
    31   Atom        0.001315     -0.000198     -0.001117
    32   Atom        0.004402     -0.002176     -0.002226
    33   Atom        0.002499     -0.001197     -0.001302
    34   Atom        0.001184     -0.000220     -0.000963
    35   Atom        0.001347      0.000350     -0.001698
    36   Atom        0.012484     -0.007896     -0.004587
    37   Atom        0.006539     -0.002899     -0.003640
    38   Atom       -0.002275      0.003463     -0.001188
    39   Atom       -0.000587      0.001353     -0.000766
    40   Atom        0.024732     -0.012686     -0.012046
    41   Atom        0.011772     -0.007592     -0.004180
    42   Atom        0.003627     -0.001448     -0.002179
    43   Atom        0.004018     -0.002018     -0.002000
    44   Atom        0.001516     -0.000695     -0.000820
    45   Atom        0.001963     -0.001358     -0.000606
    46   Atom        0.000477     -0.000033     -0.000444
    47   Atom        0.000925      0.000280     -0.001205
    48   Atom       -0.000882     -0.000788      0.001670
    49   Atom       -0.000455     -0.001068      0.001523
    50   Atom        0.000208     -0.000685      0.000477
    51   Atom        0.000897     -0.000704     -0.000193
    52   Atom        0.002172     -0.001160     -0.001012
    53   Atom        0.000585      0.001022     -0.001607
    54   Atom        0.000170      0.000296     -0.000466
    55   Atom        0.000257      0.000108     -0.000365
    56   Atom        0.000400     -0.000019     -0.000381
    57   Atom        0.000851     -0.000269     -0.000582
    58   Atom        0.003133     -0.001682     -0.001452
    59   Atom        0.001584     -0.000755     -0.000828
    60   Atom        0.052920     -0.147040      0.094121
    61   Atom       -0.250814      0.260230     -0.009416
    62   Atom       -0.116929      0.074915      0.042015
 --------------------------------------------------------
                        XY            XZ            YZ
 --------------------------------------------------------
     1   Atom        0.001784     -0.000129     -0.000120
     2   Atom        0.003421     -0.001468     -0.000766
     3   Atom        0.005254     -0.004196     -0.001609
     4   Atom        0.000938     -0.000580     -0.000043
     5   Atom       -0.006901      0.002137     -0.000391
     6   Atom       -0.085729     -0.036078      0.025936
     7   Atom       -0.015455      0.001894      0.017541
     8   Atom       -0.004676     -0.000000      0.018379
     9   Atom        0.001866      0.000804      0.004902
    10   Atom        0.002410      0.001686      0.006862
    11   Atom        0.006473      0.003521      0.004312
    12   Atom        0.012812      0.009376      0.010099
    13   Atom        0.089456      0.040200      0.083733
    14   Atom        0.003118      0.002919      0.002195
    15   Atom        0.001730      0.000698      0.000273
    16   Atom        0.001419      0.001317      0.000562
    17   Atom        0.002528      0.001482      0.000965
    18   Atom       -0.005613     -0.005871      0.019397
    19   Atom       -0.005506     -0.002991      0.004286
    20   Atom       -0.001828     -0.002689      0.001107
    21   Atom       -0.001958     -0.003085      0.001791
    22   Atom       -0.000332     -0.001934      0.000500
    23   Atom       -0.000433     -0.001594      0.000343
    24   Atom       -0.000009     -0.001285     -0.000030
    25   Atom       -0.001040     -0.001796      0.000517
    26   Atom       -0.002914     -0.000174     -0.000168
    27   Atom       -0.001915      0.000595     -0.000344
    28   Atom       -0.001236      0.000282     -0.000408
    29   Atom       -0.000562      0.000262      0.000100
    30   Atom       -0.000952     -0.000141     -0.000057
    31   Atom       -0.000865     -0.000285      0.000280
    32   Atom        0.000459      0.000983      0.000007
    33   Atom        0.000942      0.000269      0.000212
    34   Atom        0.001269     -0.000132     -0.000083
    35   Atom        0.003147     -0.001525     -0.001332
    36   Atom        0.009557     -0.012988     -0.006033
    37   Atom       -0.005969      0.004496     -0.002047
    38   Atom       -0.000609     -0.000306      0.002776
    39   Atom        0.001070      0.000569      0.001462
    40   Atom        0.004743     -0.004225      0.000188
    41   Atom       -0.000756      0.008567     -0.000296
    42   Atom        0.002160     -0.000542     -0.000139
    43   Atom        0.000274      0.000424      0.000038
    44   Atom        0.000855      0.000676      0.000245
    45   Atom        0.000916      0.001932      0.000489
    46   Atom        0.001421      0.001055      0.000925
    47   Atom        0.001970      0.000451      0.000363
    48   Atom       -0.001972     -0.002932      0.003047
    49   Atom       -0.000296     -0.001431      0.000559
    50   Atom        0.000007     -0.001051     -0.000039
    51   Atom        0.000027     -0.000889     -0.000028
    52   Atom       -0.000563     -0.000894      0.000141
    53   Atom       -0.002950      0.001153     -0.001307
    54   Atom       -0.000907      0.000414     -0.000451
    55   Atom       -0.000557      0.000130     -0.000103
    56   Atom       -0.000557     -0.000112      0.000071
    57   Atom       -0.000963     -0.000622      0.000327
    58   Atom       -0.000433      0.001190     -0.000078
    59   Atom        0.000589      0.000404      0.000103
    60   Atom        0.025956     -1.274015      0.045538
    61   Atom        0.075476     -0.002461     -0.275769
    62   Atom       -0.263297      0.075793      0.006556
 --------------------------------------------------------


 ---------------------------------------------------------------------------------
              Anisotropic Spin Dipole Couplings in Principal Axis System
 ---------------------------------------------------------------------------------

       Atom             a.u.   MegaHertz   Gauss  10(-4) cm-1        Axes

              Baa    -0.0016    -0.211    -0.075    -0.071 -0.2319  0.5451  0.8057
     1 C(13)  Bbb    -0.0015    -0.197    -0.070    -0.066 -0.3718  0.7157 -0.5912
              Bcc     0.0030     0.408     0.146     0.136  0.8989  0.4367 -0.0367
 
              Baa    -0.0028    -0.380    -0.136    -0.127 -0.5209  0.7516 -0.4047
     2 C(13)  Bbb    -0.0027    -0.361    -0.129    -0.120 -0.0401  0.4520  0.8911
              Bcc     0.0055     0.741     0.264     0.247  0.8527  0.4804 -0.2053
 
              Baa    -0.0065    -0.876    -0.313    -0.292  0.1126  0.3861  0.9156
     3 C(13)  Bbb    -0.0060    -0.799    -0.285    -0.266 -0.3800  0.8681 -0.3194
              Bcc     0.0125     1.675     0.598     0.559  0.9181  0.3120 -0.2445
 
              Baa    -0.0057    -0.761    -0.272    -0.254  0.0342  0.0188  0.9992
     4 C(13)  Bbb    -0.0052    -0.692    -0.247    -0.231 -0.0594  0.9981 -0.0168
              Bcc     0.0108     1.453     0.518     0.485  0.9976  0.0588 -0.0353
 
              Baa    -0.0106    -1.427    -0.509    -0.476 -0.0962 -0.0947  0.9909
     5 C(13)  Bbb    -0.0094    -1.265    -0.451    -0.422  0.2325  0.9658  0.1149
              Bcc     0.0201     2.692     0.961     0.898  0.9678 -0.2414  0.0709
 
              Baa    -0.0683    -2.633    -0.939    -0.878  0.7114  0.6162  0.3380
     6 N(14)  Bbb    -0.0496    -1.914    -0.683    -0.638 -0.0575 -0.4283  0.9018
              Bcc     0.1179     4.547     1.622     1.517  0.7004 -0.6610 -0.2693
 
              Baa    -0.0251    -3.370    -1.203    -1.124 -0.3610 -0.5538  0.7503
     7 C(13)  Bbb    -0.0009    -0.124    -0.044    -0.041  0.7904  0.2453  0.5614
              Bcc     0.0260     3.494     1.247     1.165 -0.4950  0.7957  0.3491
 
              Baa    -0.0215    -2.879    -1.027    -0.960 -0.1242 -0.4347  0.8920
     8 C(13)  Bbb    -0.0054    -0.725    -0.259    -0.242  0.9835  0.0652  0.1687
              Bcc     0.0269     3.604     1.286     1.202 -0.1315  0.8982  0.4194
 
              Baa    -0.0057    -0.764    -0.273    -0.255  0.9902 -0.1367 -0.0292
     9 C(13)  Bbb    -0.0037    -0.492    -0.176    -0.164 -0.0312 -0.4200  0.9070
              Bcc     0.0094     1.256     0.448     0.419  0.1362  0.8972  0.4201
 
              Baa    -0.0092    -1.238    -0.442    -0.413 -0.0388 -0.4507  0.8918
    10 C(13)  Bbb     0.0004     0.052     0.018     0.017  0.9279 -0.3474 -0.1352
              Bcc     0.0088     1.186     0.423     0.396  0.3708  0.8223  0.4317
 
              Baa    -0.0062    -0.832    -0.297    -0.277  0.8303 -0.5450 -0.1166
    11 C(13)  Bbb    -0.0040    -0.530    -0.189    -0.177 -0.1542 -0.4256  0.8917
              Bcc     0.0101     1.362     0.486     0.454  0.5356  0.7224  0.4374
 
              Baa    -0.0207    -2.771    -0.989    -0.924 -0.0930 -0.4013  0.9112
    12 C(13)  Bbb    -0.0063    -0.850    -0.303    -0.284 -0.5651  0.7748  0.2835
              Bcc     0.0270     3.621     1.292     1.208  0.8197  0.4886  0.2988
 
              Baa    -0.1024    -3.948    -1.409    -1.317  0.9227 -0.3761 -0.0845
    13 N(14)  Bbb    -0.0760    -2.933    -1.047    -0.978 -0.0788 -0.3985  0.9138
              Bcc     0.1784     6.881     2.455     2.295  0.3773  0.8365  0.3973
 
              Baa    -0.0097    -1.304    -0.465    -0.435 -0.0464 -0.4688  0.8821
    14 C(13)  Bbb    -0.0055    -0.736    -0.263    -0.246 -0.2035  0.8690  0.4511
              Bcc     0.0152     2.040     0.728     0.681  0.9780  0.1586  0.1357
 
              Baa    -0.0027    -0.363    -0.130    -0.121 -0.1071  0.7314 -0.6735
    15 C(13)  Bbb    -0.0025    -0.335    -0.119    -0.112 -0.2248  0.6421  0.7329
              Bcc     0.0052     0.698     0.249     0.233  0.9685  0.2299  0.0957
 
              Baa    -0.0017    -0.233    -0.083    -0.078 -0.1444 -0.4218  0.8951
    16 C(13)  Bbb    -0.0015    -0.205    -0.073    -0.068 -0.4267  0.8427  0.3283
              Bcc     0.0033     0.438     0.156     0.146  0.8928  0.3345  0.3016
 
              Baa    -0.0022    -0.290    -0.104    -0.097 -0.1256 -0.3373  0.9330
    17 C(13)  Bbb    -0.0020    -0.269    -0.096    -0.090 -0.5713  0.7934  0.2099
              Bcc     0.0042     0.559     0.199     0.186  0.8111  0.5066  0.2924
 
              Baa    -0.0190     1.375     0.491     0.459  0.0054  0.7311 -0.6823
    18 O(17)  Bbb    -0.0037     0.265     0.095     0.089  0.9453  0.2188  0.2419
              Bcc     0.0227    -1.641    -0.585    -0.547 -0.3261  0.6463  0.6899
 
              Baa    -0.0055    -0.735    -0.262    -0.245 -0.1975 -0.6479  0.7357
    19 C(13)  Bbb    -0.0036    -0.480    -0.171    -0.160  0.7469  0.3866  0.5410
              Bcc     0.0091     1.215     0.434     0.405 -0.6350  0.6563  0.4076
 
              Baa    -0.0025    -0.342    -0.122    -0.114  0.2538  0.9500 -0.1817
    20 C(13)  Bbb    -0.0021    -0.285    -0.102    -0.095  0.5204  0.0242  0.8536
              Bcc     0.0047     0.627     0.224     0.209  0.8153 -0.3112 -0.4883
 
              Baa    -0.0026    -0.355    -0.127    -0.118  0.7723  0.4098  0.4855
    21 C(13)  Bbb    -0.0022    -0.291    -0.104    -0.097 -0.0711  0.8151 -0.5749
              Bcc     0.0048     0.647     0.231     0.216 -0.6313  0.4095  0.6586
 
              Baa    -0.0015    -0.203    -0.073    -0.068 -0.0420  0.9780 -0.2042
    22 C(13)  Bbb    -0.0013    -0.174    -0.062    -0.058  0.8040  0.1545  0.5743
              Bcc     0.0028     0.377     0.135     0.126 -0.5932  0.1401  0.7928
 
              Baa    -0.0013    -0.169    -0.060    -0.056  0.7079  0.1180  0.6964
    23 C(13)  Bbb    -0.0008    -0.106    -0.038    -0.035  0.0570  0.9732 -0.2229
              Bcc     0.0020     0.275     0.098     0.092  0.7040 -0.1975 -0.6822
 
              Baa    -0.0011    -0.151    -0.054    -0.050  0.0560  0.9941  0.0927
    24 C(13)  Bbb    -0.0009    -0.114    -0.041    -0.038  0.5361 -0.1082  0.8372
              Bcc     0.0020     0.265     0.095     0.088  0.8423  0.0028 -0.5390
 
              Baa    -0.0017    -0.231    -0.082    -0.077  0.4231 -0.0479  0.9048
    25 C(13)  Bbb    -0.0015    -0.195    -0.070    -0.065  0.2549  0.9646 -0.0681
              Bcc     0.0032     0.426     0.152     0.142  0.8695 -0.2595 -0.4204
 
              Baa    -0.0023    -0.306    -0.109    -0.102  0.5529  0.7354  0.3917
    26 C(13)  Bbb    -0.0016    -0.217    -0.077    -0.072 -0.2294 -0.3176  0.9201
              Bcc     0.0039     0.523     0.187     0.174  0.8010 -0.5986 -0.0069
 
              Baa    -0.0016    -0.220    -0.078    -0.073 -0.3311 -0.1370  0.9336
    27 C(13)  Bbb    -0.0011    -0.151    -0.054    -0.050  0.6105  0.7233  0.3226
              Bcc     0.0028     0.371     0.132     0.124  0.7195 -0.6768  0.1558
 
              Baa    -0.0010    -0.130    -0.046    -0.043  0.5484  0.7136  0.4360
    28 C(13)  Bbb    -0.0007    -0.094    -0.034    -0.031 -0.4391 -0.1980  0.8764
              Bcc     0.0017     0.224     0.080     0.075  0.7117 -0.6720  0.2048
 
              Baa    -0.0007    -0.099    -0.035    -0.033 -0.3701 -0.3016  0.8786
    29 C(13)  Bbb    -0.0001    -0.018    -0.006    -0.006  0.5515  0.6897  0.4691
              Bcc     0.0009     0.117     0.042     0.039  0.7475 -0.6582  0.0889
 
              Baa    -0.0008    -0.106    -0.038    -0.036  0.5590  0.7091  0.4298
    30 C(13)  Bbb    -0.0005    -0.061    -0.022    -0.020 -0.2274 -0.3674  0.9018
              Bcc     0.0012     0.168     0.060     0.056  0.7974 -0.6019 -0.0441
 
              Baa    -0.0012    -0.161    -0.057    -0.054  0.0235 -0.2509  0.9677
    31 C(13)  Bbb    -0.0006    -0.075    -0.027    -0.025  0.4358  0.8738  0.2159
              Bcc     0.0018     0.236     0.084     0.079  0.8997 -0.4166 -0.1299
 
              Baa    -0.0024    -0.320    -0.114    -0.107 -0.1568  0.3094  0.9379
    32 C(13)  Bbb    -0.0022    -0.294    -0.105    -0.098 -0.0189  0.9485 -0.3161
              Bcc     0.0046     0.614     0.219     0.205  0.9875  0.0673  0.1428
 
              Baa    -0.0015    -0.205    -0.073    -0.068 -0.1489  0.8013 -0.5795
    33 C(13)  Bbb    -0.0012    -0.164    -0.059    -0.055 -0.1978  0.5501  0.8114
              Bcc     0.0027     0.369     0.132     0.123  0.9689  0.2354  0.0766
 
              Baa    -0.0010    -0.520    -0.186    -0.174 -0.2495  0.5099  0.8232
    34 H(1)   Bbb    -0.0010    -0.515    -0.184    -0.172 -0.4449  0.6947 -0.5652
              Bcc     0.0019     1.035     0.369     0.345  0.8601  0.5073 -0.0535
 
              Baa    -0.0024    -1.260    -0.449    -0.420 -0.2754  0.6622  0.6969
    35 H(1)   Bbb    -0.0023    -1.237    -0.441    -0.412  0.6323 -0.4213  0.6502
              Bcc     0.0047     2.496     0.891     0.833  0.7241  0.6197 -0.3026
 
              Baa    -0.0125    -6.678    -2.383    -2.227  0.0649  0.7401  0.6694
    36 H(1)   Bbb    -0.0110    -5.880    -2.098    -1.962  0.5616 -0.5816  0.5885
              Bcc     0.0235    12.558     4.481     4.189  0.8248  0.3378 -0.4534
 
              Baa    -0.0058    -3.101    -1.107    -1.034  0.4842  0.8520 -0.1990
    37 H(1)   Bbb    -0.0053    -2.813    -1.004    -0.938 -0.1891  0.3240  0.9270
              Bcc     0.0111     5.915     2.111     1.973  0.8543 -0.4112  0.3180
 
              Baa    -0.0025    -1.327    -0.473    -0.443  0.1318 -0.4080  0.9034
    38 H(1)   Bbb    -0.0023    -1.247    -0.445    -0.416  0.9867  0.1418 -0.0799
              Bcc     0.0048     2.574     0.918     0.859 -0.0955  0.9019  0.4212
 
              Baa    -0.0015    -0.807    -0.288    -0.269 -0.0388 -0.4427  0.8958
    39 H(1)   Bbb    -0.0011    -0.561    -0.200    -0.187  0.9326 -0.3379 -0.1266
              Bcc     0.0026     1.369     0.488     0.457  0.3587  0.8306  0.4259
 
              Baa    -0.0137    -7.307    -2.607    -2.437 -0.1603  0.8470 -0.5068
    40 H(1)   Bbb    -0.0121    -6.449    -2.301    -2.151  0.0314  0.5176  0.8551
              Bcc     0.0258    13.757     4.909     4.589  0.9866  0.1211 -0.1096
 
              Baa    -0.0079    -4.222    -1.506    -1.408 -0.4003 -0.1015  0.9108
    41 H(1)   Bbb    -0.0076    -4.064    -1.450    -1.356 -0.0086  0.9942  0.1071
              Bcc     0.0155     8.286     2.957     2.764  0.9164 -0.0351  0.3988
 
              Baa    -0.0023    -1.223    -0.436    -0.408 -0.3121  0.6920 -0.6509
    42 H(1)   Bbb    -0.0022    -1.162    -0.415    -0.387 -0.1659  0.6350  0.7545
              Bcc     0.0045     2.384     0.851     0.795  0.9354  0.3435 -0.0834
 
              Baa    -0.0020    -1.093    -0.390    -0.365  0.0161  0.7188 -0.6951
    43 H(1)   Bbb    -0.0020    -1.073    -0.383    -0.358 -0.0819  0.6938  0.7155
              Bcc     0.0041     2.166     0.773     0.723  0.9965  0.0454  0.0700
 
              Baa    -0.0010    -0.539    -0.192    -0.180 -0.0563 -0.5120  0.8571
    44 H(1)   Bbb    -0.0010    -0.523    -0.187    -0.175 -0.3961  0.7995  0.4516
              Bcc     0.0020     1.063     0.379     0.354  0.9165  0.3141  0.2478
 
              Baa    -0.0016    -0.876    -0.313    -0.292 -0.4792  0.0359  0.8770
    45 H(1)   Bbb    -0.0016    -0.850    -0.303    -0.283 -0.1768  0.9747 -0.1365
              Bcc     0.0032     1.725     0.616     0.576  0.8597  0.2205  0.4608
 
              Baa    -0.0012    -0.657    -0.234    -0.219 -0.5011  0.8162 -0.2875
    46 H(1)   Bbb    -0.0011    -0.605    -0.216    -0.202 -0.5305 -0.0273  0.8472
              Bcc     0.0024     1.262     0.450     0.421  0.6837  0.5771  0.4467
 
              Baa    -0.0014    -0.745    -0.266    -0.248 -0.6566  0.7404  0.1439
    47 H(1)   Bbb    -0.0013    -0.688    -0.245    -0.229 -0.0169 -0.2051  0.9786
              Bcc     0.0027     1.432     0.511     0.478  0.7541  0.6401  0.1472
 
              Baa    -0.0028    -1.518    -0.542    -0.506 -0.0836  0.8000 -0.5941
    48 H(1)   Bbb    -0.0028    -1.492    -0.532    -0.498  0.8753  0.3440  0.3400
              Bcc     0.0056     3.010     1.074     1.004 -0.4763  0.4916  0.7290
 
              Baa    -0.0012    -0.643    -0.230    -0.215  0.8895  0.0998  0.4460
    49 H(1)   Bbb    -0.0012    -0.631    -0.225    -0.211 -0.0066  0.9786 -0.2057
              Bcc     0.0024     1.275     0.455     0.425 -0.4570  0.1800  0.8711
 
              Baa    -0.0007    -0.388    -0.138    -0.129  0.6686  0.4421  0.5979
    50 H(1)   Bbb    -0.0007    -0.361    -0.129    -0.120 -0.3417  0.8968 -0.2811
              Bcc     0.0014     0.749     0.267     0.250 -0.6605 -0.0164  0.7507
 
              Baa    -0.0007    -0.379    -0.135    -0.127  0.2271  0.8702  0.4371
    51 H(1)   Bbb    -0.0007    -0.365    -0.130    -0.122  0.4331 -0.4923  0.7550
              Bcc     0.0014     0.745     0.266     0.248  0.8723  0.0178 -0.4887
 
              Baa    -0.0013    -0.670    -0.239    -0.223  0.2624  0.8380  0.4784
    52 H(1)   Bbb    -0.0012    -0.663    -0.237    -0.221  0.1344 -0.5227  0.8419
              Bcc     0.0025     1.333     0.476     0.445  0.9556 -0.1566 -0.2497
 
              Baa    -0.0022    -1.166    -0.416    -0.389  0.4925  0.6763  0.5477
    53 H(1)   Bbb    -0.0021    -1.117    -0.399    -0.373 -0.5776 -0.2167  0.7870
              Bcc     0.0043     2.282     0.814     0.761 -0.6510  0.7040 -0.2839
 
              Baa    -0.0007    -0.362    -0.129    -0.121  0.5154  0.7049  0.4873
    54 H(1)   Bbb    -0.0007    -0.357    -0.127    -0.119 -0.5632 -0.1500  0.8126
              Bcc     0.0013     0.720     0.257     0.240 -0.6459  0.6933 -0.3196
 
              Baa    -0.0004    -0.210    -0.075    -0.070 -0.4190 -0.2889  0.8608
    55 H(1)   Bbb    -0.0004    -0.200    -0.071    -0.067  0.5187  0.7020  0.4881
              Bcc     0.0008     0.410     0.146     0.137  0.7452 -0.6510  0.1443
 
              Baa    -0.0004    -0.218    -0.078    -0.073  0.5540  0.7184  0.4206
    56 H(1)   Bbb    -0.0004    -0.210    -0.075    -0.070 -0.1577 -0.4056  0.9004
              Bcc     0.0008     0.427     0.152     0.143  0.8174 -0.5652 -0.1114
 
              Baa    -0.0008    -0.449    -0.160    -0.150  0.5563  0.6212  0.5520
    57 H(1)   Bbb    -0.0008    -0.420    -0.150    -0.140 -0.0724 -0.6255  0.7769
              Bcc     0.0016     0.869     0.310     0.290  0.8278 -0.4722 -0.3030
 
              Baa    -0.0018    -0.939    -0.335    -0.313 -0.2429 -0.5516  0.7979
    58 H(1)   Bbb    -0.0017    -0.908    -0.324    -0.303 -0.0622  0.8297  0.5547
              Bcc     0.0035     1.847     0.659     0.616  0.9680 -0.0851  0.2359
 
              Baa    -0.0009    -0.481    -0.172    -0.160 -0.0630  0.7313 -0.6792
    59 H(1)   Bbb    -0.0009    -0.474    -0.169    -0.158 -0.2702  0.6426  0.7169
              Bcc     0.0018     0.955     0.341     0.319  0.9607  0.2287  0.1572
 
              Baa    -1.2031    57.461    20.504    19.167  0.7118 -0.0477  0.7008
    60 Ni(61) Bbb    -0.1448     6.914     2.467     2.306  0.0407  0.9988  0.0267
              Bcc     1.3478   -64.375   -22.971   -21.473 -0.7012  0.0095  0.7129
 
              Baa    -0.2726  -136.918   -48.856   -45.671  0.9200 -0.2749 -0.2795
    61 F(19)  Bbb    -0.1660   -83.348   -29.741   -27.802  0.3804  0.4540  0.8057
              Bcc     0.4386   220.266    78.597    73.473  0.0947  0.8475 -0.5222
 
              Baa    -0.3135  -157.457   -56.184   -52.522  0.8123  0.5537 -0.1834
    62 F(19)  Bbb     0.0476    23.901     8.528     7.972  0.0498  0.2474  0.9676
              Bcc     0.2659   133.556    47.656    44.549 -0.5811  0.7951 -0.1734
 

 ---------------------------------------------------------------------------------

 PrsmSu:  requested number of processors reduced to:  12 ShMem   1 Linda.
   1 Symmetry operations used in ECPInt.
 ECPInt:  NShTT=   22791 NPrTT=  142008 LenC2=   18059 LenP2D=   59400.
 LDataN:  DoStor=T MaxTD1= 7 Len=  274
 Number of processors reduced to  13 by ecpmxn.
 Calling FoFJK, ICntrl=      2127 FMM=T ISym2X=0 I1Cent= 0 IOpClX= 1 NMat=1 NMatS=1 NMatT=0.
 ***** Axes restored to original set *****
 -------------------------------------------------------------------
 Center     Atomic                   Forces (Hartrees/Bohr)
 Number     Number              X              Y              Z
 -------------------------------------------------------------------
      1        6           0.000001223   -0.000000892   -0.000002033
      2        6           0.000001428   -0.000000590   -0.000001220
      3        6           0.000000100    0.000000086   -0.000000300
      4        6           0.000004232    0.000004575   -0.000000529
      5        6           0.000002694   -0.000012843   -0.000007936
      6        7           0.000007778   -0.000002705    0.000003046
      7        6           0.000000938   -0.000003418   -0.000002276
      8        6          -0.000002001   -0.000003985   -0.000001727
      9        6          -0.000003315    0.000000886    0.000001044
     10        6           0.000000468   -0.000000752    0.000000466
     11        6           0.000000412    0.000002702    0.000003490
     12        6          -0.000003468    0.000002009   -0.000000899
     13        7           0.000008311    0.000002611    0.000009834
     14        6           0.000002209    0.000000590    0.000001107
     15        6          -0.000000533    0.000000027    0.000002691
     16        6          -0.000000480    0.000000923    0.000002406
     17        6          -0.000000418    0.000000602    0.000001721
     18        8          -0.000007795   -0.000001709   -0.000002854
     19        6           0.000002207    0.000008466    0.000009733
     20        6           0.000004777   -0.000001496   -0.000002457
     21        6          -0.000001778   -0.000000421    0.000000640
     22        6           0.000000168   -0.000000432   -0.000001076
     23        6          -0.000002236   -0.000000530   -0.000002524
     24        6          -0.000001353    0.000000408   -0.000000611
     25        6          -0.000001905   -0.000002393   -0.000002811
     26        6          -0.000000351   -0.000002626    0.000000099
     27        6          -0.000000318    0.000002990   -0.000001884
     28        6           0.000003134   -0.000003045   -0.000000646
     29        6          -0.000003305    0.000000103    0.000002488
     30        6          -0.000000926    0.000001323   -0.000003942
     31        6           0.000000940   -0.000000193   -0.000001428
     32        6          -0.000000843   -0.000002135   -0.000001600
     33        6           0.000001609    0.000001282   -0.000001473
     34        1           0.000001165   -0.000000247   -0.000002372
     35        1           0.000000820   -0.000000191   -0.000001578
     36        1          -0.000000197   -0.000000189   -0.000000230
     37        1           0.000000223    0.000002899    0.000000475
     38        1          -0.000000337    0.000000299    0.000001100
     39        1          -0.000001530    0.000000558    0.000002144
     40        1          -0.000000114    0.000000263    0.000001282
     41        1           0.000000186    0.000000145    0.000001149
     42        1           0.000000448    0.000000660    0.000002140
     43        1           0.000000779    0.000001004    0.000002515
     44        1          -0.000000438    0.000000899    0.000003169
     45        1          -0.000000758    0.000000840    0.000002378
     46        1          -0.000000965    0.000000290    0.000002958
     47        1          -0.000000497    0.000000692    0.000003452
     48        1           0.000000038   -0.000000026   -0.000000645
     49        1          -0.000001582   -0.000000499   -0.000000745
     50        1          -0.000001085   -0.000000594   -0.000001703
     51        1          -0.000000362   -0.000000943   -0.000002795
     52        1          -0.000000179   -0.000000053   -0.000001295
     53        1           0.000001239   -0.000000785   -0.000000499
     54        1           0.000000300    0.000000125   -0.000000522
     55        1           0.000000777   -0.000000511   -0.000001768
     56        1          -0.000000294   -0.000000934   -0.000000911
     57        1          -0.000001008    0.000000410   -0.000001834
     58        1           0.000001430    0.000000300   -0.000001212
     59        1           0.000001489   -0.000000579   -0.000002038
     60       28          -0.000013991    0.000004137   -0.000004400
     61        9           0.000002280    0.000001194   -0.000000155
     62        9           0.000000562    0.000001416    0.000003398
 -------------------------------------------------------------------
 Cartesian Forces:  Max     0.000013991 RMS     0.000002774

 GradGradGradGradGradGradGradGradGradGradGradGradGradGradGradGradGradGrad
 Berny optimization.
 FormGI is forming the generalized inverse of G from B-inverse, IUseBI=4.
 Internal  Forces:  Max     0.000011218 RMS     0.000001162
 Search for a local minimum.
 Step number   1 out of a maximum of  372
 All quantities printed in internal units (Hartrees-Bohrs-Radians)
 Mixed Optimization -- En-DIIS/RFO-DIIS
 Second derivative matrix not updated -- first step.
 ITU=  0
     Eigenvalues ---    0.00483   0.00488   0.00531   0.00568   0.00628
     Eigenvalues ---    0.00707   0.01124   0.01242   0.01323   0.01434
     Eigenvalues ---    0.01451   0.01553   0.01554   0.01629   0.01804
     Eigenvalues ---    0.01880   0.02069   0.02082   0.02089   0.02107
     Eigenvalues ---    0.02119   0.02126   0.02128   0.02129   0.02134
     Eigenvalues ---    0.02135   0.02141   0.02144   0.02145   0.02147
     Eigenvalues ---    0.02149   0.02151   0.02151   0.02156   0.02158
     Eigenvalues ---    0.02159   0.02159   0.02164   0.02166   0.02168
     Eigenvalues ---    0.02172   0.02174   0.02182   0.02206   0.02241
     Eigenvalues ---    0.02721   0.03042   0.04042   0.04096   0.04254
     Eigenvalues ---    0.04411   0.04799   0.04896   0.05240   0.05698
     Eigenvalues ---    0.05993   0.06491   0.06838   0.07006   0.07274
     Eigenvalues ---    0.07939   0.07994   0.08450   0.09288   0.09518
     Eigenvalues ---    0.09614   0.10481   0.11619   0.12166   0.12323
     Eigenvalues ---    0.12746   0.13344   0.13371   0.15234   0.15805
     Eigenvalues ---    0.15985   0.15995   0.15995   0.15997   0.15998
     Eigenvalues ---    0.15999   0.15999   0.15999   0.16000   0.16000
     Eigenvalues ---    0.16000   0.16000   0.16000   0.16000   0.16000
     Eigenvalues ---    0.16000   0.16000   0.18390   0.19001   0.19018
     Eigenvalues ---    0.21489   0.21997   0.21998   0.21999   0.22000
     Eigenvalues ---    0.22000   0.22000   0.22608   0.22805   0.23109
     Eigenvalues ---    0.23445   0.23452   0.23470   0.24146   0.24446
     Eigenvalues ---    0.24596   0.24783   0.24917   0.24941   0.24944
     Eigenvalues ---    0.24969   0.24971   0.28012   0.28372   0.28609
     Eigenvalues ---    0.30230   0.30269   0.30553   0.31207   0.31917
     Eigenvalues ---    0.31955   0.33610   0.33661   0.33815   0.33857
     Eigenvalues ---    0.34037   0.34088   0.34185   0.34264   0.34273
     Eigenvalues ---    0.34844   0.34953   0.35024   0.35156   0.35202
     Eigenvalues ---    0.35221   0.35241   0.35258   0.35259   0.35263
     Eigenvalues ---    0.35266   0.35275   0.35283   0.35341   0.35346
     Eigenvalues ---    0.35543   0.35609   0.35682   0.35686   0.39701
     Eigenvalues ---    0.41837   0.41884   0.41920   0.42030   0.42057
     Eigenvalues ---    0.42114   0.43176   0.45480   0.45619   0.45685
     Eigenvalues ---    0.45877   0.46050   0.46065   0.46199   0.46341
     Eigenvalues ---    0.46512   0.46545   0.46597   0.46793   0.46917
     Eigenvalues ---    0.46979   0.50790   0.53097   0.56190   0.62811
 RFO step:  Lambda= 0.00000000D+00 EMin= 4.82590771D-03
 Linear search not attempted -- first point.
 Iteration  1 RMS(Cart)=  0.00005757 RMS(Int)=  0.00000000
 Iteration  2 RMS(Cart)=  0.00000000 RMS(Int)=  0.00000000
 Variable       Old X    -DE/DX   Delta X   Delta X   Delta X     New X
                                 (Linear)    (Quad)   (Total)
    R1        2.63652   0.00000   0.00000   0.00000   0.00000   2.63652
    R2        2.63928   0.00000   0.00000   0.00000   0.00000   2.63928
    R3        2.05348  -0.00000   0.00000  -0.00000  -0.00000   2.05348
    R4        2.63740  -0.00000   0.00000  -0.00000  -0.00000   2.63740
    R5        2.05285  -0.00000   0.00000  -0.00000  -0.00000   2.05285
    R6        2.64236   0.00000   0.00000   0.00000   0.00000   2.64236
    R7        2.05752  -0.00000   0.00000  -0.00000  -0.00000   2.05752
    R8        2.84296  -0.00000   0.00000  -0.00001  -0.00001   2.84294
    R9        2.64542   0.00000   0.00000   0.00000   0.00000   2.64542
   R10        2.77526  -0.00000   0.00000  -0.00001  -0.00001   2.77525
   R11        3.01654   0.00001   0.00000   0.00002   0.00002   3.01656
   R12        2.06871   0.00000   0.00000   0.00000   0.00000   2.06871
   R13        2.42480  -0.00000   0.00000  -0.00001  -0.00001   2.42480
   R14        3.90458  -0.00001   0.00000  -0.00008  -0.00008   3.90450
   R15        2.76984  -0.00000   0.00000  -0.00001  -0.00001   2.76983
   R16        2.52914   0.00000   0.00000   0.00000   0.00000   2.52914
   R17        2.62400  -0.00000   0.00000  -0.00000  -0.00000   2.62400
   R18        2.54400  -0.00000   0.00000  -0.00001  -0.00001   2.54400
   R19        2.63413   0.00000   0.00000   0.00000   0.00000   2.63413
   R20        2.04803  -0.00000   0.00000  -0.00000  -0.00000   2.04803
   R21        2.63738  -0.00000   0.00000  -0.00000  -0.00000   2.63738
   R22        2.05422   0.00000   0.00000   0.00000   0.00000   2.05422
   R23        2.66869   0.00000   0.00000   0.00000   0.00000   2.66870
   R24        2.86037  -0.00000   0.00000  -0.00000  -0.00000   2.86037
   R25        2.52829  -0.00000   0.00000  -0.00001  -0.00001   2.52829
   R26        2.84774   0.00000   0.00000   0.00000   0.00000   2.84774
   R27        3.91628   0.00001   0.00000   0.00004   0.00004   3.91632
   R28        2.89234  -0.00000   0.00000  -0.00000  -0.00000   2.89234
   R29        2.07181   0.00000   0.00000   0.00000   0.00000   2.07182
   R30        2.07993   0.00000   0.00000   0.00000   0.00000   2.07993
   R31        2.89491   0.00000   0.00000   0.00000   0.00000   2.89492
   R32        2.07643   0.00000   0.00000   0.00000   0.00000   2.07643
   R33        2.06888  -0.00000   0.00000  -0.00000  -0.00000   2.06888
   R34        2.89854   0.00000   0.00000  -0.00000  -0.00000   2.89854
   R35        2.07020  -0.00000   0.00000  -0.00000  -0.00000   2.07020
   R36        2.07572  -0.00000   0.00000  -0.00000  -0.00000   2.07572
   R37        2.07267   0.00000   0.00000   0.00000   0.00000   2.07267
   R38        2.07906  -0.00000   0.00000  -0.00000  -0.00000   2.07906
   R39        2.81640  -0.00001   0.00000  -0.00002  -0.00002   2.81637
   R40        2.87430  -0.00000   0.00000  -0.00001  -0.00001   2.87429
   R41        2.87507   0.00000   0.00000   0.00000   0.00000   2.87507
   R42        2.64014   0.00000   0.00000   0.00000   0.00000   2.64014
   R43        2.65178   0.00000   0.00000   0.00000   0.00000   2.65178
   R44        2.63808  -0.00000   0.00000  -0.00000  -0.00000   2.63808
   R45        2.04575   0.00000   0.00000   0.00000   0.00000   2.04575
   R46        2.63136   0.00000   0.00000   0.00000   0.00000   2.63136
   R47        2.05231  -0.00000   0.00000  -0.00000  -0.00000   2.05231
   R48        2.63803  -0.00000   0.00000  -0.00000  -0.00000   2.63802
   R49        2.05249  -0.00000   0.00000  -0.00000  -0.00000   2.05249
   R50        2.62893  -0.00000   0.00000  -0.00000  -0.00000   2.62893
   R51        2.05217  -0.00000   0.00000  -0.00000  -0.00000   2.05217
   R52        2.04697  -0.00000   0.00000  -0.00000  -0.00000   2.04697
   R53        2.65221   0.00000   0.00000   0.00000   0.00000   2.65221
   R54        2.64323   0.00000   0.00000   0.00000   0.00000   2.64323
   R55        2.63066  -0.00000   0.00000  -0.00000  -0.00000   2.63065
   R56        2.05117   0.00000   0.00000   0.00000   0.00000   2.05117
   R57        2.63815   0.00000   0.00000   0.00001   0.00001   2.63815
   R58        2.05245  -0.00000   0.00000  -0.00000  -0.00000   2.05245
   R59        2.63247  -0.00000   0.00000  -0.00000  -0.00000   2.63246
   R60        2.05257  -0.00000   0.00000  -0.00000  -0.00000   2.05257
   R61        2.63742   0.00000   0.00000   0.00000   0.00000   2.63742
   R62        2.05258  -0.00000   0.00000  -0.00000  -0.00000   2.05258
   R63        2.04582  -0.00000   0.00000  -0.00000  -0.00000   2.04582
   R64        2.63308  -0.00000   0.00000  -0.00000  -0.00000   2.63308
   R65        2.05635   0.00000   0.00000   0.00000   0.00000   2.05635
   R66        2.05318  -0.00000   0.00000  -0.00000  -0.00000   2.05318
   R67        3.47826  -0.00000   0.00000  -0.00001  -0.00001   3.47826
   R68        3.43891  -0.00000   0.00000  -0.00001  -0.00001   3.43890
    A1        2.09088  -0.00000   0.00000  -0.00000  -0.00000   2.09088
    A2        2.09787   0.00000   0.00000   0.00000   0.00000   2.09787
    A3        2.09432  -0.00000   0.00000  -0.00000  -0.00000   2.09432
    A4        2.10829  -0.00000   0.00000  -0.00000  -0.00000   2.10829
    A5        2.09621   0.00000   0.00000   0.00000   0.00000   2.09621
    A6        2.07869   0.00000   0.00000  -0.00000  -0.00000   2.07869
    A7        2.08155   0.00000   0.00000   0.00000   0.00000   2.08156
    A8        2.09670  -0.00000   0.00000  -0.00000  -0.00000   2.09670
    A9        2.10413   0.00000   0.00000   0.00000   0.00000   2.10413
   A10        2.12777  -0.00000   0.00000  -0.00000  -0.00000   2.12777
   A11        2.09481  -0.00000   0.00000  -0.00000  -0.00000   2.09481
   A12        2.05962   0.00000   0.00000   0.00000   0.00000   2.05962
   A13        2.00907   0.00000   0.00000   0.00001   0.00001   2.00907
   A14        2.02591   0.00000   0.00000  -0.00000  -0.00000   2.02591
   A15        1.87727   0.00000   0.00000   0.00001   0.00001   1.87729
   A16        1.78832  -0.00000   0.00000  -0.00000  -0.00000   1.78832
   A17        1.86454   0.00000   0.00000   0.00001   0.00001   1.86455
   A18        1.89003  -0.00000   0.00000  -0.00002  -0.00002   1.89001
   A19        1.88009   0.00000   0.00000  -0.00000  -0.00000   1.88009
   A20        2.46649  -0.00000   0.00000  -0.00001  -0.00001   2.46647
   A21        1.93088   0.00000   0.00000   0.00001   0.00001   1.93089
   A22        2.12604   0.00000   0.00000   0.00000   0.00000   2.12604
   A23        2.06498   0.00000   0.00000   0.00000   0.00000   2.06498
   A24        2.09215  -0.00000   0.00000  -0.00000  -0.00000   2.09215
   A25        2.17043  -0.00000   0.00000  -0.00000  -0.00000   2.17043
   A26        1.97437   0.00000   0.00000   0.00000   0.00000   1.97437
   A27        2.13833   0.00000   0.00000   0.00000   0.00000   2.13833
   A28        2.04766  -0.00000   0.00000  -0.00000  -0.00000   2.04766
   A29        2.10073   0.00000   0.00000   0.00001   0.00001   2.10073
   A30        2.13478  -0.00000   0.00000  -0.00000  -0.00000   2.13478
   A31        2.10666   0.00000   0.00000   0.00000   0.00000   2.10666
   A32        2.09229  -0.00000   0.00000  -0.00000  -0.00000   2.09229
   A33        2.08424   0.00000   0.00000   0.00000   0.00000   2.08424
   A34        2.06266  -0.00000   0.00000  -0.00000  -0.00000   2.06265
   A35        2.11319   0.00000   0.00000   0.00000   0.00000   2.11319
   A36        2.10719  -0.00000   0.00000  -0.00000  -0.00000   2.10719
   A37        2.10524  -0.00000   0.00000  -0.00000  -0.00000   2.10523
   A38        2.14342   0.00000   0.00000   0.00000   0.00000   2.14342
   A39        2.03439   0.00000   0.00000   0.00000   0.00000   2.03439
   A40        2.10567   0.00000   0.00000   0.00001   0.00001   2.10567
   A41        1.97146  -0.00000   0.00000  -0.00002  -0.00002   1.97144
   A42        2.20427   0.00000   0.00000   0.00002   0.00002   2.20429
   A43        1.96584  -0.00000   0.00000  -0.00000  -0.00000   1.96584
   A44        1.88315  -0.00000   0.00000  -0.00000  -0.00000   1.88315
   A45        1.86975   0.00000   0.00000   0.00000   0.00000   1.86975
   A46        1.97410   0.00000   0.00000   0.00001   0.00001   1.97411
   A47        1.91671  -0.00000   0.00000  -0.00000  -0.00000   1.91670
   A48        1.84773  -0.00000   0.00000  -0.00001  -0.00001   1.84772
   A49        1.92986  -0.00000   0.00000  -0.00000  -0.00000   1.92986
   A50        1.91574   0.00000   0.00000  -0.00000  -0.00000   1.91573
   A51        1.91095   0.00000   0.00000   0.00000   0.00000   1.91095
   A52        1.90949   0.00000   0.00000   0.00000   0.00000   1.90949
   A53        1.93377   0.00000   0.00000  -0.00000  -0.00000   1.93377
   A54        1.86286  -0.00000   0.00000  -0.00000  -0.00000   1.86285
   A55        1.92592   0.00000   0.00000   0.00001   0.00001   1.92592
   A56        1.93998  -0.00000   0.00000   0.00000   0.00000   1.93998
   A57        1.90795  -0.00000   0.00000  -0.00000  -0.00000   1.90794
   A58        1.90960  -0.00000   0.00000  -0.00000  -0.00000   1.90960
   A59        1.91254  -0.00000   0.00000  -0.00000  -0.00000   1.91253
   A60        1.86685   0.00000   0.00000  -0.00000  -0.00000   1.86685
   A61        1.97365  -0.00000   0.00000  -0.00000  -0.00000   1.97365
   A62        1.90889   0.00000   0.00000  -0.00000  -0.00000   1.90889
   A63        1.88708   0.00000   0.00000   0.00000   0.00000   1.88708
   A64        1.93686  -0.00000   0.00000  -0.00000  -0.00000   1.93685
   A65        1.90268   0.00000   0.00000   0.00000   0.00000   1.90269
   A66        1.84988  -0.00000   0.00000  -0.00000  -0.00000   1.84987
   A67        1.85135   0.00000   0.00000   0.00000   0.00000   1.85136
   A68        1.75711  -0.00000   0.00000  -0.00000  -0.00000   1.75711
   A69        1.94501  -0.00000   0.00000  -0.00000  -0.00000   1.94501
   A70        1.98544  -0.00000   0.00000  -0.00001  -0.00001   1.98543
   A71        1.87895  -0.00000   0.00000  -0.00000  -0.00000   1.87894
   A72        1.84947   0.00000   0.00000   0.00001   0.00001   1.84947
   A73        2.02173   0.00000   0.00000   0.00002   0.00002   2.02174
   A74        2.11808   0.00000   0.00000   0.00000   0.00000   2.11808
   A75        2.09189  -0.00000   0.00000  -0.00001  -0.00001   2.09189
   A76        2.07048   0.00000   0.00000   0.00000   0.00000   2.07048
   A77        2.10539  -0.00000   0.00000  -0.00000  -0.00000   2.10539
   A78        2.09573  -0.00000   0.00000  -0.00000  -0.00000   2.09572
   A79        2.08206   0.00000   0.00000   0.00000   0.00000   2.08207
   A80        2.10045  -0.00000   0.00000  -0.00000  -0.00000   2.10045
   A81        2.08365   0.00000   0.00000   0.00000   0.00000   2.08365
   A82        2.09907   0.00000   0.00000   0.00000   0.00000   2.09907
   A83        2.08426   0.00000   0.00000   0.00000   0.00000   2.08426
   A84        2.09981  -0.00000   0.00000  -0.00000  -0.00000   2.09981
   A85        2.09911  -0.00000   0.00000  -0.00000  -0.00000   2.09911
   A86        2.09883  -0.00000   0.00000  -0.00000  -0.00000   2.09883
   A87        2.10008   0.00000   0.00000   0.00000   0.00000   2.10008
   A88        2.08421  -0.00000   0.00000  -0.00000  -0.00000   2.08421
   A89        2.10695  -0.00000   0.00000  -0.00000  -0.00000   2.10694
   A90        2.09283   0.00000   0.00000   0.00000   0.00000   2.09283
   A91        2.08314   0.00000   0.00000   0.00000   0.00000   2.08314
   A92        2.08386  -0.00000   0.00000  -0.00001  -0.00001   2.08386
   A93        2.13156   0.00000   0.00000   0.00001   0.00001   2.13158
   A94        2.06584  -0.00000   0.00000  -0.00000  -0.00000   2.06584
   A95        2.11111   0.00000   0.00000   0.00000   0.00000   2.11111
   A96        2.09770  -0.00000   0.00000  -0.00000  -0.00000   2.09770
   A97        2.07411   0.00000   0.00000   0.00000   0.00000   2.07412
   A98        2.09653   0.00000   0.00000   0.00000   0.00000   2.09654
   A99        2.08782   0.00000   0.00000   0.00000   0.00000   2.08782
   A100       2.09883  -0.00000   0.00000  -0.00000  -0.00000   2.09882
   A101       2.08437  -0.00000   0.00000  -0.00000  -0.00000   2.08437
   A102       2.09837  -0.00000   0.00000  -0.00000  -0.00000   2.09837
   A103       2.10040   0.00000   0.00000   0.00001   0.00001   2.10041
   A104       2.10086  -0.00000   0.00000  -0.00000  -0.00000   2.10086
   A105       2.09791   0.00000   0.00000   0.00001   0.00001   2.09792
   A106       2.08440  -0.00000   0.00000  -0.00000  -0.00000   2.08439
   A107       2.10705   0.00000   0.00000   0.00000   0.00000   2.10706
   A108       2.09151   0.00000   0.00000   0.00000   0.00000   2.09151
   A109       2.08462  -0.00000   0.00000  -0.00001  -0.00001   2.08462
   A110       2.10061   0.00000   0.00000   0.00000   0.00000   2.10061
   A111       2.08735  -0.00000   0.00000  -0.00000  -0.00000   2.08734
   A112       2.09508   0.00000   0.00000   0.00000   0.00000   2.09508
   A113       2.08974   0.00000   0.00000   0.00000   0.00000   2.08974
   A114       2.10015  -0.00000   0.00000  -0.00000  -0.00000   2.10014
   A115       2.09325   0.00000   0.00000   0.00000   0.00000   2.09325
   A116       1.40602   0.00000   0.00000   0.00001   0.00001   1.40603
   A117       1.66499   0.00000   0.00000   0.00001   0.00001   1.66500
   A118       2.22920  -0.00000   0.00000   0.00000   0.00000   2.22920
   A119       1.78994  -0.00000   0.00000  -0.00002  -0.00002   1.78992
   A120       1.75754  -0.00000   0.00000  -0.00001  -0.00001   1.75753
   A121       2.33334   0.00000   0.00000  -0.00000  -0.00000   2.33334
    D1        0.02278  -0.00000   0.00000  -0.00001  -0.00001   0.02278
    D2       -3.11780  -0.00000   0.00000  -0.00001  -0.00001  -3.11781
    D3       -3.13531   0.00000   0.00000   0.00000   0.00000  -3.13530
    D4        0.00730   0.00000   0.00000   0.00000   0.00000   0.00730
    D5       -0.01010   0.00000   0.00000   0.00002   0.00002  -0.01008
    D6        3.12103   0.00000   0.00000   0.00001   0.00001   3.12104
    D7       -3.13523   0.00000   0.00000   0.00001   0.00001  -3.13522
    D8       -0.00410  -0.00000   0.00000  -0.00000  -0.00000  -0.00410
    D9       -0.00842  -0.00000   0.00000  -0.00002  -0.00002  -0.00843
   D10       -3.10738  -0.00000   0.00000  -0.00001  -0.00001  -3.10739
   D11        3.13218  -0.00000   0.00000  -0.00002  -0.00002   3.13216
   D12        0.03321  -0.00000   0.00000  -0.00001  -0.00001   0.03321
   D13        3.07435   0.00000   0.00000   0.00002   0.00002   3.07437
   D14       -0.01845   0.00000   0.00000   0.00003   0.00003  -0.01842
   D15       -0.11005   0.00000   0.00000   0.00001   0.00001  -0.11004
   D16        3.08033   0.00000   0.00000   0.00002   0.00002   3.08035
   D17        0.47825  -0.00000   0.00000   0.00001   0.00001   0.47826
   D18       -1.61004   0.00000   0.00000   0.00002   0.00002  -1.61003
   D19        2.55392   0.00000   0.00000   0.00004   0.00004   2.55396
   D20       -2.71119  -0.00000   0.00000   0.00001   0.00001  -2.71118
   D21        1.48370  -0.00000   0.00000   0.00001   0.00001   1.48371
   D22       -0.63552   0.00000   0.00000   0.00003   0.00003  -0.63549
   D23        0.03113  -0.00000   0.00000  -0.00002  -0.00002   0.03111
   D24       -3.12899  -0.00000   0.00000  -0.00001  -0.00001  -3.12900
   D25       -3.06356  -0.00000   0.00000  -0.00001  -0.00001  -3.06356
   D26        0.05952  -0.00000   0.00000  -0.00000  -0.00000   0.05951
   D27       -2.49456   0.00000   0.00000   0.00000   0.00000  -2.49455
   D28        0.51287   0.00000   0.00000   0.00003   0.00003   0.51289
   D29       -0.27932   0.00000   0.00000   0.00000   0.00000  -0.27932
   D30        2.72810   0.00000   0.00000   0.00003   0.00003   2.72813
   D31        1.70589  -0.00000   0.00000  -0.00002  -0.00002   1.70586
   D32       -1.56988  -0.00000   0.00000   0.00000   0.00000  -1.56987
   D33        2.56676  -0.00000   0.00000   0.00001   0.00001   2.56677
   D34        0.57831   0.00000   0.00000   0.00002   0.00002   0.57833
   D35       -1.74629  -0.00000   0.00000   0.00001   0.00001  -1.74627
   D36        0.36239  -0.00000   0.00000   0.00001   0.00001   0.36240
   D37       -1.62606   0.00000   0.00000   0.00002   0.00002  -1.62604
   D38        2.33253  -0.00000   0.00000   0.00001   0.00001   2.33253
   D39       -1.60401   0.00000   0.00000   0.00001   0.00001  -1.60400
   D40        2.69073   0.00000   0.00000   0.00002   0.00002   2.69075
   D41        0.36613  -0.00000   0.00000   0.00001   0.00001   0.36614
   D42       -3.07291  -0.00000   0.00000   0.00000   0.00000  -3.07291
   D43        0.07344  -0.00000   0.00000  -0.00001  -0.00001   0.07343
   D44        0.15813  -0.00000   0.00000  -0.00001  -0.00001   0.15812
   D45       -2.97870  -0.00000   0.00000  -0.00003  -0.00003  -2.97872
   D46        3.13021  -0.00000   0.00000  -0.00002  -0.00002   3.13019
   D47       -1.37506  -0.00000   0.00000  -0.00004  -0.00004  -1.37509
   D48        1.44987   0.00000   0.00000  -0.00000  -0.00000   1.44987
   D49       -0.14796  -0.00000   0.00000   0.00001   0.00001  -0.14795
   D50        1.62996  -0.00000   0.00000  -0.00001  -0.00001   1.62995
   D51       -1.82830   0.00000   0.00000   0.00002   0.00002  -1.82828
   D52        3.07511   0.00000   0.00000  -0.00000  -0.00000   3.07511
   D53       -0.05575   0.00000   0.00000   0.00001   0.00001  -0.05573
   D54       -0.07132   0.00000   0.00000   0.00001   0.00001  -0.07130
   D55        3.08101   0.00000   0.00000   0.00003   0.00003   3.08104
   D56        0.18852   0.00000   0.00000   0.00002   0.00002   0.18854
   D57       -2.94841   0.00000   0.00000   0.00001   0.00001  -2.94840
   D58       -3.11619   0.00000   0.00000   0.00002   0.00002  -3.11617
   D59        0.01917   0.00000   0.00000   0.00002   0.00002   0.01919
   D60        0.01370   0.00000   0.00000   0.00000   0.00000   0.01370
   D61       -3.13413  -0.00000   0.00000  -0.00000  -0.00000  -3.13413
   D62        3.12183  -0.00000   0.00000  -0.00004  -0.00004   3.12179
   D63       -0.08012  -0.00000   0.00000  -0.00000  -0.00000  -0.08012
   D64       -0.00926  -0.00000   0.00000  -0.00002  -0.00002  -0.00928
   D65        3.07198   0.00000   0.00000   0.00002   0.00002   3.07200
   D66       -0.00236   0.00000   0.00000   0.00001   0.00001  -0.00236
   D67        3.13803   0.00000   0.00000   0.00001   0.00001   3.13804
   D68       -3.13759   0.00000   0.00000   0.00001   0.00001  -3.13758
   D69        0.00281   0.00000   0.00000   0.00001   0.00001   0.00282
   D70       -0.01249  -0.00000   0.00000   0.00000   0.00000  -0.01249
   D71        3.11056   0.00000   0.00000   0.00001   0.00001   3.11057
   D72        3.13029   0.00000   0.00000   0.00000   0.00000   3.13029
   D73       -0.02985   0.00000   0.00000   0.00001   0.00001  -0.02984
   D74        0.01735  -0.00000   0.00000  -0.00002  -0.00002   0.01733
   D75       -3.10611  -0.00000   0.00000  -0.00002  -0.00002  -3.10612
   D76       -3.10577  -0.00000   0.00000  -0.00002  -0.00002  -3.10580
   D77        0.05396  -0.00000   0.00000  -0.00002  -0.00002   0.05394
   D78        2.83769   0.00000   0.00000   0.00001   0.00001   2.83770
   D79        0.66976   0.00000   0.00000   0.00002   0.00002   0.66978
   D80       -1.33703   0.00000   0.00000   0.00002   0.00002  -1.33701
   D81       -0.32291   0.00000   0.00000   0.00002   0.00002  -0.32289
   D82       -2.49085   0.00000   0.00000   0.00003   0.00003  -2.49082
   D83        1.78555   0.00000   0.00000   0.00003   0.00003   1.78558
   D84       -0.00677   0.00000   0.00000   0.00003   0.00003  -0.00674
   D85       -3.07940  -0.00000   0.00000  -0.00001  -0.00001  -3.07941
   D86        3.11778   0.00000   0.00000   0.00003   0.00003   3.11781
   D87        0.04515  -0.00000   0.00000  -0.00001  -0.00001   0.04514
   D88       -0.30221   0.00000   0.00000   0.00001   0.00001  -0.30220
   D89       -2.49355  -0.00000   0.00000   0.00001   0.00001  -2.49355
   D90        1.80714  -0.00000   0.00000   0.00001   0.00001   1.80716
   D91        2.85683   0.00000   0.00000   0.00002   0.00002   2.85685
   D92        0.66549  -0.00000   0.00000   0.00001   0.00001   0.66550
   D93       -1.31700   0.00000   0.00000   0.00001   0.00001  -1.31698
   D94        0.12417  -0.00000   0.00000  -0.00000  -0.00000   0.12417
   D95       -1.50731  -0.00000   0.00000  -0.00002  -0.00002  -1.50733
   D96        2.33823  -0.00000   0.00000  -0.00000  -0.00000   2.33823
   D97       -3.08185   0.00000   0.00000   0.00004   0.00004  -3.08181
   D98        1.56985  -0.00000   0.00000   0.00002   0.00002   1.56987
   D99       -0.86779   0.00000   0.00000   0.00004   0.00004  -0.86775
   D100       0.81197  -0.00000   0.00000  -0.00001  -0.00001   0.81196
   D101      -1.29629  -0.00000   0.00000  -0.00001  -0.00001  -1.29630
   D102       2.94742  -0.00000   0.00000  -0.00001  -0.00001   2.94742
   D103       2.95308  -0.00000   0.00000  -0.00000  -0.00000   2.95308
   D104       0.84482  -0.00000   0.00000  -0.00001  -0.00001   0.84482
   D105      -1.19465  -0.00000   0.00000  -0.00000  -0.00000  -1.19465
   D106      -1.27030  -0.00000   0.00000  -0.00001  -0.00001  -1.27031
   D107       2.90462  -0.00000   0.00000  -0.00001  -0.00001   2.90461
   D108       0.86516  -0.00000   0.00000  -0.00001  -0.00001   0.86515
   D109      -1.09769  -0.00000   0.00000  -0.00000  -0.00000  -1.09769
   D110       3.06366  -0.00000   0.00000  -0.00000  -0.00000   3.06366
   D111       1.00684  -0.00000   0.00000  -0.00000  -0.00000   1.00683
   D112       1.01429  -0.00000   0.00000   0.00000   0.00000   1.01429
   D113      -1.10755  -0.00000   0.00000  -0.00000  -0.00000  -1.10755
   D114       3.11881  -0.00000   0.00000  -0.00000  -0.00000   3.11881
   D115       3.06346  -0.00000   0.00000  -0.00000  -0.00000   3.06346
   D116       0.94162  -0.00000   0.00000  -0.00001  -0.00001   0.94161
   D117      -1.11520  -0.00000   0.00000  -0.00000  -0.00000  -1.11521
   D118       0.83395   0.00000   0.00000  -0.00001  -0.00001   0.83395
   D119       2.98653  -0.00000   0.00000  -0.00001  -0.00001   2.98651
   D120      -1.26563  -0.00000   0.00000  -0.00001  -0.00001  -1.26564
   D121       2.97370   0.00000   0.00000  -0.00000  -0.00000   2.97370
   D122      -1.15692   0.00000   0.00000  -0.00001  -0.00001  -1.15692
   D123       0.87411  -0.00000   0.00000  -0.00001  -0.00001   0.87411
   D124      -1.26782  -0.00000   0.00000  -0.00000  -0.00000  -1.26782
   D125       0.88475  -0.00000   0.00000  -0.00001  -0.00001   0.88474
   D126       2.91579  -0.00000   0.00000  -0.00001  -0.00001   2.91577
   D127      -0.33133   0.00000   0.00000  -0.00002  -0.00002  -0.33135
   D128       1.70664  -0.00000   0.00000  -0.00002  -0.00002   1.70662
   D129      -2.40318   0.00000   0.00000   0.00000   0.00000  -2.40318
   D130       1.74639   0.00000   0.00000  -0.00002  -0.00002   1.74637
   D131      -1.31472  -0.00000   0.00000  -0.00004  -0.00004  -1.31476
   D132      -0.16479   0.00000   0.00000  -0.00001  -0.00001  -0.16480
   D133       3.05729   0.00000   0.00000  -0.00003  -0.00003   3.05726
   D134      -2.23039  -0.00000   0.00000  -0.00002  -0.00002  -2.23041
   D135       0.99169  -0.00000   0.00000  -0.00005  -0.00005   0.99164
   D136      -0.78009   0.00000   0.00000   0.00009   0.00009  -0.78001
   D137       2.42911   0.00000   0.00000   0.00008   0.00008   2.42918
   D138       1.13385  -0.00000   0.00000   0.00008   0.00008   1.13392
   D139      -1.94014  -0.00000   0.00000   0.00007   0.00007  -1.94007
   D140      -3.06755   0.00000   0.00000   0.00009   0.00009  -3.06746
   D141       0.14165   0.00000   0.00000   0.00008   0.00008   0.14173
   D142      -3.05809  -0.00000   0.00000  -0.00002  -0.00002  -3.05812
   D143       0.08376  -0.00000   0.00000  -0.00003  -0.00003   0.08373
   D144       0.00397  -0.00000   0.00000   0.00000   0.00000   0.00397
   D145      -3.13736  -0.00000   0.00000  -0.00000  -0.00000  -3.13737
   D146       3.06071   0.00000   0.00000   0.00004   0.00004   3.06075
   D147      -0.05572   0.00000   0.00000   0.00001   0.00001  -0.05571
   D148      -0.00258   0.00000   0.00000   0.00001   0.00001  -0.00257
   D149      -3.11901  -0.00000   0.00000  -0.00002  -0.00002  -3.11903
   D150      -0.00129  -0.00000   0.00000  -0.00001  -0.00001  -0.00131
   D151       3.13393  -0.00000   0.00000  -0.00000  -0.00000   3.13392
   D152       3.14005  -0.00000   0.00000  -0.00001  -0.00001   3.14004
   D153      -0.00792   0.00000   0.00000   0.00000   0.00000  -0.00792
   D154      -0.00283   0.00000   0.00000   0.00001   0.00001  -0.00283
   D155       3.13466   0.00000   0.00000   0.00001   0.00001   3.13467
   D156      -3.13800  -0.00000   0.00000  -0.00000  -0.00000  -3.13800
   D157      -0.00051  -0.00000   0.00000  -0.00000  -0.00000  -0.00051
   D158       0.00422   0.00000   0.00000   0.00001   0.00001   0.00423
   D159       3.13298  -0.00000   0.00000  -0.00001  -0.00001   3.13297
   D160      -3.13327   0.00000   0.00000   0.00001   0.00001  -3.13327
   D161      -0.00451  -0.00000   0.00000  -0.00001  -0.00001  -0.00452
   D162      -0.00151  -0.00000   0.00000  -0.00002  -0.00002  -0.00152
   D163       3.11506   0.00000   0.00000   0.00001   0.00001   3.11507
   D164      -3.13038  -0.00000   0.00000  -0.00000  -0.00000  -3.13039
   D165      -0.01381   0.00000   0.00000   0.00003   0.00003  -0.01379
   D166      -3.10840  -0.00000   0.00000  -0.00002  -0.00002  -3.10842
   D167       0.00833  -0.00000   0.00000  -0.00000  -0.00000   0.00833
   D168      -0.03187  -0.00000   0.00000  -0.00001  -0.00001  -0.03188
   D169       3.08486   0.00000   0.00000   0.00001   0.00001   3.08487
   D170       3.11074   0.00000   0.00000   0.00002   0.00002   3.11075
   D171      -0.02888   0.00000   0.00000   0.00001   0.00001  -0.02887
   D172       0.03608   0.00000   0.00000   0.00001   0.00001   0.03609
   D173      -3.10354   0.00000   0.00000   0.00000   0.00000  -3.10354
   D174       0.00601   0.00000   0.00000   0.00001   0.00001   0.00601
   D175      -3.13947   0.00000   0.00000   0.00001   0.00001  -3.13946
   D176      -3.11105  -0.00000   0.00000  -0.00001  -0.00001  -3.11106
   D177       0.02666  -0.00000   0.00000  -0.00001  -0.00001   0.02665
   D178       0.01619  -0.00000   0.00000  -0.00000  -0.00000   0.01618
   D179      -3.13553   0.00000   0.00000   0.00000   0.00000  -3.13553
   D180      -3.12150  -0.00000   0.00000  -0.00001  -0.00001  -3.12150
   D181       0.00998  -0.00000   0.00000  -0.00001  -0.00001   0.00997
   D182      -0.01196   0.00000   0.00000   0.00000   0.00000  -0.01196
   D183       3.12347  -0.00000   0.00000  -0.00001  -0.00001   3.12346
   D184       3.13977  -0.00000   0.00000  -0.00000  -0.00000   3.13976
   D185      -0.00799  -0.00000   0.00000  -0.00001  -0.00001  -0.00800
   D186      -0.01461  -0.00000   0.00000  -0.00000  -0.00000  -0.01461
   D187       3.12502  -0.00000   0.00000   0.00000   0.00000   3.12502
   D188       3.13311   0.00000   0.00000   0.00000   0.00000   3.13311
   D189      -0.01045   0.00000   0.00000   0.00001   0.00001  -0.01044
   D190      -0.01670  -0.00000   0.00000  -0.00001  -0.00001  -0.01671
   D191       3.13531   0.00000   0.00000   0.00000   0.00000   3.13531
   D192      -3.13969  -0.00000   0.00000  -0.00001  -0.00001  -3.13970
   D193       0.01232   0.00000   0.00000   0.00000   0.00000   0.01232
         Item               Value     Threshold  Converged?
 Maximum Force            0.000011     0.000450     YES
 RMS     Force            0.000001     0.000300     YES
 Maximum Displacement     0.000319     0.001800     YES
 RMS     Displacement     0.000058     0.001200     YES
 Predicted change in Energy=-1.773761D-09
 Optimization completed.
    -- Stationary point found.
                           ----------------------------
                           !   Optimized Parameters   !
                           ! (Angstroms and Degrees)  !
 --------------------------                            --------------------------
 ! Name  Definition              Value          Derivative Info.                !
 --------------------------------------------------------------------------------
 ! R1    R(1,2)                  1.3952         -DE/DX =    0.0                 !
 ! R2    R(1,33)                 1.3966         -DE/DX =    0.0                 !
 ! R3    R(1,34)                 1.0867         -DE/DX =    0.0                 !
 ! R4    R(2,3)                  1.3956         -DE/DX =    0.0                 !
 ! R5    R(2,35)                 1.0863         -DE/DX =    0.0                 !
 ! R6    R(3,4)                  1.3983         -DE/DX =    0.0                 !
 ! R7    R(3,36)                 1.0888         -DE/DX =    0.0                 !
 ! R8    R(4,5)                  1.5044         -DE/DX =    0.0                 !
 ! R9    R(4,32)                 1.3999         -DE/DX =    0.0                 !
 ! R10   R(5,6)                  1.4686         -DE/DX =    0.0                 !
 ! R11   R(5,19)                 1.5963         -DE/DX =    0.0                 !
 ! R12   R(5,37)                 1.0947         -DE/DX =    0.0                 !
 ! R13   R(6,7)                  1.2832         -DE/DX =    0.0                 !
 ! R14   R(6,60)                 2.0662         -DE/DX =    0.0                 !
 ! R15   R(7,8)                  1.4657         -DE/DX =    0.0                 !
 ! R16   R(7,18)                 1.3384         -DE/DX =    0.0                 !
 ! R17   R(8,9)                  1.3886         -DE/DX =    0.0                 !
 ! R18   R(8,13)                 1.3462         -DE/DX =    0.0                 !
 ! R19   R(9,10)                 1.3939         -DE/DX =    0.0                 !
 ! R20   R(9,38)                 1.0838         -DE/DX =    0.0                 !
 ! R21   R(10,11)                1.3956         -DE/DX =    0.0                 !
 ! R22   R(10,39)                1.087          -DE/DX =    0.0                 !
 ! R23   R(11,12)                1.4122         -DE/DX =    0.0                 !
 ! R24   R(11,17)                1.5136         -DE/DX =    0.0                 !
 ! R25   R(12,13)                1.3379         -DE/DX =    0.0                 !
 ! R26   R(12,14)                1.507          -DE/DX =    0.0                 !
 ! R27   R(13,60)                2.0724         -DE/DX =    0.0                 !
 ! R28   R(14,15)                1.5306         -DE/DX =    0.0                 !
 ! R29   R(14,40)                1.0964         -DE/DX =    0.0                 !
 ! R30   R(14,41)                1.1007         -DE/DX =    0.0                 !
 ! R31   R(15,16)                1.5319         -DE/DX =    0.0                 !
 ! R32   R(15,42)                1.0988         -DE/DX =    0.0                 !
 ! R33   R(15,43)                1.0948         -DE/DX =    0.0                 !
 ! R34   R(16,17)                1.5338         -DE/DX =    0.0                 !
 ! R35   R(16,44)                1.0955         -DE/DX =    0.0                 !
 ! R36   R(16,45)                1.0984         -DE/DX =    0.0                 !
 ! R37   R(17,46)                1.0968         -DE/DX =    0.0                 !
 ! R38   R(17,47)                1.1002         -DE/DX =    0.0                 !
 ! R39   R(18,19)                1.4904         -DE/DX =    0.0                 !
 ! R40   R(19,20)                1.521          -DE/DX =    0.0                 !
 ! R41   R(19,26)                1.5214         -DE/DX =    0.0                 !
 ! R42   R(20,21)                1.3971         -DE/DX =    0.0                 !
 ! R43   R(20,25)                1.4033         -DE/DX =    0.0                 !
 ! R44   R(21,22)                1.396          -DE/DX =    0.0                 !
 ! R45   R(21,48)                1.0826         -DE/DX =    0.0                 !
 ! R46   R(22,23)                1.3925         -DE/DX =    0.0                 !
 ! R47   R(22,49)                1.086          -DE/DX =    0.0                 !
 ! R48   R(23,24)                1.396          -DE/DX =    0.0                 !
 ! R49   R(23,50)                1.0861         -DE/DX =    0.0                 !
 ! R50   R(24,25)                1.3912         -DE/DX =    0.0                 !
 ! R51   R(24,51)                1.086          -DE/DX =    0.0                 !
 ! R52   R(25,52)                1.0832         -DE/DX =    0.0                 !
 ! R53   R(26,27)                1.4035         -DE/DX =    0.0                 !
 ! R54   R(26,31)                1.3987         -DE/DX =    0.0                 !
 ! R55   R(27,28)                1.3921         -DE/DX =    0.0                 !
 ! R56   R(27,53)                1.0854         -DE/DX =    0.0                 !
 ! R57   R(28,29)                1.396          -DE/DX =    0.0                 !
 ! R58   R(28,54)                1.0861         -DE/DX =    0.0                 !
 ! R59   R(29,30)                1.393          -DE/DX =    0.0                 !
 ! R60   R(29,55)                1.0862         -DE/DX =    0.0                 !
 ! R61   R(30,31)                1.3957         -DE/DX =    0.0                 !
 ! R62   R(30,56)                1.0862         -DE/DX =    0.0                 !
 ! R63   R(31,57)                1.0826         -DE/DX =    0.0                 !
 ! R64   R(32,33)                1.3934         -DE/DX =    0.0                 !
 ! R65   R(32,58)                1.0882         -DE/DX =    0.0                 !
 ! R66   R(33,59)                1.0865         -DE/DX =    0.0                 !
 ! R67   R(60,61)                1.8406         -DE/DX =    0.0                 !
 ! R68   R(60,62)                1.8198         -DE/DX =    0.0                 !
 ! A1    A(2,1,33)             119.7987         -DE/DX =    0.0                 !
 ! A2    A(2,1,34)             120.1991         -DE/DX =    0.0                 !
 ! A3    A(33,1,34)            119.9955         -DE/DX =    0.0                 !
 ! A4    A(1,2,3)              120.7961         -DE/DX =    0.0                 !
 ! A5    A(1,2,35)             120.1038         -DE/DX =    0.0                 !
 ! A6    A(3,2,35)             119.1001         -DE/DX =    0.0                 !
 ! A7    A(2,3,4)              119.2643         -DE/DX =    0.0                 !
 ! A8    A(2,3,36)             120.1321         -DE/DX =    0.0                 !
 ! A9    A(4,3,36)             120.558          -DE/DX =    0.0                 !
 ! A10   A(3,4,5)              121.912          -DE/DX =    0.0                 !
 ! A11   A(3,4,32)             120.0239         -DE/DX =    0.0                 !
 ! A12   A(5,4,32)             118.0073         -DE/DX =    0.0                 !
 ! A13   A(4,5,6)              115.111          -DE/DX =    0.0                 !
 ! A14   A(4,5,19)             116.0761         -DE/DX =    0.0                 !
 ! A15   A(4,5,37)             107.5599         -DE/DX =    0.0                 !
 ! A16   A(6,5,19)             102.4632         -DE/DX =    0.0                 !
 ! A17   A(6,5,37)             106.8303         -DE/DX =    0.0                 !
 ! A18   A(19,5,37)            108.2907         -DE/DX =    0.0                 !
 ! A19   A(5,6,7)              107.7215         -DE/DX =    0.0                 !
 ! A20   A(5,6,60)             141.3192         -DE/DX =    0.0                 !
 ! A21   A(7,6,60)             110.6314         -DE/DX =    0.0                 !
 ! A22   A(6,7,8)              121.8131         -DE/DX =    0.0                 !
 ! A23   A(6,7,18)             118.3147         -DE/DX =    0.0                 !
 ! A24   A(8,7,18)             119.8716         -DE/DX =    0.0                 !
 ! A25   A(7,8,9)              124.3566         -DE/DX =    0.0                 !
 ! A26   A(7,8,13)             113.1233         -DE/DX =    0.0                 !
 ! A27   A(9,8,13)             122.5172         -DE/DX =    0.0                 !
 ! A28   A(8,9,10)             117.3222         -DE/DX =    0.0                 !
 ! A29   A(8,9,38)             120.3628         -DE/DX =    0.0                 !
 ! A30   A(10,9,38)            122.314          -DE/DX =    0.0                 !
 ! A31   A(9,10,11)            120.7025         -DE/DX =    0.0                 !
 ! A32   A(9,10,39)            119.8795         -DE/DX =    0.0                 !
 ! A33   A(11,10,39)           119.418          -DE/DX =    0.0                 !
 ! A34   A(10,11,12)           118.1815         -DE/DX =    0.0                 !
 ! A35   A(10,11,17)           121.0768         -DE/DX =    0.0                 !
 ! A36   A(12,11,17)           120.733          -DE/DX =    0.0                 !
 ! A37   A(11,12,13)           120.6213         -DE/DX =    0.0                 !
 ! A38   A(11,12,14)           122.809          -DE/DX =    0.0                 !
 ! A39   A(13,12,14)           116.5621         -DE/DX =    0.0                 !
 ! A40   A(8,13,12)            120.6458         -DE/DX =    0.0                 !
 ! A41   A(8,13,60)            112.9564         -DE/DX =    0.0                 !
 ! A42   A(12,13,60)           126.2952         -DE/DX =    0.0                 !
 ! A43   A(12,14,15)           112.6344         -DE/DX =    0.0                 !
 ! A44   A(12,14,40)           107.8966         -DE/DX =    0.0                 !
 ! A45   A(12,14,41)           107.1287         -DE/DX =    0.0                 !
 ! A46   A(15,14,40)           113.1075         -DE/DX =    0.0                 !
 ! A47   A(15,14,41)           109.8192         -DE/DX =    0.0                 !
 ! A48   A(40,14,41)           105.8669         -DE/DX =    0.0                 !
 ! A49   A(14,15,16)           110.573          -DE/DX =    0.0                 !
 ! A50   A(14,15,42)           109.7635         -DE/DX =    0.0                 !
 ! A51   A(14,15,43)           109.4891         -DE/DX =    0.0                 !
 ! A52   A(16,15,42)           109.4056         -DE/DX =    0.0                 !
 ! A53   A(16,15,43)           110.7971         -DE/DX =    0.0                 !
 ! A54   A(42,15,43)           106.7338         -DE/DX =    0.0                 !
 ! A55   A(15,16,17)           110.347          -DE/DX =    0.0                 !
 ! A56   A(15,16,44)           111.1525         -DE/DX =    0.0                 !
 ! A57   A(15,16,45)           109.3172         -DE/DX =    0.0                 !
 ! A58   A(17,16,44)           109.4122         -DE/DX =    0.0                 !
 ! A59   A(17,16,45)           109.5803         -DE/DX =    0.0                 !
 ! A60   A(44,16,45)           106.9628         -DE/DX =    0.0                 !
 ! A61   A(11,17,16)           113.082          -DE/DX =    0.0                 !
 ! A62   A(11,17,46)           109.3715         -DE/DX =    0.0                 !
 ! A63   A(11,17,47)           108.1214         -DE/DX =    0.0                 !
 ! A64   A(16,17,46)           110.9738         -DE/DX =    0.0                 !
 ! A65   A(16,17,47)           109.0158         -DE/DX =    0.0                 !
 ! A66   A(46,17,47)           105.99           -DE/DX =    0.0                 !
 ! A67   A(7,18,19)            106.0748         -DE/DX =    0.0                 !
 ! A68   A(5,19,18)            100.6752         -DE/DX =    0.0                 !
 ! A69   A(5,19,20)            111.441          -DE/DX =    0.0                 !
 ! A70   A(5,19,26)            113.7573         -DE/DX =    0.0                 !
 ! A71   A(18,19,20)           107.6557         -DE/DX =    0.0                 !
 ! A72   A(18,19,26)           105.9667         -DE/DX =    0.0                 !
 ! A73   A(20,19,26)           115.8363         -DE/DX =    0.0                 !
 ! A74   A(19,20,21)           121.3571         -DE/DX =    0.0                 !
 ! A75   A(19,20,25)           119.8565         -DE/DX =    0.0                 !
 ! A76   A(21,20,25)           118.6298         -DE/DX =    0.0                 !
 ! A77   A(20,21,22)           120.6302         -DE/DX =    0.0                 !
 ! A78   A(20,21,48)           120.0763         -DE/DX =    0.0                 !
 ! A79   A(22,21,48)           119.2935         -DE/DX =    0.0                 !
 ! A80   A(21,22,23)           120.3469         -DE/DX =    0.0                 !
 ! A81   A(21,22,49)           119.3841         -DE/DX =    0.0                 !
 ! A82   A(23,22,49)           120.2679         -DE/DX =    0.0                 !
 ! A83   A(22,23,24)           119.4193         -DE/DX =    0.0                 !
 ! A84   A(22,23,50)           120.3103         -DE/DX =    0.0                 !
 ! A85   A(24,23,50)           120.27           -DE/DX =    0.0                 !
 ! A86   A(23,24,25)           120.2541         -DE/DX =    0.0                 !
 ! A87   A(23,24,51)           120.3256         -DE/DX =    0.0                 !
 ! A88   A(25,24,51)           119.4163         -DE/DX =    0.0                 !
 ! A89   A(20,25,24)           120.7191         -DE/DX =    0.0                 !
 ! A90   A(20,25,52)           119.9105         -DE/DX =    0.0                 !
 ! A91   A(24,25,52)           119.3549         -DE/DX =    0.0                 !
 ! A92   A(19,26,27)           119.3967         -DE/DX =    0.0                 !
 ! A93   A(19,26,31)           122.1295         -DE/DX =    0.0                 !
 ! A94   A(27,26,31)           118.364          -DE/DX =    0.0                 !
 ! A95   A(26,27,28)           120.9578         -DE/DX =    0.0                 !
 ! A96   A(26,27,53)           120.1893         -DE/DX =    0.0                 !
 ! A97   A(28,27,53)           118.8379         -DE/DX =    0.0                 !
 ! A98   A(27,28,29)           120.1225         -DE/DX =    0.0                 !
 ! A99   A(27,28,54)           119.6232         -DE/DX =    0.0                 !
 ! A100  A(29,28,54)           120.2539         -DE/DX =    0.0                 !
 ! A101  A(28,29,30)           119.4254         -DE/DX =    0.0                 !
 ! A102  A(28,29,55)           120.2279         -DE/DX =    0.0                 !
 ! A103  A(30,29,55)           120.3441         -DE/DX =    0.0                 !
 ! A104  A(29,30,31)           120.3704         -DE/DX =    0.0                 !
 ! A105  A(29,30,56)           120.2015         -DE/DX =    0.0                 !
 ! A106  A(31,30,56)           119.4272         -DE/DX =    0.0                 !
 ! A107  A(26,31,30)           120.7252         -DE/DX =    0.0                 !
 ! A108  A(26,31,57)           119.8345         -DE/DX =    0.0                 !
 ! A109  A(30,31,57)           119.4401         -DE/DX =    0.0                 !
 ! A110  A(4,32,33)            120.356          -DE/DX =    0.0                 !
 ! A111  A(4,32,58)            119.5962         -DE/DX =    0.0                 !
 ! A112  A(33,32,58)           120.0393         -DE/DX =    0.0                 !
 ! A113  A(1,33,32)            119.7333         -DE/DX =    0.0                 !
 ! A114  A(1,33,59)            120.3295         -DE/DX =    0.0                 !
 ! A115  A(32,33,59)           119.9346         -DE/DX =    0.0                 !
 ! A116  A(6,60,13)             80.559          -DE/DX =    0.0                 !
 ! A117  A(6,60,61)             95.397          -DE/DX =    0.0                 !
 ! A118  A(6,60,62)            127.7237         -DE/DX =    0.0                 !
 ! A119  A(13,60,61)           102.5557         -DE/DX =    0.0                 !
 ! A120  A(13,60,62)           100.6997         -DE/DX =    0.0                 !
 ! A121  A(61,60,62)           133.6906         -DE/DX =    0.0                 !
 ! D1    D(33,1,2,3)             1.3054         -DE/DX =    0.0                 !
 ! D2    D(33,1,2,35)         -178.6368         -DE/DX =    0.0                 !
 ! D3    D(34,1,2,3)          -179.6398         -DE/DX =    0.0                 !
 ! D4    D(34,1,2,35)            0.418          -DE/DX =    0.0                 !
 ! D5    D(2,1,33,32)           -0.5787         -DE/DX =    0.0                 !
 ! D6    D(2,1,33,59)          178.8219         -DE/DX =    0.0                 !
 ! D7    D(34,1,33,32)        -179.6355         -DE/DX =    0.0                 !
 ! D8    D(34,1,33,59)          -0.2349         -DE/DX =    0.0                 !
 ! D9    D(1,2,3,4)             -0.4822         -DE/DX =    0.0                 !
 ! D10   D(1,2,3,36)          -178.0399         -DE/DX =    0.0                 !
 ! D11   D(35,2,3,4)           179.4606         -DE/DX =    0.0                 !
 ! D12   D(35,2,3,36)            1.9029         -DE/DX =    0.0                 !
 ! D13   D(2,3,4,5)            176.1475         -DE/DX =    0.0                 !
 ! D14   D(2,3,4,32)            -1.057          -DE/DX =    0.0                 !
 ! D15   D(36,3,4,5)            -6.3055         -DE/DX =    0.0                 !
 ! D16   D(36,3,4,32)          176.49           -DE/DX =    0.0                 !
 ! D17   D(3,4,5,6)             27.4017         -DE/DX =    0.0                 !
 ! D18   D(3,4,5,19)           -92.2486         -DE/DX =    0.0                 !
 ! D19   D(3,4,5,37)           146.3289         -DE/DX =    0.0                 !
 ! D20   D(32,4,5,6)          -155.3397         -DE/DX =    0.0                 !
 ! D21   D(32,4,5,19)           85.01           -DE/DX =    0.0                 !
 ! D22   D(32,4,5,37)          -36.4125         -DE/DX =    0.0                 !
 ! D23   D(3,4,32,33)            1.7835         -DE/DX =    0.0                 !
 ! D24   D(3,4,32,58)         -179.2777         -DE/DX =    0.0                 !
 ! D25   D(5,4,32,33)         -175.5288         -DE/DX =    0.0                 !
 ! D26   D(5,4,32,58)            3.41           -DE/DX =    0.0                 !
 ! D27   D(4,5,6,7)           -142.9275         -DE/DX =    0.0                 !
 ! D28   D(4,5,6,60)            29.385          -DE/DX =    0.0                 !
 ! D29   D(19,5,6,7)           -16.0041         -DE/DX =    0.0                 !
 ! D30   D(19,5,6,60)          156.3085         -DE/DX =    0.0                 !
 ! D31   D(37,5,6,7)            97.7401         -DE/DX =    0.0                 !
 ! D32   D(37,5,6,60)          -89.9473         -DE/DX =    0.0                 !
 ! D33   D(4,5,19,18)          147.0646         -DE/DX =    0.0                 !
 ! D34   D(4,5,19,20)           33.1349         -DE/DX =    0.0                 !
 ! D35   D(4,5,19,26)         -100.0548         -DE/DX =    0.0                 !
 ! D36   D(6,5,19,18)           20.7633         -DE/DX =    0.0                 !
 ! D37   D(6,5,19,20)          -93.1664         -DE/DX =    0.0                 !
 ! D38   D(6,5,19,26)          133.644          -DE/DX =    0.0                 !
 ! D39   D(37,5,19,18)         -91.9028         -DE/DX =    0.0                 !
 ! D40   D(37,5,19,20)         154.1675         -DE/DX =    0.0                 !
 ! D41   D(37,5,19,26)          20.9778         -DE/DX =    0.0                 !
 ! D42   D(5,6,7,8)           -176.0649         -DE/DX =    0.0                 !
 ! D43   D(5,6,7,18)             4.2081         -DE/DX =    0.0                 !
 ! D44   D(60,6,7,8)             9.0603         -DE/DX =    0.0                 !
 ! D45   D(60,6,7,18)         -170.6667         -DE/DX =    0.0                 !
 ! D46   D(5,6,60,13)          179.3478         -DE/DX =    0.0                 !
 ! D47   D(5,6,60,61)          -78.7849         -DE/DX =    0.0                 !
 ! D48   D(5,6,60,62)           83.0716         -DE/DX =    0.0                 !
 ! D49   D(7,6,60,13)           -8.4776         -DE/DX =    0.0                 !
 ! D50   D(7,6,60,61)           93.3897         -DE/DX =    0.0                 !
 ! D51   D(7,6,60,62)         -104.7538         -DE/DX =    0.0                 !
 ! D52   D(6,7,8,9)            176.191          -DE/DX =    0.0                 !
 ! D53   D(6,7,8,13)            -3.1941         -DE/DX =    0.0                 !
 ! D54   D(18,7,8,9)            -4.0861         -DE/DX =    0.0                 !
 ! D55   D(18,7,8,13)          176.5288         -DE/DX =    0.0                 !
 ! D56   D(6,7,18,19)           10.8013         -DE/DX =    0.0                 !
 ! D57   D(8,7,18,19)         -168.9313         -DE/DX =    0.0                 !
 ! D58   D(7,8,9,10)          -178.5445         -DE/DX =    0.0                 !
 ! D59   D(7,8,9,38)             1.0984         -DE/DX =    0.0                 !
 ! D60   D(13,8,9,10)            0.7849         -DE/DX =    0.0                 !
 ! D61   D(13,8,9,38)         -179.5722         -DE/DX =    0.0                 !
 ! D62   D(7,8,13,12)          178.8676         -DE/DX =    0.0                 !
 ! D63   D(7,8,13,60)           -4.5904         -DE/DX =    0.0                 !
 ! D64   D(9,8,13,12)           -0.5305         -DE/DX =    0.0                 !
 ! D65   D(9,8,13,60)          176.0116         -DE/DX =    0.0                 !
 ! D66   D(8,9,10,11)           -0.1355         -DE/DX =    0.0                 !
 ! D67   D(8,9,10,39)          179.7961         -DE/DX =    0.0                 !
 ! D68   D(38,9,10,11)        -179.7709         -DE/DX =    0.0                 !
 ! D69   D(38,9,10,39)           0.1607         -DE/DX =    0.0                 !
 ! D70   D(9,10,11,12)          -0.7159         -DE/DX =    0.0                 !
 ! D71   D(9,10,11,17)         178.2219         -DE/DX =    0.0                 !
 ! D72   D(39,10,11,12)        179.3522         -DE/DX =    0.0                 !
 ! D73   D(39,10,11,17)         -1.71           -DE/DX =    0.0                 !
 ! D74   D(10,11,12,13)          0.9938         -DE/DX =    0.0                 !
 ! D75   D(10,11,12,14)       -177.9669         -DE/DX =    0.0                 !
 ! D76   D(17,11,12,13)       -177.9477         -DE/DX =    0.0                 !
 ! D77   D(17,11,12,14)          3.0916         -DE/DX =    0.0                 !
 ! D78   D(10,11,17,16)        162.5878         -DE/DX =    0.0                 !
 ! D79   D(10,11,17,46)         38.3743         -DE/DX =    0.0                 !
 ! D80   D(10,11,17,47)        -76.6059         -DE/DX =    0.0                 !
 ! D81   D(12,11,17,16)        -18.5015         -DE/DX =    0.0                 !
 ! D82   D(12,11,17,46)       -142.715          -DE/DX =    0.0                 !
 ! D83   D(12,11,17,47)        102.3048         -DE/DX =    0.0                 !
 ! D84   D(11,12,13,8)          -0.3878         -DE/DX =    0.0                 !
 ! D85   D(11,12,13,60)       -176.4365         -DE/DX =    0.0                 !
 ! D86   D(14,12,13,8)         178.6357         -DE/DX =    0.0                 !
 ! D87   D(14,12,13,60)          2.5869         -DE/DX =    0.0                 !
 ! D88   D(11,12,14,15)        -17.3155         -DE/DX =    0.0                 !
 ! D89   D(11,12,14,40)       -142.87           -DE/DX =    0.0                 !
 ! D90   D(11,12,14,41)        103.5417         -DE/DX =    0.0                 !
 ! D91   D(13,12,14,15)        163.6844         -DE/DX =    0.0                 !
 ! D92   D(13,12,14,40)         38.1299         -DE/DX =    0.0                 !
 ! D93   D(13,12,14,41)        -75.4584         -DE/DX =    0.0                 !
 ! D94   D(8,13,60,6)            7.1146         -DE/DX =    0.0                 !
 ! D95   D(8,13,60,61)         -86.3625         -DE/DX =    0.0                 !
 ! D96   D(8,13,60,62)         133.9709         -DE/DX =    0.0                 !
 ! D97   D(12,13,60,6)        -176.5769         -DE/DX =    0.0                 !
 ! D98   D(12,13,60,61)         89.9461         -DE/DX =    0.0                 !
 ! D99   D(12,13,60,62)        -49.7205         -DE/DX =    0.0                 !
 ! D100  D(12,14,15,16)         46.5223         -DE/DX =    0.0                 !
 ! D101  D(12,14,15,42)        -74.2722         -DE/DX =    0.0                 !
 ! D102  D(12,14,15,43)        168.875          -DE/DX =    0.0                 !
 ! D103  D(40,14,15,16)        169.1991         -DE/DX =    0.0                 !
 ! D104  D(40,14,15,42)         48.4047         -DE/DX =    0.0                 !
 ! D105  D(40,14,15,43)        -68.4481         -DE/DX =    0.0                 !
 ! D106  D(41,14,15,16)        -72.783          -DE/DX =    0.0                 !
 ! D107  D(41,14,15,42)        166.4226         -DE/DX =    0.0                 !
 ! D108  D(41,14,15,43)         49.5698         -DE/DX =    0.0                 !
 ! D109  D(14,15,16,17)        -62.8929         -DE/DX =    0.0                 !
 ! D110  D(14,15,16,44)        175.5348         -DE/DX =    0.0                 !
 ! D111  D(14,15,16,45)         57.6874         -DE/DX =    0.0                 !
 ! D112  D(42,15,16,17)         58.1144         -DE/DX =    0.0                 !
 ! D113  D(42,15,16,44)        -63.458          -DE/DX =    0.0                 !
 ! D114  D(42,15,16,45)        178.6947         -DE/DX =    0.0                 !
 ! D115  D(43,15,16,17)        175.5232         -DE/DX =    0.0                 !
 ! D116  D(43,15,16,44)         53.9508         -DE/DX =    0.0                 !
 ! D117  D(43,15,16,45)        -63.8965         -DE/DX =    0.0                 !
 ! D118  D(15,16,17,11)         47.782          -DE/DX =    0.0                 !
 ! D119  D(15,16,17,46)        171.1153         -DE/DX =    0.0                 !
 ! D120  D(15,16,17,47)        -72.5152         -DE/DX =    0.0                 !
 ! D121  D(44,16,17,11)        170.3803         -DE/DX =    0.0                 !
 ! D122  D(44,16,17,46)        -66.2865         -DE/DX =    0.0                 !
 ! D123  D(44,16,17,47)         50.083          -DE/DX =    0.0                 !
 ! D124  D(45,16,17,11)        -72.6406         -DE/DX =    0.0                 !
 ! D125  D(45,16,17,46)         50.6927         -DE/DX =    0.0                 !
 ! D126  D(45,16,17,47)        167.0622         -DE/DX =    0.0                 !
 ! D127  D(7,18,19,5)          -18.984          -DE/DX =    0.0                 !
 ! D128  D(7,18,19,20)          97.7833         -DE/DX =    0.0                 !
 ! D129  D(7,18,19,26)        -137.6918         -DE/DX =    0.0                 !
 ! D130  D(5,19,20,21)         100.0608         -DE/DX =    0.0                 !
 ! D131  D(5,19,20,25)         -75.3276         -DE/DX =    0.0                 !
 ! D132  D(18,19,20,21)         -9.4419         -DE/DX =    0.0                 !
 ! D133  D(18,19,20,25)        175.1697         -DE/DX =    0.0                 !
 ! D134  D(26,19,20,21)       -127.7917         -DE/DX =    0.0                 !
 ! D135  D(26,19,20,25)         56.8199         -DE/DX =    0.0                 !
 ! D136  D(5,19,26,27)         -44.6961         -DE/DX =    0.0                 !
 ! D137  D(5,19,26,31)         139.1776         -DE/DX =    0.0                 !
 ! D138  D(18,19,26,27)         64.9647         -DE/DX =    0.0                 !
 ! D139  D(18,19,26,31)       -111.1616         -DE/DX =    0.0                 !
 ! D140  D(20,19,26,27)       -175.7578         -DE/DX =    0.0                 !
 ! D141  D(20,19,26,31)          8.1159         -DE/DX =    0.0                 !
 ! D142  D(19,20,21,22)       -175.2158         -DE/DX =    0.0                 !
 ! D143  D(19,20,21,48)          4.7988         -DE/DX =    0.0                 !
 ! D144  D(25,20,21,22)          0.2276         -DE/DX =    0.0                 !
 ! D145  D(25,20,21,48)       -179.7577         -DE/DX =    0.0                 !
 ! D146  D(19,20,25,24)        175.3657         -DE/DX =    0.0                 !
 ! D147  D(19,20,25,52)         -3.1926         -DE/DX =    0.0                 !
 ! D148  D(21,20,25,24)         -0.148          -DE/DX =    0.0                 !
 ! D149  D(21,20,25,52)       -178.7062         -DE/DX =    0.0                 !
 ! D150  D(20,21,22,23)         -0.0741         -DE/DX =    0.0                 !
 ! D151  D(20,21,22,49)        179.5607         -DE/DX =    0.0                 !
 ! D152  D(48,21,22,23)        179.9114         -DE/DX =    0.0                 !
 ! D153  D(48,21,22,49)         -0.4538         -DE/DX =    0.0                 !
 ! D154  D(21,22,23,24)         -0.1624         -DE/DX =    0.0                 !
 ! D155  D(21,22,23,50)        179.6027         -DE/DX =    0.0                 !
 ! D156  D(49,22,23,24)       -179.794          -DE/DX =    0.0                 !
 ! D157  D(49,22,23,50)         -0.0289         -DE/DX =    0.0                 !
 ! D158  D(22,23,24,25)          0.2417         -DE/DX =    0.0                 !
 ! D159  D(22,23,24,51)        179.5065         -DE/DX =    0.0                 !
 ! D160  D(50,23,24,25)       -179.5234         -DE/DX =    0.0                 !
 ! D161  D(50,23,24,51)         -0.2586         -DE/DX =    0.0                 !
 ! D162  D(23,24,25,20)         -0.0862         -DE/DX =    0.0                 !
 ! D163  D(23,24,25,52)        178.4799         -DE/DX =    0.0                 !
 ! D164  D(51,24,25,20)       -179.3577         -DE/DX =    0.0                 !
 ! D165  D(51,24,25,52)         -0.7915         -DE/DX =    0.0                 !
 ! D166  D(19,26,27,28)       -178.0983         -DE/DX =    0.0                 !
 ! D167  D(19,26,27,53)          0.4771         -DE/DX =    0.0                 !
 ! D168  D(31,26,27,28)         -1.8261         -DE/DX =    0.0                 !
 ! D169  D(31,26,27,53)        176.7493         -DE/DX =    0.0                 !
 ! D170  D(19,26,31,30)        178.232          -DE/DX =    0.0                 !
 ! D171  D(19,26,31,57)         -1.6548         -DE/DX =    0.0                 !
 ! D172  D(27,26,31,30)          2.0674         -DE/DX =    0.0                 !
 ! D173  D(27,26,31,57)       -177.8195         -DE/DX =    0.0                 !
 ! D174  D(26,27,28,29)          0.3443         -DE/DX =    0.0                 !
 ! D175  D(26,27,28,54)       -179.8784         -DE/DX =    0.0                 !
 ! D176  D(53,27,28,29)       -178.25           -DE/DX =    0.0                 !
 ! D177  D(53,27,28,54)          1.5273         -DE/DX =    0.0                 !
 ! D178  D(27,28,29,30)          0.9274         -DE/DX =    0.0                 !
 ! D179  D(27,28,29,55)       -179.6524         -DE/DX =    0.0                 !
 ! D180  D(54,28,29,30)       -178.8485         -DE/DX =    0.0                 !
 ! D181  D(54,28,29,55)          0.5717         -DE/DX =    0.0                 !
 ! D182  D(28,29,30,31)         -0.6851         -DE/DX =    0.0                 !
 ! D183  D(28,29,30,56)        178.9615         -DE/DX =    0.0                 !
 ! D184  D(55,29,30,31)        179.8953         -DE/DX =    0.0                 !
 ! D185  D(55,29,30,56)         -0.458          -DE/DX =    0.0                 !
 ! D186  D(29,30,31,26)         -0.8369         -DE/DX =    0.0                 !
 ! D187  D(29,30,31,57)        179.0504         -DE/DX =    0.0                 !
 ! D188  D(56,30,31,26)        179.5137         -DE/DX =    0.0                 !
 ! D189  D(56,30,31,57)         -0.599          -DE/DX =    0.0                 !
 ! D190  D(4,32,33,1)           -0.9571         -DE/DX =    0.0                 !
 ! D191  D(4,32,33,59)         179.6399         -DE/DX =    0.0                 !
 ! D192  D(58,32,33,1)        -179.8912         -DE/DX =    0.0                 !
 ! D193  D(58,32,33,59)          0.7058         -DE/DX =    0.0                 !
 --------------------------------------------------------------------------------
 GradGradGradGradGradGradGradGradGradGradGradGradGradGradGradGradGradGrad

 Stoichiometry    C30H26F2N2NiO(3)
 Framework group  C1[X(C30H26F2N2NiO)]
 Deg. of freedom   180
 Full point group                 C1      NOp   1
 Largest Abelian subgroup         C1      NOp   1
 Largest concise Abelian subgroup C1      NOp   1
                         Standard orientation:                         
 ---------------------------------------------------------------------
 Center     Atomic      Atomic             Coordinates (Angstroms)
 Number     Number       Type             X           Y           Z
 ---------------------------------------------------------------------
      1          6           0       -3.467872   -3.922027   -0.646199
      2          6           0       -2.252386   -3.758090    0.018833
      3          6           0       -1.534674   -2.565880   -0.087756
      4          6           0       -2.041431   -1.531516   -0.880516
      5          6           0       -1.361869   -0.192321   -0.970280
      6          7           0        0.087841   -0.212148   -0.736317
      7          6           0        0.393974    0.853944   -0.091178
      8          6           0        1.783793    1.189509    0.231593
      9          6           0        2.181244    2.362781    0.858937
     10          6           0        3.547251    2.545540    1.067842
     11          6           0        4.466286    1.577694    0.659837
     12          6           0        3.972368    0.405856    0.045686
     13          7           0        2.659644    0.243055   -0.154985
     14          6           0        4.866581   -0.724595   -0.394067
     15          6           0        6.335306   -0.307034   -0.499421
     16          6           0        6.760275    0.484457    0.741438
     17          6           0        5.954006    1.785066    0.846388
     18          8           0       -0.595346    1.668398    0.294986
     19          6           0       -1.862066    0.918858    0.060837
     20          6           0       -2.283099    0.299556    1.384723
     21          6           0       -1.435274    0.311283    2.495103
     22          6           0       -1.795521   -0.347408    3.672045
     23          6           0       -3.008836   -1.025504    3.755625
     24          6           0       -3.864547   -1.038396    2.652737
     25          6           0       -3.505244   -0.383523    1.479113
     26          6           0       -2.835721    1.920496   -0.542021
     27          6           0       -2.565065    2.469962   -1.804800
     28          6           0       -3.413115    3.418390   -2.369771
     29          6           0       -4.548877    3.843233   -1.678032
     30          6           0       -4.813399    3.324477   -0.412534
     31          6           0       -3.959323    2.377447    0.154527
     32          6           0       -3.244788   -1.705857   -1.574235
     33          6           0       -3.962954   -2.893510   -1.450978
     34          1           0       -4.021499   -4.852290   -0.551722
     35          1           0       -1.851867   -4.563180    0.628348
     36          1           0       -0.571971   -2.461098    0.409931
     37          1           0       -1.513910    0.187809   -1.985556
     38          1           0        1.445323    3.098489    1.161774
     39          1           0        3.904672    3.450620    1.552348
     40          1           0        4.465172   -1.126446   -1.331822
     41          1           0        4.759925   -1.529963    0.348522
     42          1           0        6.482248    0.311973   -1.395300
     43          1           0        6.959991   -1.197248   -0.625434
     44          1           0        7.829698    0.720329    0.712769
     45          1           0        6.590899   -0.127017    1.638066
     46          1           0        6.134354    2.282329    1.807218
     47          1           0        6.301532    2.485702    0.072593
     48          1           0       -0.488588    0.834389    2.449361
     49          1           0       -1.117852   -0.331277    4.520561
     50          1           0       -3.285646   -1.543196    4.669439
     51          1           0       -4.810735   -1.569337    2.699041
     52          1           0       -4.169015   -0.423696    0.624047
     53          1           0       -1.672662    2.175796   -2.348165
     54          1           0       -3.183887    3.827868   -3.349272
     55          1           0       -5.214771    4.578984   -2.119649
     56          1           0       -5.684310    3.658689    0.143888
     57          1           0       -4.170792    1.995806    1.145313
     58          1           0       -3.626767   -0.900579   -2.198530
     59          1           0       -4.899096   -3.019240   -1.987919
     60         28           0        1.737986   -1.438784   -0.940365
     61          9           0        1.393007   -2.444424    0.562150
     62          9           0        2.745456   -1.711035   -2.431180
 ---------------------------------------------------------------------
 Rotational constants (GHZ):           0.1618139           0.0746598           0.0657045
 Unable to Open any file for archive entry.
 1\1\GINC-NOTCH318\FOpt\UB3LYP\Gen\C30H26F2N2Ni1O1(3)\U1365460\06-Mar-2
 026\0\\# B3LYP gen 6D pseudo=read int=(grid=fine) empiricaldispersion=
 GD3BJ opt freq=noraman\\Lig2120.xyz\\0,3\C,-3.8928970847,-3.1118749595
 ,-1.6149438007\C,-2.7522330262,-3.2749447983,-0.8282792581\C,-1.833644
 3298,-2.2351051056,-0.6773928037\C,-2.0610297157,-1.021569457,-1.33375
 31249\C,-1.156555491,0.1658412166,-1.1459017403\N,0.231564215,-0.15785
 12428,-0.7921533405\C,0.6391401685,0.7286526942,0.0411933831\C,2.01923
 54509,0.7488318355,0.5344584557\C,2.536559748,1.7249867692,1.375643868
 2\C,3.8803388477,1.6174157908,1.7301904481\C,4.661014896,0.5634800067,
 1.2531342325\C,4.0480250481,-0.3951438885,0.416699066\N,2.75884765,-0.
 279312336,0.0781409691\C,4.7802476398,-1.59792725,-0.1200328269\C,6.30
 09670117,-1.4514784842,-0.0274188965\C,6.7091115016,-0.9393917019,1.35
 74902219\C,6.1306783345,0.4602875272,1.6003487144\O,-0.2340402785,1.64
 97716526,0.4658195695\C,-1.5747557987,1.1915577738,0.0035027931\C,-2.2
 454185379,0.4787162632,1.1677824256\C,-1.541918514,0.1726310634,2.3353
 811739\C,-2.1428942047,-0.5688042552,3.3541780855\C,-3.4557777861,-1.0
 130730314,3.2204021855\C,-4.1680577587,-0.7077191146,2.0592886024\C,-3
 .5690405928,0.0297061579,1.0430525699\C,-2.2864930101,2.4333366238,-0.
 512381716\C,-1.7819705042,3.097654228,-1.641061648\C,-2.3842833108,4.2
 588195743,-2.117308998\C,-3.5026773628,4.7848780925,-1.4681505786\C,-3
 .9962560329,4.1488711329,-0.33129479\C,-3.3880489388,2.9876380542,0.14
 77605725\C,-3.1882973861,-0.866769222,-2.1492350947\C,-4.1084727771,-1
 .9044820948,-2.2830398638\H,-4.604707319,-3.9260593593,-1.7210032813\H
 ,-2.5684245773,-4.2195515248,-0.3242682047\H,-0.9311413688,-2.38445877
 17,-0.086926094\H,-1.123159484,0.7091220453,-2.09570758\H,1.9074579734
 ,2.534156534,1.7278263811\H,4.3290718493,2.360858672,2.384099176\H,4.4
 268766893,-1.7791460322,-1.1419360651\H,4.4524030615,-2.4670886317,0.4
 70312891\H,6.6540188682,-0.7490099887,-0.7950474641\H,6.7743885634,-2.
 4153510847,-0.2405210832\H,7.7991849703,-0.9058901414,1.4611251132\H,6
 .3353112233,-1.6304539344,2.125108415\H,6.2814144236,0.7722413158,2.64
 09992061\H,6.6798836512,1.1871187877,0.9834911657\H,-0.5208132233,0.51
 06728811,2.4579324976\H,-1.5749288661,-0.8013030077,4.2501881032\H,-3.
 9206312496,-1.5953751591,4.0106683479\H,-5.1900812411,-1.053549491,1.9
 360662487\H,-4.1267676501,0.2371809366,0.1379342951\H,-0.8964466825,2.
 7228235844,-2.1445617723\H,-1.9769289834,4.7542506039,-2.9938080316\H,
 -3.977380849,5.6876365883,-1.8415839517\H,-4.8554029698,4.5567347298,0
 .1933976546\H,-3.7745637474,2.5143270636,1.0414089781\H,-3.352228585,0
 .0766725833,-2.6661190924\H,-4.9840436377,-1.7748285455,-2.9131528818\
 Ni,1.6597961631,-1.6291397526,-1.0465413246\F,0.9768290317,-2.75725648
 56,0.2375073883\F,2.7709458957,-1.8684639305,-2.4677078913\\Version=ES
 64L-G16RevC.01\State=3-A\HF=-1712.9024644\S2=2.006013\S2-1=0.\S2A=2.00
 0021\RMSD=1.970e-09\RMSF=2.774e-06\Dipole=-0.1039932,2.8009715,1.57603
 79\Quadrupole=20.3081895,-10.348541,-9.9596486,6.2208173,13.9104597,-6
 .7156411\PG=C01 [X(C30H26F2N2Ni1O1)]\\@
 The archive entry for this job was punched.


 LAWS OF PROGRAMMING DEFINITION:  A WORKING PROGRAM
                                  IS ONE THAT HAS
                                  ONLY UNOBSERVED
                                  BUGS.
 Job cpu time:       0 days  2 hours 48 minutes 41.3 seconds.
 Elapsed time:       0 days  0 hours 10 minutes 37.9 seconds.
 File lengths (MBytes):  RWF=    412 Int=      0 D2E=      0 Chk=     41 Scr=      2
 Normal termination of Gaussian 16 at Fri Mar  6 16:35:37 2026.
 Link1:  Proceeding to internal job step number  2.
 ------------------------------------------------------------------
 #N Geom=AllCheck Guess=TCheck SCRF=Check GenChk UB3LYP/ChkBas Freq
 ------------------------------------------------------------------
 1/10=4,29=7,30=1,38=1,40=1/1,3;
 2/12=2,40=1/2;
 3/5=7,6=2,8=2,11=2,14=-4,16=1,17=8,25=1,30=1,67=1,70=2,71=2,74=-5,75=-4,82=7,116=2,124=41,140=1/1,2,3;
 4/5=101/1;
 5/5=2,38=6,98=1/2;
 8/6=4,10=90,11=11/1;
 11/6=1,8=1,9=11,15=111,16=1/1,2,10;
 10/6=1/2;
 6/7=2,8=2,9=2,10=2,28=1/1;
 7/8=1,10=1,25=1/1,2,3,16;
 1/10=4,30=1/3;
 99//99;
 Structure from the checkpoint file:  "Lig2120_xyz_4.chk"
 -----------
 Lig2120.xyz
 -----------
 Charge =  0 Multiplicity = 3
 Redundant internal coordinates found in file.  (old form).
 C,0,-3.8928970847,-3.1118749595,-1.6149438007
 C,0,-2.7522330262,-3.2749447983,-0.8282792581
 C,0,-1.8336443298,-2.2351051056,-0.6773928037
 C,0,-2.0610297157,-1.021569457,-1.3337531249
 C,0,-1.156555491,0.1658412166,-1.1459017403
 N,0,0.231564215,-0.1578512428,-0.7921533405
 C,0,0.6391401685,0.7286526942,0.0411933831
 C,0,2.0192354509,0.7488318355,0.5344584557
 C,0,2.536559748,1.7249867692,1.3756438682
 C,0,3.8803388477,1.6174157908,1.7301904481
 C,0,4.661014896,0.5634800067,1.2531342325
 C,0,4.0480250481,-0.3951438885,0.416699066
 N,0,2.75884765,-0.279312336,0.0781409691
 C,0,4.7802476398,-1.59792725,-0.1200328269
 C,0,6.3009670117,-1.4514784842,-0.0274188965
 C,0,6.7091115016,-0.9393917019,1.3574902219
 C,0,6.1306783345,0.4602875272,1.6003487144
 O,0,-0.2340402785,1.6497716526,0.4658195695
 C,0,-1.5747557987,1.1915577738,0.0035027931
 C,0,-2.2454185379,0.4787162632,1.1677824256
 C,0,-1.541918514,0.1726310634,2.3353811739
 C,0,-2.1428942047,-0.5688042552,3.3541780855
 C,0,-3.4557777861,-1.0130730314,3.2204021855
 C,0,-4.1680577587,-0.7077191146,2.0592886024
 C,0,-3.5690405928,0.0297061579,1.0430525699
 C,0,-2.2864930101,2.4333366238,-0.512381716
 C,0,-1.7819705042,3.097654228,-1.641061648
 C,0,-2.3842833108,4.2588195743,-2.117308998
 C,0,-3.5026773628,4.7848780925,-1.4681505786
 C,0,-3.9962560329,4.1488711329,-0.33129479
 C,0,-3.3880489388,2.9876380542,0.1477605725
 C,0,-3.1882973861,-0.866769222,-2.1492350947
 C,0,-4.1084727771,-1.9044820948,-2.2830398638
 H,0,-4.604707319,-3.9260593593,-1.7210032813
 H,0,-2.5684245773,-4.2195515248,-0.3242682047
 H,0,-0.9311413688,-2.3844587717,-0.086926094
 H,0,-1.123159484,0.7091220453,-2.09570758
 H,0,1.9074579734,2.534156534,1.7278263811
 H,0,4.3290718493,2.360858672,2.384099176
 H,0,4.4268766893,-1.7791460322,-1.1419360651
 H,0,4.4524030615,-2.4670886317,0.470312891
 H,0,6.6540188682,-0.7490099887,-0.7950474641
 H,0,6.7743885634,-2.4153510847,-0.2405210832
 H,0,7.7991849703,-0.9058901414,1.4611251132
 H,0,6.3353112233,-1.6304539344,2.125108415
 H,0,6.2814144236,0.7722413158,2.6409992061
 H,0,6.6798836512,1.1871187877,0.9834911657
 H,0,-0.5208132233,0.5106728811,2.4579324976
 H,0,-1.5749288661,-0.8013030077,4.2501881032
 H,0,-3.9206312496,-1.5953751591,4.0106683479
 H,0,-5.1900812411,-1.053549491,1.9360662487
 H,0,-4.1267676501,0.2371809366,0.1379342951
 H,0,-0.8964466825,2.7228235844,-2.1445617723
 H,0,-1.9769289834,4.7542506039,-2.9938080316
 H,0,-3.977380849,5.6876365883,-1.8415839517
 H,0,-4.8554029698,4.5567347298,0.1933976546
 H,0,-3.7745637474,2.5143270636,1.0414089781
 H,0,-3.352228585,0.0766725833,-2.6661190924
 H,0,-4.9840436377,-1.7748285455,-2.9131528818
 Ni,0,1.6597961631,-1.6291397526,-1.0465413246
 F,0,0.9768290317,-2.7572564856,0.2375073883
 F,0,2.7709458957,-1.8684639305,-2.4677078913
 Recover connectivity data from disk.

 GradGradGradGradGradGradGradGradGradGradGradGradGradGradGradGradGradGrad
 Berny optimization.
 Initialization pass.
                           ----------------------------
                           !    Initial Parameters    !
                           ! (Angstroms and Degrees)  !
 --------------------------                            --------------------------
 ! Name  Definition              Value          Derivative Info.                !
 --------------------------------------------------------------------------------
 ! R1    R(1,2)                  1.3952         calculate D2E/DX2 analytically  !
 ! R2    R(1,33)                 1.3966         calculate D2E/DX2 analytically  !
 ! R3    R(1,34)                 1.0867         calculate D2E/DX2 analytically  !
 ! R4    R(2,3)                  1.3956         calculate D2E/DX2 analytically  !
 ! R5    R(2,35)                 1.0863         calculate D2E/DX2 analytically  !
 ! R6    R(3,4)                  1.3983         calculate D2E/DX2 analytically  !
 ! R7    R(3,36)                 1.0888         calculate D2E/DX2 analytically  !
 ! R8    R(4,5)                  1.5044         calculate D2E/DX2 analytically  !
 ! R9    R(4,32)                 1.3999         calculate D2E/DX2 analytically  !
 ! R10   R(5,6)                  1.4686         calculate D2E/DX2 analytically  !
 ! R11   R(5,19)                 1.5963         calculate D2E/DX2 analytically  !
 ! R12   R(5,37)                 1.0947         calculate D2E/DX2 analytically  !
 ! R13   R(6,7)                  1.2832         calculate D2E/DX2 analytically  !
 ! R14   R(6,60)                 2.0662         calculate D2E/DX2 analytically  !
 ! R15   R(7,8)                  1.4657         calculate D2E/DX2 analytically  !
 ! R16   R(7,18)                 1.3384         calculate D2E/DX2 analytically  !
 ! R17   R(8,9)                  1.3886         calculate D2E/DX2 analytically  !
 ! R18   R(8,13)                 1.3462         calculate D2E/DX2 analytically  !
 ! R19   R(9,10)                 1.3939         calculate D2E/DX2 analytically  !
 ! R20   R(9,38)                 1.0838         calculate D2E/DX2 analytically  !
 ! R21   R(10,11)                1.3956         calculate D2E/DX2 analytically  !
 ! R22   R(10,39)                1.087          calculate D2E/DX2 analytically  !
 ! R23   R(11,12)                1.4122         calculate D2E/DX2 analytically  !
 ! R24   R(11,17)                1.5136         calculate D2E/DX2 analytically  !
 ! R25   R(12,13)                1.3379         calculate D2E/DX2 analytically  !
 ! R26   R(12,14)                1.507          calculate D2E/DX2 analytically  !
 ! R27   R(13,60)                2.0724         calculate D2E/DX2 analytically  !
 ! R28   R(14,15)                1.5306         calculate D2E/DX2 analytically  !
 ! R29   R(14,40)                1.0964         calculate D2E/DX2 analytically  !
 ! R30   R(14,41)                1.1007         calculate D2E/DX2 analytically  !
 ! R31   R(15,16)                1.5319         calculate D2E/DX2 analytically  !
 ! R32   R(15,42)                1.0988         calculate D2E/DX2 analytically  !
 ! R33   R(15,43)                1.0948         calculate D2E/DX2 analytically  !
 ! R34   R(16,17)                1.5338         calculate D2E/DX2 analytically  !
 ! R35   R(16,44)                1.0955         calculate D2E/DX2 analytically  !
 ! R36   R(16,45)                1.0984         calculate D2E/DX2 analytically  !
 ! R37   R(17,46)                1.0968         calculate D2E/DX2 analytically  !
 ! R38   R(17,47)                1.1002         calculate D2E/DX2 analytically  !
 ! R39   R(18,19)                1.4904         calculate D2E/DX2 analytically  !
 ! R40   R(19,20)                1.521          calculate D2E/DX2 analytically  !
 ! R41   R(19,26)                1.5214         calculate D2E/DX2 analytically  !
 ! R42   R(20,21)                1.3971         calculate D2E/DX2 analytically  !
 ! R43   R(20,25)                1.4033         calculate D2E/DX2 analytically  !
 ! R44   R(21,22)                1.396          calculate D2E/DX2 analytically  !
 ! R45   R(21,48)                1.0826         calculate D2E/DX2 analytically  !
 ! R46   R(22,23)                1.3925         calculate D2E/DX2 analytically  !
 ! R47   R(22,49)                1.086          calculate D2E/DX2 analytically  !
 ! R48   R(23,24)                1.396          calculate D2E/DX2 analytically  !
 ! R49   R(23,50)                1.0861         calculate D2E/DX2 analytically  !
 ! R50   R(24,25)                1.3912         calculate D2E/DX2 analytically  !
 ! R51   R(24,51)                1.086          calculate D2E/DX2 analytically  !
 ! R52   R(25,52)                1.0832         calculate D2E/DX2 analytically  !
 ! R53   R(26,27)                1.4035         calculate D2E/DX2 analytically  !
 ! R54   R(26,31)                1.3987         calculate D2E/DX2 analytically  !
 ! R55   R(27,28)                1.3921         calculate D2E/DX2 analytically  !
 ! R56   R(27,53)                1.0854         calculate D2E/DX2 analytically  !
 ! R57   R(28,29)                1.396          calculate D2E/DX2 analytically  !
 ! R58   R(28,54)                1.0861         calculate D2E/DX2 analytically  !
 ! R59   R(29,30)                1.393          calculate D2E/DX2 analytically  !
 ! R60   R(29,55)                1.0862         calculate D2E/DX2 analytically  !
 ! R61   R(30,31)                1.3957         calculate D2E/DX2 analytically  !
 ! R62   R(30,56)                1.0862         calculate D2E/DX2 analytically  !
 ! R63   R(31,57)                1.0826         calculate D2E/DX2 analytically  !
 ! R64   R(32,33)                1.3934         calculate D2E/DX2 analytically  !
 ! R65   R(32,58)                1.0882         calculate D2E/DX2 analytically  !
 ! R66   R(33,59)                1.0865         calculate D2E/DX2 analytically  !
 ! R67   R(60,61)                1.8406         calculate D2E/DX2 analytically  !
 ! R68   R(60,62)                1.8198         calculate D2E/DX2 analytically  !
 ! A1    A(2,1,33)             119.7987         calculate D2E/DX2 analytically  !
 ! A2    A(2,1,34)             120.1991         calculate D2E/DX2 analytically  !
 ! A3    A(33,1,34)            119.9955         calculate D2E/DX2 analytically  !
 ! A4    A(1,2,3)              120.7961         calculate D2E/DX2 analytically  !
 ! A5    A(1,2,35)             120.1038         calculate D2E/DX2 analytically  !
 ! A6    A(3,2,35)             119.1001         calculate D2E/DX2 analytically  !
 ! A7    A(2,3,4)              119.2643         calculate D2E/DX2 analytically  !
 ! A8    A(2,3,36)             120.1321         calculate D2E/DX2 analytically  !
 ! A9    A(4,3,36)             120.558          calculate D2E/DX2 analytically  !
 ! A10   A(3,4,5)              121.912          calculate D2E/DX2 analytically  !
 ! A11   A(3,4,32)             120.0239         calculate D2E/DX2 analytically  !
 ! A12   A(5,4,32)             118.0073         calculate D2E/DX2 analytically  !
 ! A13   A(4,5,6)              115.111          calculate D2E/DX2 analytically  !
 ! A14   A(4,5,19)             116.0761         calculate D2E/DX2 analytically  !
 ! A15   A(4,5,37)             107.5599         calculate D2E/DX2 analytically  !
 ! A16   A(6,5,19)             102.4632         calculate D2E/DX2 analytically  !
 ! A17   A(6,5,37)             106.8303         calculate D2E/DX2 analytically  !
 ! A18   A(19,5,37)            108.2907         calculate D2E/DX2 analytically  !
 ! A19   A(5,6,7)              107.7215         calculate D2E/DX2 analytically  !
 ! A20   A(5,6,60)             141.3192         calculate D2E/DX2 analytically  !
 ! A21   A(7,6,60)             110.6314         calculate D2E/DX2 analytically  !
 ! A22   A(6,7,8)              121.8131         calculate D2E/DX2 analytically  !
 ! A23   A(6,7,18)             118.3147         calculate D2E/DX2 analytically  !
 ! A24   A(8,7,18)             119.8716         calculate D2E/DX2 analytically  !
 ! A25   A(7,8,9)              124.3566         calculate D2E/DX2 analytically  !
 ! A26   A(7,8,13)             113.1233         calculate D2E/DX2 analytically  !
 ! A27   A(9,8,13)             122.5172         calculate D2E/DX2 analytically  !
 ! A28   A(8,9,10)             117.3222         calculate D2E/DX2 analytically  !
 ! A29   A(8,9,38)             120.3628         calculate D2E/DX2 analytically  !
 ! A30   A(10,9,38)            122.314          calculate D2E/DX2 analytically  !
 ! A31   A(9,10,11)            120.7025         calculate D2E/DX2 analytically  !
 ! A32   A(9,10,39)            119.8795         calculate D2E/DX2 analytically  !
 ! A33   A(11,10,39)           119.418          calculate D2E/DX2 analytically  !
 ! A34   A(10,11,12)           118.1815         calculate D2E/DX2 analytically  !
 ! A35   A(10,11,17)           121.0768         calculate D2E/DX2 analytically  !
 ! A36   A(12,11,17)           120.733          calculate D2E/DX2 analytically  !
 ! A37   A(11,12,13)           120.6213         calculate D2E/DX2 analytically  !
 ! A38   A(11,12,14)           122.809          calculate D2E/DX2 analytically  !
 ! A39   A(13,12,14)           116.5621         calculate D2E/DX2 analytically  !
 ! A40   A(8,13,12)            120.6458         calculate D2E/DX2 analytically  !
 ! A41   A(8,13,60)            112.9564         calculate D2E/DX2 analytically  !
 ! A42   A(12,13,60)           126.2952         calculate D2E/DX2 analytically  !
 ! A43   A(12,14,15)           112.6344         calculate D2E/DX2 analytically  !
 ! A44   A(12,14,40)           107.8966         calculate D2E/DX2 analytically  !
 ! A45   A(12,14,41)           107.1287         calculate D2E/DX2 analytically  !
 ! A46   A(15,14,40)           113.1075         calculate D2E/DX2 analytically  !
 ! A47   A(15,14,41)           109.8192         calculate D2E/DX2 analytically  !
 ! A48   A(40,14,41)           105.8669         calculate D2E/DX2 analytically  !
 ! A49   A(14,15,16)           110.573          calculate D2E/DX2 analytically  !
 ! A50   A(14,15,42)           109.7635         calculate D2E/DX2 analytically  !
 ! A51   A(14,15,43)           109.4891         calculate D2E/DX2 analytically  !
 ! A52   A(16,15,42)           109.4056         calculate D2E/DX2 analytically  !
 ! A53   A(16,15,43)           110.7971         calculate D2E/DX2 analytically  !
 ! A54   A(42,15,43)           106.7338         calculate D2E/DX2 analytically  !
 ! A55   A(15,16,17)           110.347          calculate D2E/DX2 analytically  !
 ! A56   A(15,16,44)           111.1525         calculate D2E/DX2 analytically  !
 ! A57   A(15,16,45)           109.3172         calculate D2E/DX2 analytically  !
 ! A58   A(17,16,44)           109.4122         calculate D2E/DX2 analytically  !
 ! A59   A(17,16,45)           109.5803         calculate D2E/DX2 analytically  !
 ! A60   A(44,16,45)           106.9628         calculate D2E/DX2 analytically  !
 ! A61   A(11,17,16)           113.082          calculate D2E/DX2 analytically  !
 ! A62   A(11,17,46)           109.3715         calculate D2E/DX2 analytically  !
 ! A63   A(11,17,47)           108.1214         calculate D2E/DX2 analytically  !
 ! A64   A(16,17,46)           110.9738         calculate D2E/DX2 analytically  !
 ! A65   A(16,17,47)           109.0158         calculate D2E/DX2 analytically  !
 ! A66   A(46,17,47)           105.99           calculate D2E/DX2 analytically  !
 ! A67   A(7,18,19)            106.0748         calculate D2E/DX2 analytically  !
 ! A68   A(5,19,18)            100.6752         calculate D2E/DX2 analytically  !
 ! A69   A(5,19,20)            111.441          calculate D2E/DX2 analytically  !
 ! A70   A(5,19,26)            113.7573         calculate D2E/DX2 analytically  !
 ! A71   A(18,19,20)           107.6557         calculate D2E/DX2 analytically  !
 ! A72   A(18,19,26)           105.9667         calculate D2E/DX2 analytically  !
 ! A73   A(20,19,26)           115.8363         calculate D2E/DX2 analytically  !
 ! A74   A(19,20,21)           121.3571         calculate D2E/DX2 analytically  !
 ! A75   A(19,20,25)           119.8565         calculate D2E/DX2 analytically  !
 ! A76   A(21,20,25)           118.6298         calculate D2E/DX2 analytically  !
 ! A77   A(20,21,22)           120.6302         calculate D2E/DX2 analytically  !
 ! A78   A(20,21,48)           120.0763         calculate D2E/DX2 analytically  !
 ! A79   A(22,21,48)           119.2935         calculate D2E/DX2 analytically  !
 ! A80   A(21,22,23)           120.3469         calculate D2E/DX2 analytically  !
 ! A81   A(21,22,49)           119.3841         calculate D2E/DX2 analytically  !
 ! A82   A(23,22,49)           120.2679         calculate D2E/DX2 analytically  !
 ! A83   A(22,23,24)           119.4193         calculate D2E/DX2 analytically  !
 ! A84   A(22,23,50)           120.3103         calculate D2E/DX2 analytically  !
 ! A85   A(24,23,50)           120.27           calculate D2E/DX2 analytically  !
 ! A86   A(23,24,25)           120.2541         calculate D2E/DX2 analytically  !
 ! A87   A(23,24,51)           120.3256         calculate D2E/DX2 analytically  !
 ! A88   A(25,24,51)           119.4163         calculate D2E/DX2 analytically  !
 ! A89   A(20,25,24)           120.7191         calculate D2E/DX2 analytically  !
 ! A90   A(20,25,52)           119.9105         calculate D2E/DX2 analytically  !
 ! A91   A(24,25,52)           119.3549         calculate D2E/DX2 analytically  !
 ! A92   A(19,26,27)           119.3967         calculate D2E/DX2 analytically  !
 ! A93   A(19,26,31)           122.1295         calculate D2E/DX2 analytically  !
 ! A94   A(27,26,31)           118.364          calculate D2E/DX2 analytically  !
 ! A95   A(26,27,28)           120.9578         calculate D2E/DX2 analytically  !
 ! A96   A(26,27,53)           120.1893         calculate D2E/DX2 analytically  !
 ! A97   A(28,27,53)           118.8379         calculate D2E/DX2 analytically  !
 ! A98   A(27,28,29)           120.1225         calculate D2E/DX2 analytically  !
 ! A99   A(27,28,54)           119.6232         calculate D2E/DX2 analytically  !
 ! A100  A(29,28,54)           120.2539         calculate D2E/DX2 analytically  !
 ! A101  A(28,29,30)           119.4254         calculate D2E/DX2 analytically  !
 ! A102  A(28,29,55)           120.2279         calculate D2E/DX2 analytically  !
 ! A103  A(30,29,55)           120.3441         calculate D2E/DX2 analytically  !
 ! A104  A(29,30,31)           120.3704         calculate D2E/DX2 analytically  !
 ! A105  A(29,30,56)           120.2015         calculate D2E/DX2 analytically  !
 ! A106  A(31,30,56)           119.4272         calculate D2E/DX2 analytically  !
 ! A107  A(26,31,30)           120.7252         calculate D2E/DX2 analytically  !
 ! A108  A(26,31,57)           119.8345         calculate D2E/DX2 analytically  !
 ! A109  A(30,31,57)           119.4401         calculate D2E/DX2 analytically  !
 ! A110  A(4,32,33)            120.356          calculate D2E/DX2 analytically  !
 ! A111  A(4,32,58)            119.5962         calculate D2E/DX2 analytically  !
 ! A112  A(33,32,58)           120.0393         calculate D2E/DX2 analytically  !
 ! A113  A(1,33,32)            119.7333         calculate D2E/DX2 analytically  !
 ! A114  A(1,33,59)            120.3295         calculate D2E/DX2 analytically  !
 ! A115  A(32,33,59)           119.9346         calculate D2E/DX2 analytically  !
 ! A116  A(6,60,13)             80.559          calculate D2E/DX2 analytically  !
 ! A117  A(6,60,61)             95.397          calculate D2E/DX2 analytically  !
 ! A118  A(6,60,62)            127.7237         calculate D2E/DX2 analytically  !
 ! A119  A(13,60,61)           102.5557         calculate D2E/DX2 analytically  !
 ! A120  A(13,60,62)           100.6997         calculate D2E/DX2 analytically  !
 ! A121  A(61,60,62)           133.6906         calculate D2E/DX2 analytically  !
 ! D1    D(33,1,2,3)             1.3054         calculate D2E/DX2 analytically  !
 ! D2    D(33,1,2,35)         -178.6368         calculate D2E/DX2 analytically  !
 ! D3    D(34,1,2,3)          -179.6398         calculate D2E/DX2 analytically  !
 ! D4    D(34,1,2,35)            0.418          calculate D2E/DX2 analytically  !
 ! D5    D(2,1,33,32)           -0.5787         calculate D2E/DX2 analytically  !
 ! D6    D(2,1,33,59)          178.8219         calculate D2E/DX2 analytically  !
 ! D7    D(34,1,33,32)        -179.6355         calculate D2E/DX2 analytically  !
 ! D8    D(34,1,33,59)          -0.2349         calculate D2E/DX2 analytically  !
 ! D9    D(1,2,3,4)             -0.4822         calculate D2E/DX2 analytically  !
 ! D10   D(1,2,3,36)          -178.0399         calculate D2E/DX2 analytically  !
 ! D11   D(35,2,3,4)           179.4606         calculate D2E/DX2 analytically  !
 ! D12   D(35,2,3,36)            1.9029         calculate D2E/DX2 analytically  !
 ! D13   D(2,3,4,5)            176.1475         calculate D2E/DX2 analytically  !
 ! D14   D(2,3,4,32)            -1.057          calculate D2E/DX2 analytically  !
 ! D15   D(36,3,4,5)            -6.3055         calculate D2E/DX2 analytically  !
 ! D16   D(36,3,4,32)          176.49           calculate D2E/DX2 analytically  !
 ! D17   D(3,4,5,6)             27.4017         calculate D2E/DX2 analytically  !
 ! D18   D(3,4,5,19)           -92.2486         calculate D2E/DX2 analytically  !
 ! D19   D(3,4,5,37)           146.3289         calculate D2E/DX2 analytically  !
 ! D20   D(32,4,5,6)          -155.3397         calculate D2E/DX2 analytically  !
 ! D21   D(32,4,5,19)           85.01           calculate D2E/DX2 analytically  !
 ! D22   D(32,4,5,37)          -36.4125         calculate D2E/DX2 analytically  !
 ! D23   D(3,4,32,33)            1.7835         calculate D2E/DX2 analytically  !
 ! D24   D(3,4,32,58)         -179.2777         calculate D2E/DX2 analytically  !
 ! D25   D(5,4,32,33)         -175.5288         calculate D2E/DX2 analytically  !
 ! D26   D(5,4,32,58)            3.41           calculate D2E/DX2 analytically  !
 ! D27   D(4,5,6,7)           -142.9275         calculate D2E/DX2 analytically  !
 ! D28   D(4,5,6,60)            29.385          calculate D2E/DX2 analytically  !
 ! D29   D(19,5,6,7)           -16.0041         calculate D2E/DX2 analytically  !
 ! D30   D(19,5,6,60)          156.3085         calculate D2E/DX2 analytically  !
 ! D31   D(37,5,6,7)            97.7401         calculate D2E/DX2 analytically  !
 ! D32   D(37,5,6,60)          -89.9473         calculate D2E/DX2 analytically  !
 ! D33   D(4,5,19,18)          147.0646         calculate D2E/DX2 analytically  !
 ! D34   D(4,5,19,20)           33.1349         calculate D2E/DX2 analytically  !
 ! D35   D(4,5,19,26)         -100.0548         calculate D2E/DX2 analytically  !
 ! D36   D(6,5,19,18)           20.7633         calculate D2E/DX2 analytically  !
 ! D37   D(6,5,19,20)          -93.1664         calculate D2E/DX2 analytically  !
 ! D38   D(6,5,19,26)          133.644          calculate D2E/DX2 analytically  !
 ! D39   D(37,5,19,18)         -91.9028         calculate D2E/DX2 analytically  !
 ! D40   D(37,5,19,20)         154.1675         calculate D2E/DX2 analytically  !
 ! D41   D(37,5,19,26)          20.9778         calculate D2E/DX2 analytically  !
 ! D42   D(5,6,7,8)           -176.0649         calculate D2E/DX2 analytically  !
 ! D43   D(5,6,7,18)             4.2081         calculate D2E/DX2 analytically  !
 ! D44   D(60,6,7,8)             9.0603         calculate D2E/DX2 analytically  !
 ! D45   D(60,6,7,18)         -170.6667         calculate D2E/DX2 analytically  !
 ! D46   D(5,6,60,13)          179.3478         calculate D2E/DX2 analytically  !
 ! D47   D(5,6,60,61)          -78.7849         calculate D2E/DX2 analytically  !
 ! D48   D(5,6,60,62)           83.0716         calculate D2E/DX2 analytically  !
 ! D49   D(7,6,60,13)           -8.4776         calculate D2E/DX2 analytically  !
 ! D50   D(7,6,60,61)           93.3897         calculate D2E/DX2 analytically  !
 ! D51   D(7,6,60,62)         -104.7538         calculate D2E/DX2 analytically  !
 ! D52   D(6,7,8,9)            176.191          calculate D2E/DX2 analytically  !
 ! D53   D(6,7,8,13)            -3.1941         calculate D2E/DX2 analytically  !
 ! D54   D(18,7,8,9)            -4.0861         calculate D2E/DX2 analytically  !
 ! D55   D(18,7,8,13)          176.5288         calculate D2E/DX2 analytically  !
 ! D56   D(6,7,18,19)           10.8013         calculate D2E/DX2 analytically  !
 ! D57   D(8,7,18,19)         -168.9313         calculate D2E/DX2 analytically  !
 ! D58   D(7,8,9,10)          -178.5445         calculate D2E/DX2 analytically  !
 ! D59   D(7,8,9,38)             1.0984         calculate D2E/DX2 analytically  !
 ! D60   D(13,8,9,10)            0.7849         calculate D2E/DX2 analytically  !
 ! D61   D(13,8,9,38)         -179.5722         calculate D2E/DX2 analytically  !
 ! D62   D(7,8,13,12)          178.8676         calculate D2E/DX2 analytically  !
 ! D63   D(7,8,13,60)           -4.5904         calculate D2E/DX2 analytically  !
 ! D64   D(9,8,13,12)           -0.5305         calculate D2E/DX2 analytically  !
 ! D65   D(9,8,13,60)          176.0116         calculate D2E/DX2 analytically  !
 ! D66   D(8,9,10,11)           -0.1355         calculate D2E/DX2 analytically  !
 ! D67   D(8,9,10,39)          179.7961         calculate D2E/DX2 analytically  !
 ! D68   D(38,9,10,11)        -179.7709         calculate D2E/DX2 analytically  !
 ! D69   D(38,9,10,39)           0.1607         calculate D2E/DX2 analytically  !
 ! D70   D(9,10,11,12)          -0.7159         calculate D2E/DX2 analytically  !
 ! D71   D(9,10,11,17)         178.2219         calculate D2E/DX2 analytically  !
 ! D72   D(39,10,11,12)        179.3522         calculate D2E/DX2 analytically  !
 ! D73   D(39,10,11,17)         -1.71           calculate D2E/DX2 analytically  !
 ! D74   D(10,11,12,13)          0.9938         calculate D2E/DX2 analytically  !
 ! D75   D(10,11,12,14)       -177.9669         calculate D2E/DX2 analytically  !
 ! D76   D(17,11,12,13)       -177.9477         calculate D2E/DX2 analytically  !
 ! D77   D(17,11,12,14)          3.0916         calculate D2E/DX2 analytically  !
 ! D78   D(10,11,17,16)        162.5878         calculate D2E/DX2 analytically  !
 ! D79   D(10,11,17,46)         38.3743         calculate D2E/DX2 analytically  !
 ! D80   D(10,11,17,47)        -76.6059         calculate D2E/DX2 analytically  !
 ! D81   D(12,11,17,16)        -18.5015         calculate D2E/DX2 analytically  !
 ! D82   D(12,11,17,46)       -142.715          calculate D2E/DX2 analytically  !
 ! D83   D(12,11,17,47)        102.3048         calculate D2E/DX2 analytically  !
 ! D84   D(11,12,13,8)          -0.3878         calculate D2E/DX2 analytically  !
 ! D85   D(11,12,13,60)       -176.4365         calculate D2E/DX2 analytically  !
 ! D86   D(14,12,13,8)         178.6357         calculate D2E/DX2 analytically  !
 ! D87   D(14,12,13,60)          2.5869         calculate D2E/DX2 analytically  !
 ! D88   D(11,12,14,15)        -17.3155         calculate D2E/DX2 analytically  !
 ! D89   D(11,12,14,40)       -142.87           calculate D2E/DX2 analytically  !
 ! D90   D(11,12,14,41)        103.5417         calculate D2E/DX2 analytically  !
 ! D91   D(13,12,14,15)        163.6844         calculate D2E/DX2 analytically  !
 ! D92   D(13,12,14,40)         38.1299         calculate D2E/DX2 analytically  !
 ! D93   D(13,12,14,41)        -75.4584         calculate D2E/DX2 analytically  !
 ! D94   D(8,13,60,6)            7.1146         calculate D2E/DX2 analytically  !
 ! D95   D(8,13,60,61)         -86.3625         calculate D2E/DX2 analytically  !
 ! D96   D(8,13,60,62)         133.9709         calculate D2E/DX2 analytically  !
 ! D97   D(12,13,60,6)        -176.5769         calculate D2E/DX2 analytically  !
 ! D98   D(12,13,60,61)         89.9461         calculate D2E/DX2 analytically  !
 ! D99   D(12,13,60,62)        -49.7205         calculate D2E/DX2 analytically  !
 ! D100  D(12,14,15,16)         46.5223         calculate D2E/DX2 analytically  !
 ! D101  D(12,14,15,42)        -74.2722         calculate D2E/DX2 analytically  !
 ! D102  D(12,14,15,43)        168.875          calculate D2E/DX2 analytically  !
 ! D103  D(40,14,15,16)        169.1991         calculate D2E/DX2 analytically  !
 ! D104  D(40,14,15,42)         48.4047         calculate D2E/DX2 analytically  !
 ! D105  D(40,14,15,43)        -68.4481         calculate D2E/DX2 analytically  !
 ! D106  D(41,14,15,16)        -72.783          calculate D2E/DX2 analytically  !
 ! D107  D(41,14,15,42)        166.4226         calculate D2E/DX2 analytically  !
 ! D108  D(41,14,15,43)         49.5698         calculate D2E/DX2 analytically  !
 ! D109  D(14,15,16,17)        -62.8929         calculate D2E/DX2 analytically  !
 ! D110  D(14,15,16,44)        175.5348         calculate D2E/DX2 analytically  !
 ! D111  D(14,15,16,45)         57.6874         calculate D2E/DX2 analytically  !
 ! D112  D(42,15,16,17)         58.1144         calculate D2E/DX2 analytically  !
 ! D113  D(42,15,16,44)        -63.458          calculate D2E/DX2 analytically  !
 ! D114  D(42,15,16,45)        178.6947         calculate D2E/DX2 analytically  !
 ! D115  D(43,15,16,17)        175.5232         calculate D2E/DX2 analytically  !
 ! D116  D(43,15,16,44)         53.9508         calculate D2E/DX2 analytically  !
 ! D117  D(43,15,16,45)        -63.8965         calculate D2E/DX2 analytically  !
 ! D118  D(15,16,17,11)         47.782          calculate D2E/DX2 analytically  !
 ! D119  D(15,16,17,46)        171.1153         calculate D2E/DX2 analytically  !
 ! D120  D(15,16,17,47)        -72.5152         calculate D2E/DX2 analytically  !
 ! D121  D(44,16,17,11)        170.3803         calculate D2E/DX2 analytically  !
 ! D122  D(44,16,17,46)        -66.2865         calculate D2E/DX2 analytically  !
 ! D123  D(44,16,17,47)         50.083          calculate D2E/DX2 analytically  !
 ! D124  D(45,16,17,11)        -72.6406         calculate D2E/DX2 analytically  !
 ! D125  D(45,16,17,46)         50.6927         calculate D2E/DX2 analytically  !
 ! D126  D(45,16,17,47)        167.0622         calculate D2E/DX2 analytically  !
 ! D127  D(7,18,19,5)          -18.984          calculate D2E/DX2 analytically  !
 ! D128  D(7,18,19,20)          97.7833         calculate D2E/DX2 analytically  !
 ! D129  D(7,18,19,26)        -137.6918         calculate D2E/DX2 analytically  !
 ! D130  D(5,19,20,21)         100.0608         calculate D2E/DX2 analytically  !
 ! D131  D(5,19,20,25)         -75.3276         calculate D2E/DX2 analytically  !
 ! D132  D(18,19,20,21)         -9.4419         calculate D2E/DX2 analytically  !
 ! D133  D(18,19,20,25)        175.1697         calculate D2E/DX2 analytically  !
 ! D134  D(26,19,20,21)       -127.7917         calculate D2E/DX2 analytically  !
 ! D135  D(26,19,20,25)         56.8199         calculate D2E/DX2 analytically  !
 ! D136  D(5,19,26,27)         -44.6961         calculate D2E/DX2 analytically  !
 ! D137  D(5,19,26,31)         139.1776         calculate D2E/DX2 analytically  !
 ! D138  D(18,19,26,27)         64.9647         calculate D2E/DX2 analytically  !
 ! D139  D(18,19,26,31)       -111.1616         calculate D2E/DX2 analytically  !
 ! D140  D(20,19,26,27)       -175.7578         calculate D2E/DX2 analytically  !
 ! D141  D(20,19,26,31)          8.1159         calculate D2E/DX2 analytically  !
 ! D142  D(19,20,21,22)       -175.2158         calculate D2E/DX2 analytically  !
 ! D143  D(19,20,21,48)          4.7988         calculate D2E/DX2 analytically  !
 ! D144  D(25,20,21,22)          0.2276         calculate D2E/DX2 analytically  !
 ! D145  D(25,20,21,48)       -179.7577         calculate D2E/DX2 analytically  !
 ! D146  D(19,20,25,24)        175.3657         calculate D2E/DX2 analytically  !
 ! D147  D(19,20,25,52)         -3.1926         calculate D2E/DX2 analytically  !
 ! D148  D(21,20,25,24)         -0.148          calculate D2E/DX2 analytically  !
 ! D149  D(21,20,25,52)       -178.7062         calculate D2E/DX2 analytically  !
 ! D150  D(20,21,22,23)         -0.0741         calculate D2E/DX2 analytically  !
 ! D151  D(20,21,22,49)        179.5607         calculate D2E/DX2 analytically  !
 ! D152  D(48,21,22,23)        179.9114         calculate D2E/DX2 analytically  !
 ! D153  D(48,21,22,49)         -0.4538         calculate D2E/DX2 analytically  !
 ! D154  D(21,22,23,24)         -0.1624         calculate D2E/DX2 analytically  !
 ! D155  D(21,22,23,50)        179.6027         calculate D2E/DX2 analytically  !
 ! D156  D(49,22,23,24)       -179.794          calculate D2E/DX2 analytically  !
 ! D157  D(49,22,23,50)         -0.0289         calculate D2E/DX2 analytically  !
 ! D158  D(22,23,24,25)          0.2417         calculate D2E/DX2 analytically  !
 ! D159  D(22,23,24,51)        179.5065         calculate D2E/DX2 analytically  !
 ! D160  D(50,23,24,25)       -179.5234         calculate D2E/DX2 analytically  !
 ! D161  D(50,23,24,51)         -0.2586         calculate D2E/DX2 analytically  !
 ! D162  D(23,24,25,20)         -0.0862         calculate D2E/DX2 analytically  !
 ! D163  D(23,24,25,52)        178.4799         calculate D2E/DX2 analytically  !
 ! D164  D(51,24,25,20)       -179.3577         calculate D2E/DX2 analytically  !
 ! D165  D(51,24,25,52)         -0.7915         calculate D2E/DX2 analytically  !
 ! D166  D(19,26,27,28)       -178.0983         calculate D2E/DX2 analytically  !
 ! D167  D(19,26,27,53)          0.4771         calculate D2E/DX2 analytically  !
 ! D168  D(31,26,27,28)         -1.8261         calculate D2E/DX2 analytically  !
 ! D169  D(31,26,27,53)        176.7493         calculate D2E/DX2 analytically  !
 ! D170  D(19,26,31,30)        178.232          calculate D2E/DX2 analytically  !
 ! D171  D(19,26,31,57)         -1.6548         calculate D2E/DX2 analytically  !
 ! D172  D(27,26,31,30)          2.0674         calculate D2E/DX2 analytically  !
 ! D173  D(27,26,31,57)       -177.8195         calculate D2E/DX2 analytically  !
 ! D174  D(26,27,28,29)          0.3443         calculate D2E/DX2 analytically  !
 ! D175  D(26,27,28,54)       -179.8784         calculate D2E/DX2 analytically  !
 ! D176  D(53,27,28,29)       -178.25           calculate D2E/DX2 analytically  !
 ! D177  D(53,27,28,54)          1.5273         calculate D2E/DX2 analytically  !
 ! D178  D(27,28,29,30)          0.9274         calculate D2E/DX2 analytically  !
 ! D179  D(27,28,29,55)       -179.6524         calculate D2E/DX2 analytically  !
 ! D180  D(54,28,29,30)       -178.8485         calculate D2E/DX2 analytically  !
 ! D181  D(54,28,29,55)          0.5717         calculate D2E/DX2 analytically  !
 ! D182  D(28,29,30,31)         -0.6851         calculate D2E/DX2 analytically  !
 ! D183  D(28,29,30,56)        178.9615         calculate D2E/DX2 analytically  !
 ! D184  D(55,29,30,31)        179.8953         calculate D2E/DX2 analytically  !
 ! D185  D(55,29,30,56)         -0.458          calculate D2E/DX2 analytically  !
 ! D186  D(29,30,31,26)         -0.8369         calculate D2E/DX2 analytically  !
 ! D187  D(29,30,31,57)        179.0504         calculate D2E/DX2 analytically  !
 ! D188  D(56,30,31,26)        179.5137         calculate D2E/DX2 analytically  !
 ! D189  D(56,30,31,57)         -0.599          calculate D2E/DX2 analytically  !
 ! D190  D(4,32,33,1)           -0.9571         calculate D2E/DX2 analytically  !
 ! D191  D(4,32,33,59)         179.6399         calculate D2E/DX2 analytically  !
 ! D192  D(58,32,33,1)        -179.8912         calculate D2E/DX2 analytically  !
 ! D193  D(58,32,33,59)          0.7058         calculate D2E/DX2 analytically  !
 --------------------------------------------------------------------------------
 Trust Radius=3.00D-01 FncErr=1.00D-07 GrdErr=1.00D-07 EigMax=2.50D+02 EigMin=1.00D-04
 Number of steps in this run=      2 maximum allowed number of steps=      2.
 GradGradGradGradGradGradGradGradGradGradGradGradGradGradGradGradGradGrad

 Stoichiometry    C30H26F2N2NiO(3)
 Framework group  C1[X(C30H26F2N2NiO)]
 Deg. of freedom   180
 Full point group                 C1      NOp   1
 Largest Abelian subgroup         C1      NOp   1
 Largest concise Abelian subgroup C1      NOp   1
                         Standard orientation:                         
 ---------------------------------------------------------------------
 Center     Atomic      Atomic             Coordinates (Angstroms)
 Number     Number       Type             X           Y           Z
 ---------------------------------------------------------------------
      1          6           0       -3.467872   -3.922027   -0.646199
      2          6           0       -2.252386   -3.758090    0.018833
      3          6           0       -1.534674   -2.565880   -0.087756
      4          6           0       -2.041431   -1.531516   -0.880516
      5          6           0       -1.361869   -0.192321   -0.970280
      6          7           0        0.087841   -0.212148   -0.736317
      7          6           0        0.393974    0.853944   -0.091178
      8          6           0        1.783793    1.189509    0.231593
      9          6           0        2.181244    2.362781    0.858937
     10          6           0        3.547251    2.545540    1.067842
     11          6           0        4.466286    1.577694    0.659837
     12          6           0        3.972368    0.405856    0.045686
     13          7           0        2.659644    0.243055   -0.154985
     14          6           0        4.866581   -0.724595   -0.394067
     15          6           0        6.335306   -0.307034   -0.499421
     16          6           0        6.760275    0.484457    0.741438
     17          6           0        5.954006    1.785066    0.846388
     18          8           0       -0.595346    1.668398    0.294986
     19          6           0       -1.862066    0.918858    0.060837
     20          6           0       -2.283099    0.299556    1.384723
     21          6           0       -1.435274    0.311283    2.495103
     22          6           0       -1.795521   -0.347408    3.672045
     23          6           0       -3.008836   -1.025504    3.755625
     24          6           0       -3.864547   -1.038396    2.652737
     25          6           0       -3.505244   -0.383523    1.479113
     26          6           0       -2.835721    1.920496   -0.542021
     27          6           0       -2.565065    2.469962   -1.804800
     28          6           0       -3.413115    3.418390   -2.369771
     29          6           0       -4.548877    3.843233   -1.678032
     30          6           0       -4.813399    3.324477   -0.412534
     31          6           0       -3.959323    2.377447    0.154527
     32          6           0       -3.244788   -1.705857   -1.574235
     33          6           0       -3.962954   -2.893510   -1.450978
     34          1           0       -4.021499   -4.852290   -0.551722
     35          1           0       -1.851867   -4.563180    0.628348
     36          1           0       -0.571971   -2.461098    0.409931
     37          1           0       -1.513910    0.187809   -1.985556
     38          1           0        1.445323    3.098489    1.161774
     39          1           0        3.904672    3.450620    1.552348
     40          1           0        4.465172   -1.126446   -1.331822
     41          1           0        4.759925   -1.529963    0.348522
     42          1           0        6.482248    0.311973   -1.395300
     43          1           0        6.959991   -1.197248   -0.625434
     44          1           0        7.829698    0.720329    0.712769
     45          1           0        6.590899   -0.127017    1.638066
     46          1           0        6.134354    2.282329    1.807218
     47          1           0        6.301532    2.485702    0.072593
     48          1           0       -0.488588    0.834389    2.449361
     49          1           0       -1.117852   -0.331277    4.520561
     50          1           0       -3.285646   -1.543196    4.669439
     51          1           0       -4.810735   -1.569337    2.699041
     52          1           0       -4.169015   -0.423696    0.624047
     53          1           0       -1.672662    2.175796   -2.348165
     54          1           0       -3.183887    3.827868   -3.349272
     55          1           0       -5.214771    4.578984   -2.119649
     56          1           0       -5.684310    3.658689    0.143888
     57          1           0       -4.170792    1.995806    1.145313
     58          1           0       -3.626767   -0.900579   -2.198530
     59          1           0       -4.899096   -3.019240   -1.987919
     60         28           0        1.737986   -1.438784   -0.940365
     61          9           0        1.393007   -2.444424    0.562150
     62          9           0        2.745456   -1.711035   -2.431180
 ---------------------------------------------------------------------
 Rotational constants (GHZ):           0.1618139           0.0746598           0.0657045
 Basis read from chk: "Lig2120_xyz_4.chk" (6D, 7F)
 Pseudo-potential data read from chk file.
 There are   654 symmetry adapted cartesian basis functions of A   symmetry.
 There are   651 symmetry adapted basis functions of A   symmetry.
   651 basis functions,  1238 primitive gaussians,   654 cartesian basis functions
   133 alpha electrons      131 beta electrons
       nuclear repulsion energy      4215.2994573029 Hartrees.
 NAtoms=   62 NActive=   62 NUniq=   62 SFac= 1.00D+00 NAtFMM=   60 NAOKFM=T Big=T
 Integral buffers will be    131072 words long.
 Raffenetti 2 integral format.
 Two-electron integral symmetry is turned on.
 Nuclear repulsion after empirical dispersion term =     4215.1330607765 Hartrees.
 One-electron integrals computed using PRISM.
 PrsmSu:  requested number of processors reduced to:  12 ShMem   1 Linda.
   1 Symmetry operations used in ECPInt.
 ECPInt:  NShTT=   22791 NPrTT=  142008 LenC2=   18059 LenP2D=   59400.
 LDataN:  DoStor=T MaxTD1= 6 Len=  172
 Number of processors reduced to  11 by ecpmxn.
 NBasis=   651 RedAO= T EigKep=  1.01D-06  NBF=   651
 NBsUse=   651 1.00D-06 EigRej= -1.00D+00 NBFU=   651
 Initial guess from the checkpoint file:  "Lig2120_xyz_4.chk"
 B after Tr=    -0.000000    0.000000    0.000000
         Rot=    1.000000    0.000000    0.000000    0.000000 Ang=   0.00 deg.
 Initial guess <Sx>= 0.0000 <Sy>= 0.0000 <Sz>= 1.0000 <S**2>= 2.0060 S= 1.0020
 Requested convergence on RMS density matrix=1.00D-08 within 128 cycles.
 Requested convergence on MAX density matrix=1.00D-06.
 Requested convergence on             energy=1.00D-06.
 No special actions if energy rises.
 SCF Done:  E(UB3LYP) =  -1712.90246437     A.U. after    2 cycles
            NFock=  2  Conv=0.51D-09     -V/T= 2.0467
 <Sx>= 0.0000 <Sy>= 0.0000 <Sz>= 1.0000 <S**2>= 2.0060 S= 1.0020
 <L.S>=  0.00000000000    
 Annihilation of the first spin contaminant:
 S**2 before annihilation     2.0060,   after     2.0000
 DoSCS=F DFT=T ScalE2(SS,OS)=  1.000000  1.000000
 Range of M.O.s used for correlation:     1   651
 NBasis=   651 NAE=   133 NBE=   131 NFC=     0 NFV=     0
 NROrb=    651 NOA=   133 NOB=   131 NVA=   518 NVB=   520

 **** Warning!!: The largest alpha MO coefficient is  0.18571095D+03


 **** Warning!!: The largest beta MO coefficient is  0.18508876D+03

 PrsmSu:  requested number of processors reduced to:  10 ShMem   1 Linda.
 PrsmSu:  requested number of processors reduced to:   2 ShMem   1 Linda.
   1 Symmetry operations used in ECPInt.
 ECPInt:  NShTT=   22791 NPrTT=  142008 LenC2=   18059 LenP2D=   59400.
 LDataN:  DoStor=T MaxTD1= 7 Len=  274
 Number of processors reduced to   1 by ecpmxn.
 Symmetrizing basis deriv contribution to polar:
 IMax=3 JMax=2 DiffMx= 0.00D+00
 G2DrvN: will do     1 centers at a time, making   63 passes.
 Estimated number of processors is:   15
 Calling FoFCou, ICntrl=  3107 FMM=T I1Cent=   0 AccDes= 0.00D+00.
 Calling FoFCou, ICntrl=  3107 FMM=T I1Cent=   0 AccDes= 0.00D+00.
 CoulSu:  requested number of processors reduced to:  15 ShMem   1 Linda.
 Calling FoFCou, ICntrl=  3107 FMM=T I1Cent=   0 AccDes= 0.00D+00.
 CoulSu:  requested number of processors reduced to:  15 ShMem   1 Linda.
 Calling FoFCou, ICntrl=  3107 FMM=T I1Cent=   0 AccDes= 0.00D+00.
 CoulSu:  requested number of processors reduced to:  15 ShMem   1 Linda.
 Calling FoFCou, ICntrl=  3107 FMM=T I1Cent=   0 AccDes= 0.00D+00.
 CoulSu:  requested number of processors reduced to:  15 ShMem   1 Linda.
 Calling FoFCou, ICntrl=  3107 FMM=T I1Cent=   0 AccDes= 0.00D+00.
 CoulSu:  requested number of processors reduced to:  15 ShMem   1 Linda.
 Calling FoFCou, ICntrl=  3107 FMM=T I1Cent=   0 AccDes= 0.00D+00.
 CoulSu:  requested number of processors reduced to:  15 ShMem   1 Linda.
 Calling FoFCou, ICntrl=  3107 FMM=T I1Cent=   0 AccDes= 0.00D+00.
 CoulSu:  requested number of processors reduced to:  15 ShMem   1 Linda.
 Calling FoFCou, ICntrl=  3107 FMM=T I1Cent=   0 AccDes= 0.00D+00.
 CoulSu:  requested number of processors reduced to:  15 ShMem   1 Linda.
 Calling FoFCou, ICntrl=  3107 FMM=T I1Cent=   0 AccDes= 0.00D+00.
 CoulSu:  requested number of processors reduced to:  15 ShMem   1 Linda.
 Calling FoFCou, ICntrl=  3107 FMM=T I1Cent=   0 AccDes= 0.00D+00.
 CoulSu:  requested number of processors reduced to:  15 ShMem   1 Linda.
 Calling FoFCou, ICntrl=  3107 FMM=T I1Cent=   0 AccDes= 0.00D+00.
 CoulSu:  requested number of processors reduced to:  15 ShMem   1 Linda.
 Calling FoFCou, ICntrl=  3107 FMM=T I1Cent=   0 AccDes= 0.00D+00.
 CoulSu:  requested number of processors reduced to:  15 ShMem   1 Linda.
 Calling FoFCou, ICntrl=  3107 FMM=T I1Cent=   0 AccDes= 0.00D+00.
 CoulSu:  requested number of processors reduced to:  15 ShMem   1 Linda.
 Calling FoFCou, ICntrl=  3107 FMM=T I1Cent=   0 AccDes= 0.00D+00.
 CoulSu:  requested number of processors reduced to:  15 ShMem   1 Linda.
 Calling FoFCou, ICntrl=  3107 FMM=T I1Cent=   0 AccDes= 0.00D+00.
 CoulSu:  requested number of processors reduced to:  15 ShMem   1 Linda.
 Calling FoFCou, ICntrl=  3107 FMM=T I1Cent=   0 AccDes= 0.00D+00.
 CoulSu:  requested number of processors reduced to:  15 ShMem   1 Linda.
 Calling FoFCou, ICntrl=  3107 FMM=T I1Cent=   0 AccDes= 0.00D+00.
 CoulSu:  requested number of processors reduced to:  15 ShMem   1 Linda.
 Calling FoFCou, ICntrl=  3107 FMM=T I1Cent=   0 AccDes= 0.00D+00.
 CoulSu:  requested number of processors reduced to:  15 ShMem   1 Linda.
 Calling FoFCou, ICntrl=  3107 FMM=T I1Cent=   0 AccDes= 0.00D+00.
 CoulSu:  requested number of processors reduced to:  15 ShMem   1 Linda.
 Calling FoFCou, ICntrl=  3107 FMM=T I1Cent=   0 AccDes= 0.00D+00.
 CoulSu:  requested number of processors reduced to:  15 ShMem   1 Linda.
 Calling FoFCou, ICntrl=  3107 FMM=T I1Cent=   0 AccDes= 0.00D+00.
 CoulSu:  requested number of processors reduced to:  15 ShMem   1 Linda.
 Calling FoFCou, ICntrl=  3107 FMM=T I1Cent=   0 AccDes= 0.00D+00.
 CoulSu:  requested number of processors reduced to:  15 ShMem   1 Linda.
 Calling FoFCou, ICntrl=  3107 FMM=T I1Cent=   0 AccDes= 0.00D+00.
 CoulSu:  requested number of processors reduced to:  15 ShMem   1 Linda.
 Calling FoFCou, ICntrl=  3107 FMM=T I1Cent=   0 AccDes= 0.00D+00.
 CoulSu:  requested number of processors reduced to:  15 ShMem   1 Linda.
 Calling FoFCou, ICntrl=  3107 FMM=T I1Cent=   0 AccDes= 0.00D+00.
 CoulSu:  requested number of processors reduced to:  15 ShMem   1 Linda.
 Calling FoFCou, ICntrl=  3107 FMM=T I1Cent=   0 AccDes= 0.00D+00.
 CoulSu:  requested number of processors reduced to:  15 ShMem   1 Linda.
 Calling FoFCou, ICntrl=  3107 FMM=T I1Cent=   0 AccDes= 0.00D+00.
 CoulSu:  requested number of processors reduced to:  15 ShMem   1 Linda.
 Calling FoFCou, ICntrl=  3107 FMM=T I1Cent=   0 AccDes= 0.00D+00.
 CoulSu:  requested number of processors reduced to:  15 ShMem   1 Linda.
 Calling FoFCou, ICntrl=  3107 FMM=T I1Cent=   0 AccDes= 0.00D+00.
 CoulSu:  requested number of processors reduced to:  15 ShMem   1 Linda.
 Calling FoFCou, ICntrl=  3107 FMM=T I1Cent=   0 AccDes= 0.00D+00.
 CoulSu:  requested number of processors reduced to:  15 ShMem   1 Linda.
 Calling FoFCou, ICntrl=  3107 FMM=T I1Cent=   0 AccDes= 0.00D+00.
 CoulSu:  requested number of processors reduced to:  15 ShMem   1 Linda.
 Calling FoFCou, ICntrl=  3107 FMM=T I1Cent=   0 AccDes= 0.00D+00.
 CoulSu:  requested number of processors reduced to:  15 ShMem   1 Linda.
 Calling FoFCou, ICntrl=  3107 FMM=T I1Cent=   0 AccDes= 0.00D+00.
 CoulSu:  requested number of processors reduced to:  15 ShMem   1 Linda.
 Calling FoFCou, ICntrl=  3107 FMM=T I1Cent=   0 AccDes= 0.00D+00.
 CoulSu:  requested number of processors reduced to:  15 ShMem   1 Linda.
 Calling FoFCou, ICntrl=  3107 FMM=T I1Cent=   0 AccDes= 0.00D+00.
 CoulSu:  requested number of processors reduced to:  15 ShMem   1 Linda.
 Calling FoFCou, ICntrl=  3107 FMM=T I1Cent=   0 AccDes= 0.00D+00.
 CoulSu:  requested number of processors reduced to:  15 ShMem   1 Linda.
 Calling FoFCou, ICntrl=  3107 FMM=T I1Cent=   0 AccDes= 0.00D+00.
 CoulSu:  requested number of processors reduced to:  15 ShMem   1 Linda.
 Calling FoFCou, ICntrl=  3107 FMM=T I1Cent=   0 AccDes= 0.00D+00.
 CoulSu:  requested number of processors reduced to:  15 ShMem   1 Linda.
 Calling FoFCou, ICntrl=  3107 FMM=T I1Cent=   0 AccDes= 0.00D+00.
 CoulSu:  requested number of processors reduced to:  15 ShMem   1 Linda.
 Calling FoFCou, ICntrl=  3107 FMM=T I1Cent=   0 AccDes= 0.00D+00.
 CoulSu:  requested number of processors reduced to:  15 ShMem   1 Linda.
 Calling FoFCou, ICntrl=  3107 FMM=T I1Cent=   0 AccDes= 0.00D+00.
 CoulSu:  requested number of processors reduced to:  15 ShMem   1 Linda.
 Calling FoFCou, ICntrl=  3107 FMM=T I1Cent=   0 AccDes= 0.00D+00.
 CoulSu:  requested number of processors reduced to:  15 ShMem   1 Linda.
 Calling FoFCou, ICntrl=  3107 FMM=T I1Cent=   0 AccDes= 0.00D+00.
 CoulSu:  requested number of processors reduced to:  15 ShMem   1 Linda.
 Calling FoFCou, ICntrl=  3107 FMM=T I1Cent=   0 AccDes= 0.00D+00.
 CoulSu:  requested number of processors reduced to:  15 ShMem   1 Linda.
 Calling FoFCou, ICntrl=  3107 FMM=T I1Cent=   0 AccDes= 0.00D+00.
 CoulSu:  requested number of processors reduced to:  15 ShMem   1 Linda.
 Calling FoFCou, ICntrl=  3107 FMM=T I1Cent=   0 AccDes= 0.00D+00.
 CoulSu:  requested number of processors reduced to:  15 ShMem   1 Linda.
 Calling FoFCou, ICntrl=  3107 FMM=T I1Cent=   0 AccDes= 0.00D+00.
 CoulSu:  requested number of processors reduced to:  15 ShMem   1 Linda.
 Calling FoFCou, ICntrl=  3107 FMM=T I1Cent=   0 AccDes= 0.00D+00.
 CoulSu:  requested number of processors reduced to:  15 ShMem   1 Linda.
 Calling FoFCou, ICntrl=  3107 FMM=T I1Cent=   0 AccDes= 0.00D+00.
 CoulSu:  requested number of processors reduced to:  15 ShMem   1 Linda.
 Calling FoFCou, ICntrl=  3107 FMM=T I1Cent=   0 AccDes= 0.00D+00.
 CoulSu:  requested number of processors reduced to:  15 ShMem   1 Linda.
 Calling FoFCou, ICntrl=  3107 FMM=T I1Cent=   0 AccDes= 0.00D+00.
 CoulSu:  requested number of processors reduced to:  15 ShMem   1 Linda.
 Calling FoFCou, ICntrl=  3107 FMM=T I1Cent=   0 AccDes= 0.00D+00.
 CoulSu:  requested number of processors reduced to:  15 ShMem   1 Linda.
 Calling FoFCou, ICntrl=  3107 FMM=T I1Cent=   0 AccDes= 0.00D+00.
 CoulSu:  requested number of processors reduced to:  15 ShMem   1 Linda.
 Calling FoFCou, ICntrl=  3107 FMM=T I1Cent=   0 AccDes= 0.00D+00.
 CoulSu:  requested number of processors reduced to:  15 ShMem   1 Linda.
 Calling FoFCou, ICntrl=  3107 FMM=T I1Cent=   0 AccDes= 0.00D+00.
 CoulSu:  requested number of processors reduced to:  15 ShMem   1 Linda.
 Calling FoFCou, ICntrl=  3107 FMM=T I1Cent=   0 AccDes= 0.00D+00.
 CoulSu:  requested number of processors reduced to:  15 ShMem   1 Linda.
 Calling FoFCou, ICntrl=  3107 FMM=T I1Cent=   0 AccDes= 0.00D+00.
 CoulSu:  requested number of processors reduced to:  15 ShMem   1 Linda.
 Calling FoFCou, ICntrl=  3107 FMM=T I1Cent=   0 AccDes= 0.00D+00.
 CoulSu:  requested number of processors reduced to:  15 ShMem   1 Linda.
 Calling FoFCou, ICntrl=  3107 FMM=T I1Cent=   0 AccDes= 0.00D+00.
 CoulSu:  requested number of processors reduced to:  15 ShMem   1 Linda.
 Calling FoFCou, ICntrl=  3107 FMM=T I1Cent=   0 AccDes= 0.00D+00.
 CoulSu:  requested number of processors reduced to:  15 ShMem   1 Linda.
 Calling FoFCou, ICntrl=  3107 FMM=T I1Cent=   0 AccDes= 0.00D+00.
 CoulSu:  requested number of processors reduced to:  15 ShMem   1 Linda.
 Calling FoFCou, ICntrl=  3107 FMM=T I1Cent=   0 AccDes= 0.00D+00.
 CoulSu:  requested number of processors reduced to:  15 ShMem   1 Linda.
 End of G2Drv F.D. properties file   721 does not exist.
 End of G2Drv F.D. properties file   722 does not exist.
 End of G2Drv F.D. properties file   788 does not exist.
          IDoAtm=11111111111111111111111111111111111111111111111111
          IDoAtm=111111111111
          Differentiating once with respect to electric field.
                with respect to dipole field.
          Differentiating once with respect to nuclear coordinates.
 CalDSu exits because no D1Ps are significant.
          There are   189 degrees of freedom in the 1st order CPHF.  IDoFFX=6 NUNeed=     3.
    189 vectors produced by pass  0 Test12= 1.37D-13 1.00D-09 XBig12= 8.80D+02 7.04D+00.
 AX will form     3 AO Fock derivatives at one time.
