 Entering Gaussian System, Link 0=g16
 Input=Lig2224_xyz_3.com
 Output=Lig2224_xyz_3.log
 Initial command:
 /uufs/chpc.utah.edu/sys/installdir/gaussian16/C01/AVX/g16/l1.exe "/scratch/general/vast/u1365460/GAUSSSCRDIR/11267760-notchpeak.peaks/Gau-906636.inp" -scrdir="/scratch/general/vast/u1365460/GAUSSSCRDIR/11267760-notchpeak.peaks/"
 Entering Link 1 = /uufs/chpc.utah.edu/sys/installdir/gaussian16/C01/AVX/g16/l1.exe PID=    906637.
  
 Copyright (c) 1988-2019, Gaussian, Inc.  All Rights Reserved.
  
 This is part of the Gaussian(R) 16 program.  It is based on
 the Gaussian(R) 09 system (copyright 2009, Gaussian, Inc.),
 the Gaussian(R) 03 system (copyright 2003, Gaussian, Inc.),
 the Gaussian(R) 98 system (copyright 1998, Gaussian, Inc.),
 the Gaussian(R) 94 system (copyright 1995, Gaussian, Inc.),
 the Gaussian 92(TM) system (copyright 1992, Gaussian, Inc.),
 the Gaussian 90(TM) system (copyright 1990, Gaussian, Inc.),
 the Gaussian 88(TM) system (copyright 1988, Gaussian, Inc.),
 the Gaussian 86(TM) system (copyright 1986, Carnegie Mellon
 University), and the Gaussian 82(TM) system (copyright 1983,
 Carnegie Mellon University). Gaussian is a federally registered
 trademark of Gaussian, Inc.
  
 This software contains proprietary and confidential information,
 including trade secrets, belonging to Gaussian, Inc.
  
 This software is provided under written license and may be
 used, copied, transmitted, or stored only in accord with that
 written license.
  
 The following legend is applicable only to US Government
 contracts under FAR:
  
                    RESTRICTED RIGHTS LEGEND
  
 Use, reproduction and disclosure by the US Government is
 subject to restrictions as set forth in subparagraphs (a)
 and (c) of the Commercial Computer Software - Restricted
 Rights clause in FAR 52.227-19.
  
 Gaussian, Inc.
 340 Quinnipiac St., Bldg. 40, Wallingford CT 06492
  
  
 ---------------------------------------------------------------
 Warning -- This program may not be used in any manner that
 competes with the business of Gaussian, Inc. or will provide
 assistance to any competitor of Gaussian, Inc.  The licensee
 of this program is prohibited from giving any competitor of
 Gaussian, Inc. access to this program.  By using this program,
 the user acknowledges that Gaussian, Inc. is engaged in the
 business of creating and licensing software in the field of
 computational chemistry and represents and warrants to the
 licensee that it is not a competitor of Gaussian, Inc. and that
 it will not use this program in any manner prohibited above.
 ---------------------------------------------------------------
  

 Cite this work as:
 Gaussian 16, Revision C.01,
 M. J. Frisch, G. W. Trucks, H. B. Schlegel, G. E. Scuseria, 
 M. A. Robb, J. R. Cheeseman, G. Scalmani, V. Barone, 
 G. A. Petersson, H. Nakatsuji, X. Li, M. Caricato, A. V. Marenich, 
 J. Bloino, B. G. Janesko, R. Gomperts, B. Mennucci, H. P. Hratchian, 
 J. V. Ortiz, A. F. Izmaylov, J. L. Sonnenberg, D. Williams-Young, 
 F. Ding, F. Lipparini, F. Egidi, J. Goings, B. Peng, A. Petrone, 
 T. Henderson, D. Ranasinghe, V. G. Zakrzewski, J. Gao, N. Rega, 
 G. Zheng, W. Liang, M. Hada, M. Ehara, K. Toyota, R. Fukuda, 
 J. Hasegawa, M. Ishida, T. Nakajima, Y. Honda, O. Kitao, H. Nakai, 
 T. Vreven, K. Throssell, J. A. Montgomery, Jr., J. E. Peralta, 
 F. Ogliaro, M. J. Bearpark, J. J. Heyd, E. N. Brothers, K. N. Kudin, 
 V. N. Staroverov, T. A. Keith, R. Kobayashi, J. Normand, 
 K. Raghavachari, A. P. Rendell, J. C. Burant, S. S. Iyengar, 
 J. Tomasi, M. Cossi, J. M. Millam, M. Klene, C. Adamo, R. Cammi, 
 J. W. Ochterski, R. L. Martin, K. Morokuma, O. Farkas, 
 J. B. Foresman, and D. J. Fox, Gaussian, Inc., Wallingford CT, 2019.
 
 ******************************************
 Gaussian 16:  ES64L-G16RevC.01  3-Jul-2019
                 6-Mar-2026 
 ******************************************
 %NProcShared=16
 Will use up to   16 processors via shared memory.
 %chk=Lig2224_xyz_3.chk
 ----------------------------------------------------------------------
 # B3LYP gen 6D pseudo=read int=(grid=fine) empiricaldispersion=GD3BJ o
 pt freq=noraman
 ----------------------------------------------------------------------
 1/18=20,19=15,26=3,38=1/1,3;
 2/9=110,12=2,17=6,18=5,40=1/2;
 3/5=7,8=2,11=2,16=1,17=8,25=1,30=1,71=1,74=-5,75=-4,124=41/1,2,3;
 4//1;
 5/5=2,38=5/2;
 6/7=2,8=2,9=2,10=2,28=1/1;
 7//1,2,3,16;
 1/18=20,19=15,26=3/3(2);
 2/9=110/2;
 99//99;
 2/9=110/2;
 3/5=7,6=1,8=2,11=2,16=1,17=8,25=1,30=1,71=1,74=-5,75=-4,82=7,124=41/1,2,3;
 4/5=5,16=3,69=1/1;
 5/5=2,38=5/2;
 7//1,2,3,16;
 1/18=20,19=15,26=3/3(-5);
 2/9=110/2;
 6/7=2,8=2,9=2,10=2,19=2,28=1/1;
 99/9=1/99;
 -----------
 Lig2224.xyz
 -----------
 Symbolic Z-matrix:
 Charge =  0 Multiplicity = 3
 C                     2.54371   2.34702   0.02018 
 C                     2.85326   0.97305  -0.59976 
 C                     3.62768   1.17982  -1.91366 
 C                     1.52768   0.24916  -0.89484 
 C                     3.73073   0.19894   0.41505 
 C                     4.05651  -1.25884   0.06886 
 C                     5.33718  -1.80177   0.75275 
 O                     4.96887  -3.13903   1.22068 
 C                     3.63037  -3.18544   1.12262 
 C                     2.87234  -4.33561   1.62639 
 C                     3.43465  -5.49039   2.14501 
 C                     2.56155  -6.52204   2.51121 
 C                     1.19305  -6.34402   2.37241 
 C                     0.69304  -5.12606   1.87975 
 C                    -0.79162  -4.81505   1.76986 
 C                    -1.36729  -4.65874   3.17262 
 C                    -1.56543  -3.35275   3.64224 
 C                    -2.03831  -3.13264   4.93611 
 C                    -2.30941  -4.20897   5.78127 
 C                    -2.09261  -5.511     5.32864 
 C                    -1.6189   -5.73411   4.03583 
 C                    -1.46131  -5.76778   0.77971 
 C                    -0.98601  -5.73532  -0.5431 
 C                    -1.54188  -6.57221  -1.5074 
 C                    -2.57993  -7.44595  -1.17357 
 C                    -3.07241  -7.45886   0.12937 
 C                    -2.51836  -6.62134   1.10171 
 N                     1.53655  -4.16568   1.49897 
 N                     3.03597  -2.20028   0.55596 
 H                     3.46376   2.89589   0.25763 
 H                     1.95676   2.96009  -0.67293 
 H                     1.96415   2.23739   0.94411 
 H                     4.57448   1.70656  -1.7396 
 H                     3.03557   1.77784  -2.61511 
 H                     3.85299   0.22978  -2.41221 
 H                     0.9444    0.07549   0.0172 
 H                     1.68207  -0.71073  -1.4031 
 H                     0.91018   0.8607   -1.56343 
 H                     4.67901   0.74466   0.52335 
 H                     3.24955   0.20408   1.40134 
 H                     4.11901  -1.38757  -1.01785 
 H                     6.19312  -1.9072    0.08602 
 H                     5.61923  -1.21566   1.63378 
 H                     4.51031  -5.58363   2.23711 
 H                     2.95534  -7.45652   2.89851 
 H                     0.50011  -7.13361   2.63553 
 H                    -0.84611  -3.81672   1.32799 
 H                    -1.31088  -2.51784   2.99252 
 H                    -2.18936  -2.11448   5.28413 
 H                    -2.67999  -4.03638   6.78799 
 H                    -2.2918   -6.35654   5.9815 
 H                    -1.45305  -6.7547    3.70607 
 H                    -0.21173  -5.02307  -0.82935 
 H                    -1.16986  -6.53052  -2.52745 
 H                    -3.01148  -8.09788  -1.9282 
 H                    -3.89628  -8.11553   0.396 
 H                    -2.93489  -6.62085   2.10171 
 Ni                    1.03848  -2.49695   0.39049 
 F                     1.01249  -3.26175  -1.28433 
 F                    -0.09214  -1.52194   1.46302 
 

 GradGradGradGradGradGradGradGradGradGradGradGradGradGradGradGradGradGrad
 Berny optimization.
 Initialization pass.
                           ----------------------------
                           !    Initial Parameters    !
                           ! (Angstroms and Degrees)  !
 --------------------------                            --------------------------
 ! Name  Definition              Value          Derivative Info.                !
 --------------------------------------------------------------------------------
 ! R1    R(1,2)                  1.5388         estimate D2E/DX2                !
 ! R2    R(1,30)                 1.0973         estimate D2E/DX2                !
 ! R3    R(1,31)                 1.0958         estimate D2E/DX2                !
 ! R4    R(1,32)                 1.0962         estimate D2E/DX2                !
 ! R5    R(2,3)                  1.5391         estimate D2E/DX2                !
 ! R6    R(2,4)                  1.5389         estimate D2E/DX2                !
 ! R7    R(2,5)                  1.5489         estimate D2E/DX2                !
 ! R8    R(3,33)                 1.0974         estimate D2E/DX2                !
 ! R9    R(3,34)                 1.0956         estimate D2E/DX2                !
 ! R10   R(3,35)                 1.0963         estimate D2E/DX2                !
 ! R11   R(4,36)                 1.0964         estimate D2E/DX2                !
 ! R12   R(4,37)                 1.0971         estimate D2E/DX2                !
 ! R13   R(4,38)                 1.0965         estimate D2E/DX2                !
 ! R14   R(5,6)                  1.5333         estimate D2E/DX2                !
 ! R15   R(5,39)                 1.0994         estimate D2E/DX2                !
 ! R16   R(5,40)                 1.0974         estimate D2E/DX2                !
 ! R17   R(6,7)                  1.55           estimate D2E/DX2                !
 ! R18   R(6,29)                 1.4714         estimate D2E/DX2                !
 ! R19   R(6,41)                 1.0961         estimate D2E/DX2                !
 ! R20   R(7,8)                  1.4639         estimate D2E/DX2                !
 ! R21   R(7,42)                 1.0901         estimate D2E/DX2                !
 ! R22   R(7,43)                 1.0951         estimate D2E/DX2                !
 ! R23   R(8,9)                  1.3429         estimate D2E/DX2                !
 ! R24   R(9,10)                 1.4667         estimate D2E/DX2                !
 ! R25   R(9,29)                 1.2826         estimate D2E/DX2                !
 ! R26   R(10,11)                1.3852         estimate D2E/DX2                !
 ! R27   R(10,28)                1.3526         estimate D2E/DX2                !
 ! R28   R(11,12)                1.4003         estimate D2E/DX2                !
 ! R29   R(11,44)                1.0836         estimate D2E/DX2                !
 ! R30   R(12,13)                1.387          estimate D2E/DX2                !
 ! R31   R(12,45)                1.0855         estimate D2E/DX2                !
 ! R32   R(13,14)                1.4058         estimate D2E/DX2                !
 ! R33   R(13,46)                1.083          estimate D2E/DX2                !
 ! R34   R(14,15)                1.5209         estimate D2E/DX2                !
 ! R35   R(14,28)                1.3337         estimate D2E/DX2                !
 ! R36   R(15,16)                1.5243         estimate D2E/DX2                !
 ! R37   R(15,22)                1.5286         estimate D2E/DX2                !
 ! R38   R(15,47)                1.0931         estimate D2E/DX2                !
 ! R39   R(16,17)                1.4019         estimate D2E/DX2                !
 ! R40   R(16,21)                1.4017         estimate D2E/DX2                !
 ! R41   R(17,18)                1.3951         estimate D2E/DX2                !
 ! R42   R(17,48)                1.0881         estimate D2E/DX2                !
 ! R43   R(18,19)                1.3951         estimate D2E/DX2                !
 ! R44   R(18,49)                1.0865         estimate D2E/DX2                !
 ! R45   R(19,20)                1.3954         estimate D2E/DX2                !
 ! R46   R(19,50)                1.0865         estimate D2E/DX2                !
 ! R47   R(20,21)                1.3948         estimate D2E/DX2                !
 ! R48   R(20,51)                1.0867         estimate D2E/DX2                !
 ! R49   R(21,52)                1.0853         estimate D2E/DX2                !
 ! R50   R(22,23)                1.406          estimate D2E/DX2                !
 ! R51   R(22,27)                1.3963         estimate D2E/DX2                !
 ! R52   R(23,24)                1.3926         estimate D2E/DX2                !
 ! R53   R(23,53)                1.0903         estimate D2E/DX2                !
 ! R54   R(24,25)                1.3973         estimate D2E/DX2                !
 ! R55   R(24,54)                1.0866         estimate D2E/DX2                !
 ! R56   R(25,26)                1.393          estimate D2E/DX2                !
 ! R57   R(25,55)                1.0866         estimate D2E/DX2                !
 ! R58   R(26,27)                1.3978         estimate D2E/DX2                !
 ! R59   R(26,56)                1.0868         estimate D2E/DX2                !
 ! R60   R(27,57)                1.0833         estimate D2E/DX2                !
 ! R61   R(28,58)                2.0643         estimate D2E/DX2                !
 ! R62   R(29,58)                2.0262         estimate D2E/DX2                !
 ! R63   R(58,59)                1.8414         estimate D2E/DX2                !
 ! R64   R(58,60)                1.8383         estimate D2E/DX2                !
 ! A1    A(2,1,30)             111.4146         estimate D2E/DX2                !
 ! A2    A(2,1,31)             110.6386         estimate D2E/DX2                !
 ! A3    A(2,1,32)             110.8929         estimate D2E/DX2                !
 ! A4    A(30,1,31)            107.8268         estimate D2E/DX2                !
 ! A5    A(30,1,32)            108.1158         estimate D2E/DX2                !
 ! A6    A(31,1,32)            107.8119         estimate D2E/DX2                !
 ! A7    A(1,2,3)              108.9768         estimate D2E/DX2                !
 ! A8    A(1,2,4)              108.9033         estimate D2E/DX2                !
 ! A9    A(1,2,5)              107.2331         estimate D2E/DX2                !
 ! A10   A(3,2,4)              109.4456         estimate D2E/DX2                !
 ! A11   A(3,2,5)              109.963          estimate D2E/DX2                !
 ! A12   A(4,2,5)              112.2423         estimate D2E/DX2                !
 ! A13   A(2,3,33)             111.2975         estimate D2E/DX2                !
 ! A14   A(2,3,34)             110.3636         estimate D2E/DX2                !
 ! A15   A(2,3,35)             112.0372         estimate D2E/DX2                !
 ! A16   A(33,3,34)            107.8097         estimate D2E/DX2                !
 ! A17   A(33,3,35)            108.1059         estimate D2E/DX2                !
 ! A18   A(34,3,35)            107.0338         estimate D2E/DX2                !
 ! A19   A(2,4,36)             111.9153         estimate D2E/DX2                !
 ! A20   A(2,4,37)             112.2834         estimate D2E/DX2                !
 ! A21   A(2,4,38)             109.8564         estimate D2E/DX2                !
 ! A22   A(36,4,37)            108.7621         estimate D2E/DX2                !
 ! A23   A(36,4,38)            107.2149         estimate D2E/DX2                !
 ! A24   A(37,4,38)            106.544          estimate D2E/DX2                !
 ! A25   A(2,5,6)              116.59           estimate D2E/DX2                !
 ! A26   A(2,5,39)             107.7638         estimate D2E/DX2                !
 ! A27   A(2,5,40)             109.7613         estimate D2E/DX2                !
 ! A28   A(6,5,39)             108.113          estimate D2E/DX2                !
 ! A29   A(6,5,40)             107.4888         estimate D2E/DX2                !
 ! A30   A(39,5,40)            106.6979         estimate D2E/DX2                !
 ! A31   A(5,6,7)              114.1385         estimate D2E/DX2                !
 ! A32   A(5,6,29)             112.718          estimate D2E/DX2                !
 ! A33   A(5,6,41)             110.3413         estimate D2E/DX2                !
 ! A34   A(7,6,29)             101.7054         estimate D2E/DX2                !
 ! A35   A(7,6,41)             110.437          estimate D2E/DX2                !
 ! A36   A(29,6,41)            107.0146         estimate D2E/DX2                !
 ! A37   A(6,7,8)              104.6631         estimate D2E/DX2                !
 ! A38   A(6,7,42)             114.3794         estimate D2E/DX2                !
 ! A39   A(6,7,43)             112.3509         estimate D2E/DX2                !
 ! A40   A(8,7,42)             107.7416         estimate D2E/DX2                !
 ! A41   A(8,7,43)             107.2504         estimate D2E/DX2                !
 ! A42   A(42,7,43)            109.9742         estimate D2E/DX2                !
 ! A43   A(7,8,9)              105.0113         estimate D2E/DX2                !
 ! A44   A(8,9,10)             121.1412         estimate D2E/DX2                !
 ! A45   A(8,9,29)             117.8816         estimate D2E/DX2                !
 ! A46   A(10,9,29)            120.9692         estimate D2E/DX2                !
 ! A47   A(9,10,11)            124.9279         estimate D2E/DX2                !
 ! A48   A(9,10,28)            112.3048         estimate D2E/DX2                !
 ! A49   A(11,10,28)           122.7464         estimate D2E/DX2                !
 ! A50   A(10,11,12)           117.3235         estimate D2E/DX2                !
 ! A51   A(10,11,44)           120.4327         estimate D2E/DX2                !
 ! A52   A(12,11,44)           122.231          estimate D2E/DX2                !
 ! A53   A(11,12,13)           119.6357         estimate D2E/DX2                !
 ! A54   A(11,12,45)           120.0904         estimate D2E/DX2                !
 ! A55   A(13,12,45)           120.2736         estimate D2E/DX2                !
 ! A56   A(12,13,14)           119.8161         estimate D2E/DX2                !
 ! A57   A(12,13,46)           120.8919         estimate D2E/DX2                !
 ! A58   A(14,13,46)           119.2916         estimate D2E/DX2                !
 ! A59   A(13,14,15)           123.3476         estimate D2E/DX2                !
 ! A60   A(13,14,28)           119.9327         estimate D2E/DX2                !
 ! A61   A(15,14,28)           116.7124         estimate D2E/DX2                !
 ! A62   A(14,15,16)           108.8529         estimate D2E/DX2                !
 ! A63   A(14,15,22)           110.3058         estimate D2E/DX2                !
 ! A64   A(14,15,47)           105.345          estimate D2E/DX2                !
 ! A65   A(16,15,22)           119.6405         estimate D2E/DX2                !
 ! A66   A(16,15,47)           105.0411         estimate D2E/DX2                !
 ! A67   A(22,15,47)           106.5923         estimate D2E/DX2                !
 ! A68   A(15,16,17)           117.2045         estimate D2E/DX2                !
 ! A69   A(15,16,21)           123.7673         estimate D2E/DX2                !
 ! A70   A(17,16,21)           118.8828         estimate D2E/DX2                !
 ! A71   A(16,17,18)           120.3694         estimate D2E/DX2                !
 ! A72   A(16,17,48)           118.7968         estimate D2E/DX2                !
 ! A73   A(18,17,48)           120.7992         estimate D2E/DX2                !
 ! A74   A(17,18,19)           120.3985         estimate D2E/DX2                !
 ! A75   A(17,18,49)           119.4747         estimate D2E/DX2                !
 ! A76   A(19,18,49)           120.1259         estimate D2E/DX2                !
 ! A77   A(18,19,20)           119.5502         estimate D2E/DX2                !
 ! A78   A(18,19,50)           120.3327         estimate D2E/DX2                !
 ! A79   A(20,19,50)           120.1155         estimate D2E/DX2                !
 ! A80   A(19,20,21)           120.177          estimate D2E/DX2                !
 ! A81   A(19,20,51)           120.1772         estimate D2E/DX2                !
 ! A82   A(21,20,51)           119.6458         estimate D2E/DX2                !
 ! A83   A(16,21,20)           120.5983         estimate D2E/DX2                !
 ! A84   A(16,21,52)           120.4575         estimate D2E/DX2                !
 ! A85   A(20,21,52)           118.9434         estimate D2E/DX2                !
 ! A86   A(15,22,23)           116.5475         estimate D2E/DX2                !
 ! A87   A(15,22,27)           124.2846         estimate D2E/DX2                !
 ! A88   A(23,22,27)           119.144          estimate D2E/DX2                !
 ! A89   A(22,23,24)           120.1776         estimate D2E/DX2                !
 ! A90   A(22,23,53)           120.1435         estimate D2E/DX2                !
 ! A91   A(24,23,53)           119.6208         estimate D2E/DX2                !
 ! A92   A(23,24,25)           120.4569         estimate D2E/DX2                !
 ! A93   A(23,24,54)           119.3629         estimate D2E/DX2                !
 ! A94   A(25,24,54)           120.175          estimate D2E/DX2                !
 ! A95   A(24,25,26)           119.4673         estimate D2E/DX2                !
 ! A96   A(24,25,55)           120.2839         estimate D2E/DX2                !
 ! A97   A(26,25,55)           120.2402         estimate D2E/DX2                !
 ! A98   A(25,26,27)           120.3297         estimate D2E/DX2                !
 ! A99   A(25,26,56)           120.2061         estimate D2E/DX2                !
 ! A100  A(27,26,56)           119.4626         estimate D2E/DX2                !
 ! A101  A(22,27,26)           120.3929         estimate D2E/DX2                !
 ! A102  A(22,27,57)           120.245          estimate D2E/DX2                !
 ! A103  A(26,27,57)           119.3411         estimate D2E/DX2                !
 ! A104  A(10,28,14)           120.4802         estimate D2E/DX2                !
 ! A105  A(10,28,58)           112.9808         estimate D2E/DX2                !
 ! A106  A(14,28,58)           125.6471         estimate D2E/DX2                !
 ! A107  A(6,29,9)             108.4385         estimate D2E/DX2                !
 ! A108  A(6,29,58)            138.6253         estimate D2E/DX2                !
 ! A109  A(9,29,58)            112.3647         estimate D2E/DX2                !
 ! A110  A(28,58,29)            80.5984         estimate D2E/DX2                !
 ! A111  A(28,58,59)            98.9781         estimate D2E/DX2                !
 ! A112  A(28,58,60)           105.2992         estimate D2E/DX2                !
 ! A113  A(29,58,59)            98.5693         estimate D2E/DX2                !
 ! A114  A(29,58,60)           118.7529         estimate D2E/DX2                !
 ! A115  A(59,58,60)           137.9265         estimate D2E/DX2                !
 ! D1    D(30,1,2,3)           -61.2778         estimate D2E/DX2                !
 ! D2    D(30,1,2,4)           179.39           estimate D2E/DX2                !
 ! D3    D(30,1,2,5)            57.7131         estimate D2E/DX2                !
 ! D4    D(31,1,2,3)            58.6634         estimate D2E/DX2                !
 ! D5    D(31,1,2,4)           -60.6688         estimate D2E/DX2                !
 ! D6    D(31,1,2,5)           177.6543         estimate D2E/DX2                !
 ! D7    D(32,1,2,3)           178.2441         estimate D2E/DX2                !
 ! D8    D(32,1,2,4)            58.9119         estimate D2E/DX2                !
 ! D9    D(32,1,2,5)           -62.7651         estimate D2E/DX2                !
 ! D10   D(1,2,3,33)            60.2624         estimate D2E/DX2                !
 ! D11   D(1,2,3,34)           -59.3978         estimate D2E/DX2                !
 ! D12   D(1,2,3,35)          -178.5634         estimate D2E/DX2                !
 ! D13   D(4,2,3,33)           179.2567         estimate D2E/DX2                !
 ! D14   D(4,2,3,34)            59.5965         estimate D2E/DX2                !
 ! D15   D(4,2,3,35)           -59.5691         estimate D2E/DX2                !
 ! D16   D(5,2,3,33)           -57.0101         estimate D2E/DX2                !
 ! D17   D(5,2,3,34)          -176.6703         estimate D2E/DX2                !
 ! D18   D(5,2,3,35)            64.1641         estimate D2E/DX2                !
 ! D19   D(1,2,4,36)           -61.2912         estimate D2E/DX2                !
 ! D20   D(1,2,4,37)           176.0568         estimate D2E/DX2                !
 ! D21   D(1,2,4,38)            57.686          estimate D2E/DX2                !
 ! D22   D(3,2,4,36)           179.6691         estimate D2E/DX2                !
 ! D23   D(3,2,4,37)            57.0171         estimate D2E/DX2                !
 ! D24   D(3,2,4,38)           -61.3537         estimate D2E/DX2                !
 ! D25   D(5,2,4,36)            57.2875         estimate D2E/DX2                !
 ! D26   D(5,2,4,37)           -65.3645         estimate D2E/DX2                !
 ! D27   D(5,2,4,38)           176.2647         estimate D2E/DX2                !
 ! D28   D(1,2,5,6)            174.3749         estimate D2E/DX2                !
 ! D29   D(1,2,5,39)           -63.9281         estimate D2E/DX2                !
 ! D30   D(1,2,5,40)            51.9008         estimate D2E/DX2                !
 ! D31   D(3,2,5,6)            -67.2719         estimate D2E/DX2                !
 ! D32   D(3,2,5,39)            54.4252         estimate D2E/DX2                !
 ! D33   D(3,2,5,40)           170.2541         estimate D2E/DX2                !
 ! D34   D(4,2,5,6)             54.8159         estimate D2E/DX2                !
 ! D35   D(4,2,5,39)           176.5129         estimate D2E/DX2                !
 ! D36   D(4,2,5,40)           -67.6582         estimate D2E/DX2                !
 ! D37   D(2,5,6,7)            156.6419         estimate D2E/DX2                !
 ! D38   D(2,5,6,29)           -87.9769         estimate D2E/DX2                !
 ! D39   D(2,5,6,41)            31.5968         estimate D2E/DX2                !
 ! D40   D(39,5,6,7)            35.1285         estimate D2E/DX2                !
 ! D41   D(39,5,6,29)          150.5098         estimate D2E/DX2                !
 ! D42   D(39,5,6,41)          -89.9165         estimate D2E/DX2                !
 ! D43   D(40,5,6,7)           -79.7074         estimate D2E/DX2                !
 ! D44   D(40,5,6,29)           35.6739         estimate D2E/DX2                !
 ! D45   D(40,5,6,41)          155.2476         estimate D2E/DX2                !
 ! D46   D(5,6,7,8)            136.4034         estimate D2E/DX2                !
 ! D47   D(5,6,7,42)          -105.9253         estimate D2E/DX2                !
 ! D48   D(5,6,7,43)            20.3623         estimate D2E/DX2                !
 ! D49   D(29,6,7,8)            14.7327         estimate D2E/DX2                !
 ! D50   D(29,6,7,42)          132.404          estimate D2E/DX2                !
 ! D51   D(29,6,7,43)         -101.3084         estimate D2E/DX2                !
 ! D52   D(41,6,7,8)           -98.6024         estimate D2E/DX2                !
 ! D53   D(41,6,7,42)           19.0689         estimate D2E/DX2                !
 ! D54   D(41,6,7,43)          145.3565         estimate D2E/DX2                !
 ! D55   D(5,6,29,9)          -133.9063         estimate D2E/DX2                !
 ! D56   D(5,6,29,58)           55.923          estimate D2E/DX2                !
 ! D57   D(7,6,29,9)           -11.2567         estimate D2E/DX2                !
 ! D58   D(7,6,29,58)          178.5726         estimate D2E/DX2                !
 ! D59   D(41,6,29,9)          104.6125         estimate D2E/DX2                !
 ! D60   D(41,6,29,58)         -65.5582         estimate D2E/DX2                !
 ! D61   D(6,7,8,9)            -13.3413         estimate D2E/DX2                !
 ! D62   D(42,7,8,9)          -135.4613         estimate D2E/DX2                !
 ! D63   D(43,7,8,9)           106.1862         estimate D2E/DX2                !
 ! D64   D(7,8,9,10)          -174.0512         estimate D2E/DX2                !
 ! D65   D(7,8,9,29)             6.968          estimate D2E/DX2                !
 ! D66   D(8,9,10,11)           -4.8211         estimate D2E/DX2                !
 ! D67   D(8,9,10,28)          176.8094         estimate D2E/DX2                !
 ! D68   D(29,9,10,11)         174.1283         estimate D2E/DX2                !
 ! D69   D(29,9,10,28)          -4.2412         estimate D2E/DX2                !
 ! D70   D(8,9,29,6)             3.2904         estimate D2E/DX2                !
 ! D71   D(8,9,29,58)          176.2819         estimate D2E/DX2                !
 ! D72   D(10,9,29,6)         -175.6923         estimate D2E/DX2                !
 ! D73   D(10,9,29,58)          -2.7008         estimate D2E/DX2                !
 ! D74   D(9,10,11,12)        -176.4714         estimate D2E/DX2                !
 ! D75   D(9,10,11,44)           2.2553         estimate D2E/DX2                !
 ! D76   D(28,10,11,12)          1.735          estimate D2E/DX2                !
 ! D77   D(28,10,11,44)       -179.5383         estimate D2E/DX2                !
 ! D78   D(9,10,28,14)         178.5453         estimate D2E/DX2                !
 ! D79   D(9,10,28,58)           8.7618         estimate D2E/DX2                !
 ! D80   D(11,10,28,14)          0.1347         estimate D2E/DX2                !
 ! D81   D(11,10,28,58)       -169.6488         estimate D2E/DX2                !
 ! D82   D(10,11,12,13)         -1.3867         estimate D2E/DX2                !
 ! D83   D(10,11,12,45)        178.4222         estimate D2E/DX2                !
 ! D84   D(44,11,12,13)        179.9111         estimate D2E/DX2                !
 ! D85   D(44,11,12,45)         -0.2799         estimate D2E/DX2                !
 ! D86   D(11,12,13,14)         -0.6919         estimate D2E/DX2                !
 ! D87   D(11,12,13,46)        179.0885         estimate D2E/DX2                !
 ! D88   D(45,12,13,14)        179.4995         estimate D2E/DX2                !
 ! D89   D(45,12,13,46)         -0.7201         estimate D2E/DX2                !
 ! D90   D(12,13,14,15)       -176.3854         estimate D2E/DX2                !
 ! D91   D(12,13,14,28)          2.5959         estimate D2E/DX2                !
 ! D92   D(46,13,14,15)          3.8307         estimate D2E/DX2                !
 ! D93   D(46,13,14,28)       -177.1881         estimate D2E/DX2                !
 ! D94   D(13,14,15,16)         69.4905         estimate D2E/DX2                !
 ! D95   D(13,14,15,22)        -63.6329         estimate D2E/DX2                !
 ! D96   D(13,14,15,47)       -178.2958         estimate D2E/DX2                !
 ! D97   D(28,14,15,16)       -109.5212         estimate D2E/DX2                !
 ! D98   D(28,14,15,22)        117.3554         estimate D2E/DX2                !
 ! D99   D(28,14,15,47)          2.6925         estimate D2E/DX2                !
 ! D100  D(13,14,28,10)         -2.3182         estimate D2E/DX2                !
 ! D101  D(13,14,28,58)        166.0897         estimate D2E/DX2                !
 ! D102  D(15,14,28,10)        176.7291         estimate D2E/DX2                !
 ! D103  D(15,14,28,58)        -14.863          estimate D2E/DX2                !
 ! D104  D(14,15,16,17)        100.7186         estimate D2E/DX2                !
 ! D105  D(14,15,16,21)        -74.8384         estimate D2E/DX2                !
 ! D106  D(22,15,16,17)       -131.2416         estimate D2E/DX2                !
 ! D107  D(22,15,16,21)         53.2014         estimate D2E/DX2                !
 ! D108  D(47,15,16,17)        -11.6962         estimate D2E/DX2                !
 ! D109  D(47,15,16,21)        172.7468         estimate D2E/DX2                !
 ! D110  D(14,15,22,23)        -60.5569         estimate D2E/DX2                !
 ! D111  D(14,15,22,27)        121.2389         estimate D2E/DX2                !
 ! D112  D(16,15,22,23)        172.0718         estimate D2E/DX2                !
 ! D113  D(16,15,22,27)         -6.1324         estimate D2E/DX2                !
 ! D114  D(47,15,22,23)         53.3143         estimate D2E/DX2                !
 ! D115  D(47,15,22,27)       -124.8899         estimate D2E/DX2                !
 ! D116  D(15,16,17,18)       -177.4256         estimate D2E/DX2                !
 ! D117  D(15,16,17,48)          0.4534         estimate D2E/DX2                !
 ! D118  D(21,16,17,18)         -1.6434         estimate D2E/DX2                !
 ! D119  D(21,16,17,48)        176.2357         estimate D2E/DX2                !
 ! D120  D(15,16,21,20)        177.1835         estimate D2E/DX2                !
 ! D121  D(15,16,21,52)         -3.1556         estimate D2E/DX2                !
 ! D122  D(17,16,21,20)          1.6965         estimate D2E/DX2                !
 ! D123  D(17,16,21,52)       -178.6426         estimate D2E/DX2                !
 ! D124  D(16,17,18,19)          0.5109         estimate D2E/DX2                !
 ! D125  D(16,17,18,49)       -179.8224         estimate D2E/DX2                !
 ! D126  D(48,17,18,19)       -177.3253         estimate D2E/DX2                !
 ! D127  D(48,17,18,49)          2.3414         estimate D2E/DX2                !
 ! D128  D(17,18,19,20)          0.5959         estimate D2E/DX2                !
 ! D129  D(17,18,19,50)       -179.85           estimate D2E/DX2                !
 ! D130  D(49,18,19,20)       -179.0687         estimate D2E/DX2                !
 ! D131  D(49,18,19,50)          0.4854         estimate D2E/DX2                !
 ! D132  D(18,19,20,21)         -0.5455         estimate D2E/DX2                !
 ! D133  D(18,19,20,51)        179.4462         estimate D2E/DX2                !
 ! D134  D(50,19,20,21)        179.8994         estimate D2E/DX2                !
 ! D135  D(50,19,20,51)         -0.1089         estimate D2E/DX2                !
 ! D136  D(19,20,21,16)         -0.6125         estimate D2E/DX2                !
 ! D137  D(19,20,21,52)        179.7216         estimate D2E/DX2                !
 ! D138  D(51,20,21,16)        179.3958         estimate D2E/DX2                !
 ! D139  D(51,20,21,52)         -0.2702         estimate D2E/DX2                !
 ! D140  D(15,22,23,24)        179.9725         estimate D2E/DX2                !
 ! D141  D(15,22,23,53)         -2.8093         estimate D2E/DX2                !
 ! D142  D(27,22,23,24)         -1.7263         estimate D2E/DX2                !
 ! D143  D(27,22,23,53)        175.4919         estimate D2E/DX2                !
 ! D144  D(15,22,27,26)        179.8796         estimate D2E/DX2                !
 ! D145  D(15,22,27,57)          1.5619         estimate D2E/DX2                !
 ! D146  D(23,22,27,26)          1.7188         estimate D2E/DX2                !
 ! D147  D(23,22,27,57)       -176.5988         estimate D2E/DX2                !
 ! D148  D(22,23,24,25)          0.3367         estimate D2E/DX2                !
 ! D149  D(22,23,24,54)        179.5135         estimate D2E/DX2                !
 ! D150  D(53,23,24,25)       -176.896          estimate D2E/DX2                !
 ! D151  D(53,23,24,54)          2.2808         estimate D2E/DX2                !
 ! D152  D(23,24,25,26)          1.0733         estimate D2E/DX2                !
 ! D153  D(23,24,25,55)       -179.988          estimate D2E/DX2                !
 ! D154  D(54,24,25,26)       -178.0968         estimate D2E/DX2                !
 ! D155  D(54,24,25,55)          0.8418         estimate D2E/DX2                !
 ! D156  D(24,25,26,27)         -1.0832         estimate D2E/DX2                !
 ! D157  D(24,25,26,56)        178.4513         estimate D2E/DX2                !
 ! D158  D(55,25,26,27)        179.9777         estimate D2E/DX2                !
 ! D159  D(55,25,26,56)         -0.4878         estimate D2E/DX2                !
 ! D160  D(25,26,27,22)         -0.321          estimate D2E/DX2                !
 ! D161  D(25,26,27,57)        178.0117         estimate D2E/DX2                !
 ! D162  D(56,26,27,22)       -179.859          estimate D2E/DX2                !
 ! D163  D(56,26,27,57)         -1.5263         estimate D2E/DX2                !
 ! D164  D(10,28,58,29)         -8.1313         estimate D2E/DX2                !
 ! D165  D(10,28,58,59)         89.1504         estimate D2E/DX2                !
 ! D166  D(10,28,58,60)       -125.5315         estimate D2E/DX2                !
 ! D167  D(14,28,58,29)       -177.2893         estimate D2E/DX2                !
 ! D168  D(14,28,58,59)        -80.0075         estimate D2E/DX2                !
 ! D169  D(14,28,58,60)         65.3105         estimate D2E/DX2                !
 ! D170  D(6,29,58,28)         175.6263         estimate D2E/DX2                !
 ! D171  D(6,29,58,59)          77.8666         estimate D2E/DX2                !
 ! D172  D(6,29,58,60)         -82.0041         estimate D2E/DX2                !
 ! D173  D(9,29,58,28)           5.712          estimate D2E/DX2                !
 ! D174  D(9,29,58,59)         -92.0476         estimate D2E/DX2                !
 ! D175  D(9,29,58,60)         108.0817         estimate D2E/DX2                !
 --------------------------------------------------------------------------------
 Trust Radius=3.00D-01 FncErr=1.00D-07 GrdErr=1.00D-06 EigMax=2.50D+02 EigMin=1.00D-04
 Number of steps in this run=    360 maximum allowed number of steps=    360.
 GradGradGradGradGradGradGradGradGradGradGradGradGradGradGradGradGradGrad

 Stoichiometry    C26H28F2N2NiO(3)
 Framework group  C1[X(C26H28F2N2NiO)]
 Deg. of freedom   174
 Full point group                 C1      NOp   1
 Largest Abelian subgroup         C1      NOp   1
 Largest concise Abelian subgroup C1      NOp   1
                         Standard orientation:                         
 ---------------------------------------------------------------------
 Center     Atomic      Atomic             Coordinates (Angstroms)
 Number     Number       Type             X           Y           Z
 ---------------------------------------------------------------------
      1          6           0        5.474758    1.284416   -2.292641
      2          6           0        4.876574    0.156898   -1.433095
      3          6           0        5.911962   -0.974075   -1.300090
      4          6           0        3.614124   -0.383354   -2.127791
      5          6           0        4.567298    0.757316   -0.039229
      6          6           0        3.836136   -0.154008    0.953747
      7          6           0        4.046731    0.230471    2.440499
      8          8           0        2.716747    0.124019    3.042742
      9          6           0        1.870316    0.038024    2.003741
     10          6           0        0.417652    0.046504    2.206103
     11          6           0       -0.211173    0.044561    3.440313
     12          6           0       -1.609769   -0.022931    3.448977
     13          6           0       -2.302323   -0.054965    2.247687
     14          6           0       -1.597011   -0.004791    1.032712
     15          6           0       -2.276502    0.045320   -0.326998
     16          6           0       -2.954288    1.400992   -0.489277
     17          6           0       -2.288761    2.361699   -1.263577
     18          6           0       -2.823077    3.641855   -1.411497
     19          6           0       -4.020164    3.984220   -0.782168
     20          6           0       -4.676273    3.040336    0.008877
     21          6           0       -4.143908    1.759920    0.159439
     22          6           0       -3.077823   -1.234063   -0.567037
     23          6           0       -2.352695   -2.438624   -0.569161
     24          6           0       -3.007416   -3.649465   -0.780066
     25          6           0       -4.387219   -3.679952   -0.998269
     26          6           0       -5.103151   -2.485379   -1.025945
     27          6           0       -4.451580   -1.266903   -0.814667
     28          7           0       -0.263547    0.021059    1.037871
     29          7           0        2.372339   -0.072002    0.828657
     30          1           0        6.374236    1.708009   -1.828280
     31          1           0        5.754055    0.908220   -3.283216
     32          1           0        4.750192    2.094752   -2.433759
     33          1           0        6.831776   -0.617849   -0.819222
     34          1           0        6.179794   -1.363894   -2.288299
     35          1           0        5.526713   -1.817815   -0.715637
     36          1           0        2.845070    0.390287   -2.238406
     37          1           0        3.180112   -1.238759   -1.595370
     38          1           0        3.865626   -0.737229   -3.134676
     39          1           0        5.521612    1.061054    0.414415
     40          1           0        3.967738    1.669431   -0.152858
     41          1           0        4.114219   -1.200892    0.786064
     42          1           0        4.713436   -0.436225    2.987586
     43          1           0        4.375106    1.268373    2.559757
     44          1           0        0.371721    0.073059    4.353353
     45          1           0       -2.147354   -0.053089    4.391537
     46          1           0       -3.383101   -0.121893    2.230570
     47          1           0       -1.462960    0.045699   -1.057092
     48          1           0       -1.334094    2.100753   -1.715807
     49          1           0       -2.296565    4.374218   -2.017305
     50          1           0       -4.436614    4.980843   -0.900079
     51          1           0       -5.604631    3.298930    0.511008
     52          1           0       -4.668388    1.043030    0.782994
     53          1           0       -1.268916   -2.425473   -0.450888
     54          1           0       -2.432876   -4.571690   -0.786934
     55          1           0       -4.895266   -4.626366   -1.162340
     56          1           0       -6.172488   -2.493171   -1.219687
     57          1           0       -5.017908   -0.345220   -0.871794
     58         28           0        0.952500   -0.309755   -0.597141
     59          9           0        0.899284   -2.150109   -0.627174
     60          9           0        0.610685    1.084151   -1.745810
 ---------------------------------------------------------------------
 Rotational constants (GHZ):           0.1960024           0.0831186           0.0804568
 General basis read from cards:  (6D, 7F)
 ======================================================================================================
                                       Pseudopotential Parameters
 ======================================================================================================
  Center     Atomic      Valence      Angular      Power
  Number     Number     Electrons     Momentum     of R      Exponent        Coefficient   SO-Coeffient
 ======================================================================================================
    1          6
                                   No pseudopotential on this center.
    2          6
                                   No pseudopotential on this center.
    3          6
                                   No pseudopotential on this center.
    4          6
                                   No pseudopotential on this center.
    5          6
                                   No pseudopotential on this center.
    6          6
                                   No pseudopotential on this center.
    7          6
                                   No pseudopotential on this center.
    8          8
                                   No pseudopotential on this center.
    9          6
                                   No pseudopotential on this center.
   10          6
                                   No pseudopotential on this center.
   11          6
                                   No pseudopotential on this center.
   12          6
                                   No pseudopotential on this center.
   13          6
                                   No pseudopotential on this center.
   14          6
                                   No pseudopotential on this center.
   15          6
                                   No pseudopotential on this center.
   16          6
                                   No pseudopotential on this center.
   17          6
                                   No pseudopotential on this center.
   18          6
                                   No pseudopotential on this center.
   19          6
                                   No pseudopotential on this center.
   20          6
                                   No pseudopotential on this center.
   21          6
                                   No pseudopotential on this center.
   22          6
                                   No pseudopotential on this center.
   23          6
                                   No pseudopotential on this center.
   24          6
                                   No pseudopotential on this center.
   25          6
                                   No pseudopotential on this center.
   26          6
                                   No pseudopotential on this center.
   27          6
                                   No pseudopotential on this center.
   28          7
                                   No pseudopotential on this center.
   29          7
                                   No pseudopotential on this center.
   30          1
                                   No pseudopotential on this center.
   31          1
                                   No pseudopotential on this center.
   32          1
                                   No pseudopotential on this center.
   33          1
                                   No pseudopotential on this center.
   34          1
                                   No pseudopotential on this center.
   35          1
                                   No pseudopotential on this center.
   36          1
                                   No pseudopotential on this center.
   37          1
                                   No pseudopotential on this center.
   38          1
                                   No pseudopotential on this center.
   39          1
                                   No pseudopotential on this center.
   40          1
                                   No pseudopotential on this center.
   41          1
                                   No pseudopotential on this center.
   42          1
                                   No pseudopotential on this center.
   43          1
                                   No pseudopotential on this center.
   44          1
                                   No pseudopotential on this center.
   45          1
                                   No pseudopotential on this center.
   46          1
                                   No pseudopotential on this center.
   47          1
                                   No pseudopotential on this center.
   48          1
                                   No pseudopotential on this center.
   49          1
                                   No pseudopotential on this center.
   50          1
                                   No pseudopotential on this center.
   51          1
                                   No pseudopotential on this center.
   52          1
                                   No pseudopotential on this center.
   53          1
                                   No pseudopotential on this center.
   54          1
                                   No pseudopotential on this center.
   55          1
                                   No pseudopotential on this center.
   56          1
                                   No pseudopotential on this center.
   57          1
                                   No pseudopotential on this center.
   58         28           18
                                      D and up 
                                                     1      469.9324331      -10.00000000    0.00000000
                                                     2       85.4236411      -69.40848050    0.00000000
                                                     2       21.2674984      -12.09510200    0.00000000
                                      S - D
                                                     0      162.1686097        3.00000000    0.00000000
                                                     1      176.5333232       22.02536180    0.00000000
                                                     2       68.9562010      443.01810880    0.00000000
                                                     2       13.5792838      145.56964110    0.00000000
                                      P - D
                                                     0       69.0181506        5.00000000    0.00000000
                                                     1      275.5955596        4.98828240    0.00000000
                                                     2       47.1315453      256.69458530    0.00000000
                                                     2       12.9874075       78.47544500    0.00000000
   59          9
                                   No pseudopotential on this center.
   60          9
                                   No pseudopotential on this center.
 ======================================================================================================
 There are   598 symmetry adapted cartesian basis functions of A   symmetry.
 There are   595 symmetry adapted basis functions of A   symmetry.
   595 basis functions,  1134 primitive gaussians,   598 cartesian basis functions
   122 alpha electrons      120 beta electrons
       nuclear repulsion energy      3617.9227642778 Hartrees.
 NAtoms=   60 NActive=   60 NUniq=   60 SFac= 1.00D+00 NAtFMM=   60 NAOKFM=T Big=T
 Integral buffers will be    131072 words long.
 Raffenetti 2 integral format.
 Two-electron integral symmetry is turned on.
 Nuclear repulsion after empirical dispersion term =     3617.7743646307 Hartrees.
 One-electron integrals computed using PRISM.
 PrsmSu:  requested number of processors reduced to:  12 ShMem   1 Linda.
   1 Symmetry operations used in ECPInt.
 ECPInt:  NShTT=   20301 NPrTT=  123456 LenC2=   16498 LenP2D=   54025.
 LDataN:  DoStor=T MaxTD1= 6 Len=  172
 Number of processors reduced to  12 by ecpmxn.
 NBasis=   595 RedAO= T EigKep=  6.98D-06  NBF=   595
 NBsUse=   594 1.00D-06 EigRej=  9.99D-07 NBFU=   594
 ExpMin= 2.40D-02 ExpMax= 7.14D+04 ExpMxC= 1.07D+04 IAcc=3 IRadAn=         5 AccDes= 0.00D+00
 Harris functional with IExCor=  402 and IRadAn=       5 diagonalized for initial guess.
 HarFok:  IExCor=  402 AccDes= 0.00D+00 IRadAn=         5 IDoV= 1 UseB2=F ITyADJ=14
 ICtDFT=  3500011 ScaDFX=  1.000000  1.000000  1.000000  1.000000
 FoFCou: FMM=F IPFlag=           0 FMFlag=      100000 FMFlg1=        2001
         NFxFlg=           0 DoJE=T BraDBF=F KetDBF=T FulRan=T
         wScrn=  0.000000 ICntrl=       500 IOpCl=  0 I1Cent=   200000004 NGrid=           0
         NMat0=    1 NMatS0=      1 NMatT0=    0 NMatD0=    1 NMtDS0=    0 NMtDT0=    0
 Petite list used in FoFCou.
 Initial guess <Sx>= 0.0000 <Sy>= 0.0000 <Sz>= 1.0000 <S**2>= 2.0000 S= 1.0000
 Requested convergence on RMS density matrix=1.00D-08 within 128 cycles.
 Requested convergence on MAX density matrix=1.00D-06.
 Requested convergence on             energy=1.00D-06.
 No special actions if energy rises.
 EnCoef did   100 forward-backward iterations
 Restarting incremental Fock formation.
 SCF Done:  E(UB3LYP) =  -1561.66350222     A.U. after   35 cycles
            NFock= 35  Conv=0.57D-08     -V/T= 2.0505
 <Sx>= 0.0000 <Sy>= 0.0000 <Sz>= 1.0000 <S**2>= 2.0062 S= 1.0021
 <L.S>=  0.00000000000    
 Annihilation of the first spin contaminant:
 S**2 before annihilation     2.0062,   after     2.0000

 **********************************************************************

            Population analysis using the SCF Density.

 **********************************************************************

 Orbital symmetries:
 Alpha Orbitals:
       Occupied  (A) (A) (A) (A) (A) (A) (A) (A) (A) (A) (A) (A)
                 (A) (A) (A) (A) (A) (A) (A) (A) (A) (A) (A) (A)
                 (A) (A) (A) (A) (A) (A) (A) (A) (A) (A) (A) (A)
                 (A) (A) (A) (A) (A) (A) (A) (A) (A) (A) (A) (A)
                 (A) (A) (A) (A) (A) (A) (A) (A) (A) (A) (A) (A)
                 (A) (A) (A) (A) (A) (A) (A) (A) (A) (A) (A) (A)
                 (A) (A) (A) (A) (A) (A) (A) (A) (A) (A) (A) (A)
                 (A) (A) (A) (A) (A) (A) (A) (A) (A) (A) (A) (A)
                 (A) (A) (A) (A) (A) (A) (A) (A) (A) (A) (A) (A)
                 (A) (A) (A) (A) (A) (A) (A) (A) (A) (A) (A) (A)
                 (A) (A)
       Virtual   (A) (A) (A) (A) (A) (A) (A) (A) (A) (A) (A) (A)
                 (A) (A) (A) (A) (A) (A) (A) (A) (A) (A) (A) (A)
                 (A) (A) (A) (A) (A) (A) (A) (A) (A) (A) (A) (A)
                 (A) (A) (A) (A) (A) (A) (A) (A) (A) (A) (A) (A)
                 (A) (A) (A) (A) (A) (A) (A) (A) (A) (A) (A) (A)
                 (A) (A) (A) (A) (A) (A) (A) (A) (A) (A) (A) (A)
                 (A) (A) (A) (A) (A) (A) (A) (A) (A) (A) (A) (A)
                 (A) (A) (A) (A) (A) (A) (A) (A) (A) (A) (A) (A)
                 (A) (A) (A) (A) (A) (A) (A) (A) (A) (A) (A) (A)
                 (A) (A) (A) (A) (A) (A) (A) (A) (A) (A) (A) (A)
                 (A) (A) (A) (A) (A) (A) (A) (A) (A) (A) (A) (A)
                 (A) (A) (A) (A) (A) (A) (A) (A) (A) (A) (A) (A)
                 (A) (A) (A) (A) (A) (A) (A) (A) (A) (A) (A) (A)
                 (A) (A) (A) (A) (A) (A) (A) (A) (A) (A) (A) (A)
                 (A) (A) (A) (A) (A) (A) (A) (A) (A) (A) (A) (A)
                 (A) (A) (A) (A) (A) (A) (A) (A) (A) (A) (A) (A)
                 (A) (A) (A) (A) (A) (A) (A) (A) (A) (A) (A) (A)
                 (A) (A) (A) (A) (A) (A) (A) (A) (A) (A) (A) (A)
                 (A) (A) (A) (A) (A) (A) (A) (A) (A) (A) (A) (A)
                 (A) (A) (A) (A) (A) (A) (A) (A) (A) (A) (A) (A)
                 (A) (A) (A) (A) (A) (A) (A) (A) (A) (A) (A) (A)
                 (A) (A) (A) (A) (A) (A) (A) (A) (A) (A) (A) (A)
                 (A) (A) (A) (A) (A) (A) (A) (A) (A) (A) (A) (A)
                 (A) (A) (A) (A) (A) (A) (A) (A) (A) (A) (A) (A)
                 (A) (A) (A) (A) (A) (A) (A) (A) (A) (A) (A) (A)
                 (A) (A) (A) (A) (A) (A) (A) (A) (A) (A) (A) (A)
                 (A) (A) (A) (A) (A) (A) (A) (A) (A) (A) (A) (A)
                 (A) (A) (A) (A) (A) (A) (A) (A) (A) (A) (A) (A)
                 (A) (A) (A) (A) (A) (A) (A) (A) (A) (A) (A) (A)
                 (A) (A) (A) (A) (A) (A) (A) (A) (A) (A) (A) (A)
                 (A) (A) (A) (A) (A) (A) (A) (A) (A) (A) (A) (A)
                 (A) (A) (A) (A) (A) (A) (A) (A) (A) (A) (A) (A)
                 (A) (A) (A) (A) (A) (A) (A) (A) (A) (A) (A) (A)
                 (A) (A) (A) (A) (A) (A) (A) (A) (A) (A) (A) (A)
                 (A) (A) (A) (A) (A) (A) (A) (A) (A) (A) (A) (A)
                 (A) (A) (A) (A) (A) (A) (A) (A) (A) (A) (A) (A)
                 (A) (A) (A) (A) (A) (A) (A) (A) (A) (A) (A) (A)
                 (A) (A) (A) (A) (A) (A) (A) (A) (A) (A) (A) (A)
                 (A) (A) (A) (A) (A) (A) (A) (A) (A) (A) (A) (A)
                 (A) (A) (A) (A)
 Beta  Orbitals:
       Occupied  (A) (A) (A) (A) (A) (A) (A) (A) (A) (A) (A) (A)
                 (A) (A) (A) (A) (A) (A) (A) (A) (A) (A) (A) (A)
                 (A) (A) (A) (A) (A) (A) (A) (A) (A) (A) (A) (A)
                 (A) (A) (A) (A) (A) (A) (A) (A) (A) (A) (A) (A)
                 (A) (A) (A) (A) (A) (A) (A) (A) (A) (A) (A) (A)
                 (A) (A) (A) (A) (A) (A) (A) (A) (A) (A) (A) (A)
                 (A) (A) (A) (A) (A) (A) (A) (A) (A) (A) (A) (A)
                 (A) (A) (A) (A) (A) (A) (A) (A) (A) (A) (A) (A)
                 (A) (A) (A) (A) (A) (A) (A) (A) (A) (A) (A) (A)
                 (A) (A) (A) (A) (A) (A) (A) (A) (A) (A) (A) (A)
       Virtual   (A) (A) (A) (A) (A) (A) (A) (A) (A) (A) (A) (A)
                 (A) (A) (A) (A) (A) (A) (A) (A) (A) (A) (A) (A)
                 (A) (A) (A) (A) (A) (A) (A) (A) (A) (A) (A) (A)
                 (A) (A) (A) (A) (A) (A) (A) (A) (A) (A) (A) (A)
                 (A) (A) (A) (A) (A) (A) (A) (A) (A) (A) (A) (A)
                 (A) (A) (A) (A) (A) (A) (A) (A) (A) (A) (A) (A)
                 (A) (A) (A) (A) (A) (A) (A) (A) (A) (A) (A) (A)
                 (A) (A) (A) (A) (A) (A) (A) (A) (A) (A) (A) (A)
                 (A) (A) (A) (A) (A) (A) (A) (A) (A) (A) (A) (A)
                 (A) (A) (A) (A) (A) (A) (A) (A) (A) (A) (A) (A)
                 (A) (A) (A) (A) (A) (A) (A) (A) (A) (A) (A) (A)
                 (A) (A) (A) (A) (A) (A) (A) (A) (A) (A) (A) (A)
                 (A) (A) (A) (A) (A) (A) (A) (A) (A) (A) (A) (A)
                 (A) (A) (A) (A) (A) (A) (A) (A) (A) (A) (A) (A)
                 (A) (A) (A) (A) (A) (A) (A) (A) (A) (A) (A) (A)
                 (A) (A) (A) (A) (A) (A) (A) (A) (A) (A) (A) (A)
                 (A) (A) (A) (A) (A) (A) (A) (A) (A) (A) (A) (A)
                 (A) (A) (A) (A) (A) (A) (A) (A) (A) (A) (A) (A)
                 (A) (A) (A) (A) (A) (A) (A) (A) (A) (A) (A) (A)
                 (A) (A) (A) (A) (A) (A) (A) (A) (A) (A) (A) (A)
                 (A) (A) (A) (A) (A) (A) (A) (A) (A) (A) (A) (A)
                 (A) (A) (A) (A) (A) (A) (A) (A) (A) (A) (A) (A)
                 (A) (A) (A) (A) (A) (A) (A) (A) (A) (A) (A) (A)
                 (A) (A) (A) (A) (A) (A) (A) (A) (A) (A) (A) (A)
                 (A) (A) (A) (A) (A) (A) (A) (A) (A) (A) (A) (A)
                 (A) (A) (A) (A) (A) (A) (A) (A) (A) (A) (A) (A)
                 (A) (A) (A) (A) (A) (A) (A) (A) (A) (A) (A) (A)
                 (A) (A) (A) (A) (A) (A) (A) (A) (A) (A) (A) (A)
                 (A) (A) (A) (A) (A) (A) (A) (A) (A) (A) (A) (A)
                 (A) (A) (A) (A) (A) (A) (A) (A) (A) (A) (A) (A)
                 (A) (A) (A) (A) (A) (A) (A) (A) (A) (A) (A) (A)
                 (A) (A) (A) (A) (A) (A) (A) (A) (A) (A) (A) (A)
                 (A) (A) (A) (A) (A) (A) (A) (A) (A) (A) (A) (A)
                 (A) (A) (A) (A) (A) (A) (A) (A) (A) (A) (A) (A)
                 (A) (A) (A) (A) (A) (A) (A) (A) (A) (A) (A) (A)
                 (A) (A) (A) (A) (A) (A) (A) (A) (A) (A) (A) (A)
                 (A) (A) (A) (A) (A) (A) (A) (A) (A) (A) (A) (A)
                 (A) (A) (A) (A) (A) (A) (A) (A) (A) (A) (A) (A)
                 (A) (A) (A) (A) (A) (A) (A) (A) (A) (A) (A) (A)
                 (A) (A) (A) (A) (A) (A)
 The electronic state is 3-A.
 Alpha  occ. eigenvalues --  -24.56635 -24.55410 -19.22596 -14.38608 -14.36903
 Alpha  occ. eigenvalues --  -10.32061 -10.27587 -10.27274 -10.26390 -10.25094
 Alpha  occ. eigenvalues --  -10.23948 -10.23546 -10.22832 -10.20502 -10.20098
 Alpha  occ. eigenvalues --  -10.19806 -10.19446 -10.19078 -10.18691 -10.18628
 Alpha  occ. eigenvalues --  -10.18427 -10.18120 -10.17980 -10.17825 -10.17783
 Alpha  occ. eigenvalues --  -10.17604 -10.17599 -10.17344 -10.17208 -10.16911
 Alpha  occ. eigenvalues --  -10.16076  -4.09828  -2.70769  -2.70310  -2.69187
 Alpha  occ. eigenvalues --   -1.13093  -1.02374  -1.01135  -0.99600  -0.94835
 Alpha  occ. eigenvalues --   -0.86342  -0.84289  -0.84014  -0.83855  -0.82224
 Alpha  occ. eigenvalues --   -0.79530  -0.76844  -0.73808  -0.73542  -0.72964
 Alpha  occ. eigenvalues --   -0.71427  -0.69485  -0.68617  -0.68540  -0.67850
 Alpha  occ. eigenvalues --   -0.65146  -0.62736  -0.60896  -0.60018  -0.59596
 Alpha  occ. eigenvalues --   -0.58381  -0.57075  -0.55269  -0.54751  -0.52924
 Alpha  occ. eigenvalues --   -0.52701  -0.51248  -0.50924  -0.50036  -0.48341
 Alpha  occ. eigenvalues --   -0.47717  -0.46295  -0.45996  -0.45726  -0.45288
 Alpha  occ. eigenvalues --   -0.44929  -0.44649  -0.44304  -0.43498  -0.43017
 Alpha  occ. eigenvalues --   -0.42733  -0.41729  -0.41407  -0.41066  -0.40698
 Alpha  occ. eigenvalues --   -0.40584  -0.40382  -0.39914  -0.39764  -0.39443
 Alpha  occ. eigenvalues --   -0.39041  -0.38142  -0.37781  -0.36842  -0.36696
 Alpha  occ. eigenvalues --   -0.36502  -0.36320  -0.35592  -0.35147  -0.34656
 Alpha  occ. eigenvalues --   -0.34365  -0.33931  -0.33479  -0.33176  -0.32565
 Alpha  occ. eigenvalues --   -0.32322  -0.32168  -0.32014  -0.31920  -0.30191
 Alpha  occ. eigenvalues --   -0.29767  -0.29434  -0.28688  -0.27539  -0.26436
 Alpha  occ. eigenvalues --   -0.25364  -0.24390  -0.24315  -0.24237  -0.23790
 Alpha  occ. eigenvalues --   -0.23711  -0.23058
 Alpha virt. eigenvalues --   -0.08604  -0.05159  -0.00124   0.00414   0.00995
 Alpha virt. eigenvalues --    0.01315   0.01730   0.02560   0.03096   0.03259
 Alpha virt. eigenvalues --    0.04177   0.07322   0.07823   0.09392   0.09867
 Alpha virt. eigenvalues --    0.10437   0.10650   0.11074   0.11588   0.12216
 Alpha virt. eigenvalues --    0.12699   0.12847   0.13539   0.13732   0.14353
 Alpha virt. eigenvalues --    0.14690   0.14855   0.15719   0.15767   0.16095
 Alpha virt. eigenvalues --    0.16756   0.16973   0.17073   0.17260   0.17821
 Alpha virt. eigenvalues --    0.18167   0.18430   0.18927   0.19235   0.19922
 Alpha virt. eigenvalues --    0.20400   0.20727   0.21065   0.21622   0.22037
 Alpha virt. eigenvalues --    0.22642   0.23178   0.23578   0.24112   0.24607
 Alpha virt. eigenvalues --    0.24799   0.25300   0.25964   0.26212   0.26546
 Alpha virt. eigenvalues --    0.26908   0.27544   0.28500   0.29149   0.29262
 Alpha virt. eigenvalues --    0.29566   0.30301   0.31328   0.31488   0.32152
 Alpha virt. eigenvalues --    0.32616   0.32907   0.33405   0.34459   0.35438
 Alpha virt. eigenvalues --    0.36216   0.37329   0.37591   0.38358   0.39704
 Alpha virt. eigenvalues --    0.43590   0.45307   0.46210   0.47953   0.48064
 Alpha virt. eigenvalues --    0.48818   0.48997   0.49818   0.50403   0.51716
 Alpha virt. eigenvalues --    0.51787   0.52282   0.52549   0.53603   0.53973
 Alpha virt. eigenvalues --    0.54586   0.54731   0.55372   0.55758   0.56056
 Alpha virt. eigenvalues --    0.56174   0.57142   0.58033   0.58298   0.58439
 Alpha virt. eigenvalues --    0.58683   0.59138   0.59446   0.59724   0.60258
 Alpha virt. eigenvalues --    0.60582   0.61018   0.61195   0.61353   0.61442
 Alpha virt. eigenvalues --    0.62131   0.62201   0.62341   0.62979   0.63465
 Alpha virt. eigenvalues --    0.64015   0.64187   0.64621   0.65258   0.65698
 Alpha virt. eigenvalues --    0.66178   0.66729   0.67139   0.67461   0.67815
 Alpha virt. eigenvalues --    0.68331   0.69787   0.70270   0.71066   0.71850
 Alpha virt. eigenvalues --    0.72304   0.73115   0.74094   0.74279   0.75257
 Alpha virt. eigenvalues --    0.76312   0.77541   0.78380   0.78429   0.79415
 Alpha virt. eigenvalues --    0.79899   0.80438   0.80677   0.81296   0.82506
 Alpha virt. eigenvalues --    0.82733   0.83857   0.84182   0.84535   0.84892
 Alpha virt. eigenvalues --    0.85058   0.85445   0.86009   0.86725   0.87293
 Alpha virt. eigenvalues --    0.87572   0.88038   0.88393   0.88791   0.89411
 Alpha virt. eigenvalues --    0.89703   0.90131   0.90623   0.91036   0.91282
 Alpha virt. eigenvalues --    0.91330   0.91767   0.92723   0.92944   0.94073
 Alpha virt. eigenvalues --    0.94494   0.94513   0.95002   0.95407   0.95864
 Alpha virt. eigenvalues --    0.96396   0.96786   0.97114   0.97892   0.98549
 Alpha virt. eigenvalues --    0.99309   0.99519   1.00050   1.00331   1.01027
 Alpha virt. eigenvalues --    1.01137   1.01570   1.02850   1.05214   1.05695
 Alpha virt. eigenvalues --    1.06148   1.06768   1.07154   1.08210   1.09233
 Alpha virt. eigenvalues --    1.10837   1.11191   1.13613   1.14207   1.14869
 Alpha virt. eigenvalues --    1.15071   1.15324   1.16861   1.17077   1.18288
 Alpha virt. eigenvalues --    1.19810   1.19996   1.21667   1.22591   1.23767
 Alpha virt. eigenvalues --    1.24544   1.26538   1.26769   1.28202   1.28565
 Alpha virt. eigenvalues --    1.30175   1.31270   1.33725   1.35416   1.36488
 Alpha virt. eigenvalues --    1.38230   1.39873   1.41069   1.41460   1.42106
 Alpha virt. eigenvalues --    1.42887   1.44092   1.44382   1.44642   1.45265
 Alpha virt. eigenvalues --    1.45908   1.46326   1.46597   1.46972   1.48196
 Alpha virt. eigenvalues --    1.48889   1.49629   1.49882   1.50784   1.51117
 Alpha virt. eigenvalues --    1.52136   1.52471   1.52586   1.53351   1.53543
 Alpha virt. eigenvalues --    1.54087   1.55359   1.57537   1.58169   1.59054
 Alpha virt. eigenvalues --    1.60760   1.61858   1.63001   1.66933   1.67789
 Alpha virt. eigenvalues --    1.68333   1.70399   1.71766   1.72374   1.73411
 Alpha virt. eigenvalues --    1.73997   1.74721   1.76551   1.77107   1.77972
 Alpha virt. eigenvalues --    1.78295   1.79600   1.80071   1.80690   1.82193
 Alpha virt. eigenvalues --    1.82849   1.83592   1.84049   1.84428   1.85162
 Alpha virt. eigenvalues --    1.85550   1.86426   1.87766   1.88461   1.89321
 Alpha virt. eigenvalues --    1.89890   1.90200   1.91031   1.91580   1.91737
 Alpha virt. eigenvalues --    1.92377   1.92719   1.93776   1.94134   1.95544
 Alpha virt. eigenvalues --    1.95632   1.96631   1.97522   1.98905   1.99196
 Alpha virt. eigenvalues --    1.99582   1.99659   2.01369   2.02919   2.03904
 Alpha virt. eigenvalues --    2.05240   2.06144   2.06395   2.06963   2.07227
 Alpha virt. eigenvalues --    2.07544   2.08073   2.09106   2.09222   2.10410
 Alpha virt. eigenvalues --    2.11158   2.11500   2.11891   2.13155   2.14076
 Alpha virt. eigenvalues --    2.14994   2.15424   2.15772   2.16204   2.16346
 Alpha virt. eigenvalues --    2.16555   2.17281   2.17611   2.18303   2.18473
 Alpha virt. eigenvalues --    2.19285   2.19888   2.20904   2.22533   2.24397
 Alpha virt. eigenvalues --    2.24940   2.25480   2.25894   2.26412   2.26769
 Alpha virt. eigenvalues --    2.26867   2.27623   2.28370   2.28853   2.31147
 Alpha virt. eigenvalues --    2.31456   2.31754   2.31988   2.32638   2.33134
 Alpha virt. eigenvalues --    2.34059   2.35444   2.36610   2.37189   2.40332
 Alpha virt. eigenvalues --    2.41888   2.43417   2.46136   2.47192   2.49012
 Alpha virt. eigenvalues --    2.49834   2.50644   2.51791   2.52872   2.55324
 Alpha virt. eigenvalues --    2.55959   2.56817   2.57535   2.58606   2.58783
 Alpha virt. eigenvalues --    2.60124   2.60330   2.60899   2.61767   2.63684
 Alpha virt. eigenvalues --    2.64187   2.64951   2.65894   2.66533   2.67355
 Alpha virt. eigenvalues --    2.68134   2.69601   2.71245   2.72142   2.72425
 Alpha virt. eigenvalues --    2.73207   2.73633   2.74124   2.74612   2.75437
 Alpha virt. eigenvalues --    2.75953   2.76646   2.77609   2.78688   2.78910
 Alpha virt. eigenvalues --    2.79313   2.80499   2.82006   2.82559   2.84692
 Alpha virt. eigenvalues --    2.86445   2.90133   2.92556   2.94447   2.96903
 Alpha virt. eigenvalues --    3.00804   3.05300   3.06568   3.11407   3.15177
 Alpha virt. eigenvalues --    3.26631   3.34649   3.41138   3.43295   3.43504
 Alpha virt. eigenvalues --    3.50150   3.58536   3.78166   3.97591   4.07655
 Alpha virt. eigenvalues --    4.10238   4.10510   4.11555   4.13353   4.13700
 Alpha virt. eigenvalues --    4.14198   4.16097   4.17145   4.18381   4.21158
 Alpha virt. eigenvalues --    4.26150   4.26926   4.31440   4.34455   4.34626
 Alpha virt. eigenvalues --    4.35414   4.36246   4.37370   4.38810   4.44646
 Alpha virt. eigenvalues --    4.49541   4.52213   4.55584   4.62747   4.68768
 Alpha virt. eigenvalues --    4.72522   4.74774   4.77102   4.79720   4.87475
 Alpha virt. eigenvalues --    4.94237   5.94482   6.05125   6.07678   6.12679
 Alpha virt. eigenvalues --    6.29705  11.08148  17.58262  17.90711  17.99808
 Alpha virt. eigenvalues --   18.20258  18.82785  22.81646  23.00511  23.06770
 Alpha virt. eigenvalues --   26.05246  56.86258 118.91503 119.01287 119.03475
 Alpha virt. eigenvalues --  134.89904 379.79273 927.28705 927.42970 928.34644
 Alpha virt. eigenvalues -- 1460.67031**********
  Beta  occ. eigenvalues --  -24.56395 -24.55182 -19.22597 -14.38400 -14.36724
  Beta  occ. eigenvalues --  -10.32076 -10.27579 -10.27280 -10.26400 -10.25086
  Beta  occ. eigenvalues --  -10.23955 -10.23540 -10.22823 -10.20495 -10.20097
  Beta  occ. eigenvalues --  -10.19805 -10.19447 -10.19079 -10.18690 -10.18628
  Beta  occ. eigenvalues --  -10.18426 -10.18120 -10.17980 -10.17825 -10.17783
  Beta  occ. eigenvalues --  -10.17604 -10.17599 -10.17344 -10.17208 -10.16912
  Beta  occ. eigenvalues --  -10.16068  -3.98891  -2.58912  -2.58756  -2.57935
  Beta  occ. eigenvalues --   -1.13072  -1.01783  -1.00561  -0.99393  -0.94643
  Beta  occ. eigenvalues --   -0.86335  -0.84280  -0.84009  -0.83795  -0.82208
  Beta  occ. eigenvalues --   -0.79509  -0.76826  -0.73808  -0.73542  -0.72964
  Beta  occ. eigenvalues --   -0.71413  -0.69457  -0.68610  -0.68509  -0.67829
  Beta  occ. eigenvalues --   -0.65086  -0.62684  -0.60821  -0.59991  -0.59590
  Beta  occ. eigenvalues --   -0.58379  -0.56976  -0.55204  -0.54696  -0.52793
  Beta  occ. eigenvalues --   -0.52629  -0.51195  -0.50913  -0.50009  -0.48288
  Beta  occ. eigenvalues --   -0.47643  -0.46253  -0.45964  -0.45670  -0.45220
  Beta  occ. eigenvalues --   -0.44843  -0.44437  -0.44050  -0.43493  -0.42894
  Beta  occ. eigenvalues --   -0.42660  -0.41662  -0.41313  -0.40656  -0.40572
  Beta  occ. eigenvalues --   -0.40236  -0.39780  -0.39456  -0.39036  -0.38289
  Beta  occ. eigenvalues --   -0.37935  -0.36776  -0.36363  -0.36266  -0.35579
  Beta  occ. eigenvalues --   -0.35039  -0.35008  -0.34851  -0.33889  -0.33717
  Beta  occ. eigenvalues --   -0.33322  -0.33087  -0.32454  -0.32322  -0.32192
  Beta  occ. eigenvalues --   -0.32073  -0.31836  -0.31272  -0.30190  -0.29452
  Beta  occ. eigenvalues --   -0.28670  -0.28216  -0.27011  -0.26876  -0.24313
  Beta  occ. eigenvalues --   -0.23956  -0.23766  -0.23365  -0.23174  -0.21909
  Beta virt. eigenvalues --   -0.08507  -0.05233  -0.03751  -0.02355  -0.00070
  Beta virt. eigenvalues --    0.00446   0.01028   0.01329   0.01755   0.02572
  Beta virt. eigenvalues --    0.03125   0.03278   0.04348   0.07405   0.07875
  Beta virt. eigenvalues --    0.09658   0.09945   0.10477   0.10719   0.11395
  Beta virt. eigenvalues --    0.11756   0.12261   0.12845   0.12899   0.13667
  Beta virt. eigenvalues --    0.13955   0.14376   0.14868   0.14922   0.15756
  Beta virt. eigenvalues --    0.15844   0.16154   0.16791   0.17034   0.17160
  Beta virt. eigenvalues --    0.17289   0.17827   0.18239   0.18502   0.18948
  Beta virt. eigenvalues --    0.19336   0.19951   0.20454   0.20889   0.21109
  Beta virt. eigenvalues --    0.21665   0.22056   0.22660   0.23213   0.23626
  Beta virt. eigenvalues --    0.24183   0.24676   0.24821   0.25341   0.25995
  Beta virt. eigenvalues --    0.26381   0.26615   0.26958   0.27663   0.28557
  Beta virt. eigenvalues --    0.29380   0.29614   0.29668   0.30432   0.31424
  Beta virt. eigenvalues --    0.31571   0.32315   0.32780   0.32964   0.33465
  Beta virt. eigenvalues --    0.34672   0.35610   0.36493   0.37413   0.37696
  Beta virt. eigenvalues --    0.38495   0.39756   0.43744   0.45405   0.46297
  Beta virt. eigenvalues --    0.48011   0.48161   0.48823   0.49058   0.49901
  Beta virt. eigenvalues --    0.50499   0.51779   0.51810   0.52305   0.52572
  Beta virt. eigenvalues --    0.53627   0.54087   0.54597   0.54740   0.55399
  Beta virt. eigenvalues --    0.55779   0.56063   0.56264   0.57170   0.58080
  Beta virt. eigenvalues --    0.58321   0.58508   0.58773   0.59218   0.59469
  Beta virt. eigenvalues --    0.59822   0.60330   0.60628   0.61128   0.61232
  Beta virt. eigenvalues --    0.61363   0.61518   0.62168   0.62249   0.62409
  Beta virt. eigenvalues --    0.63130   0.63495   0.64160   0.64370   0.64766
  Beta virt. eigenvalues --    0.65400   0.65853   0.66259   0.66837   0.67299
  Beta virt. eigenvalues --    0.67721   0.68075   0.68482   0.69825   0.70550
  Beta virt. eigenvalues --    0.71125   0.71954   0.72487   0.73346   0.74205
  Beta virt. eigenvalues --    0.74360   0.75430   0.76408   0.77608   0.78490
  Beta virt. eigenvalues --    0.78578   0.79580   0.80016   0.80493   0.80776
  Beta virt. eigenvalues --    0.81347   0.82568   0.82804   0.84047   0.84370
  Beta virt. eigenvalues --    0.84553   0.84923   0.85090   0.85545   0.86030
  Beta virt. eigenvalues --    0.86820   0.87471   0.87675   0.88115   0.88528
  Beta virt. eigenvalues --    0.89143   0.89696   0.89742   0.90250   0.90829
  Beta virt. eigenvalues --    0.91138   0.91345   0.91562   0.91864   0.92798
  Beta virt. eigenvalues --    0.93011   0.94183   0.94534   0.94648   0.95062
  Beta virt. eigenvalues --    0.95462   0.95885   0.96418   0.96971   0.97162
  Beta virt. eigenvalues --    0.98005   0.98572   0.99341   0.99638   1.00133
  Beta virt. eigenvalues --    1.00379   1.01133   1.01386   1.01625   1.02959
  Beta virt. eigenvalues --    1.05352   1.05879   1.06284   1.07040   1.07402
  Beta virt. eigenvalues --    1.08406   1.09490   1.11110   1.11620   1.13768
  Beta virt. eigenvalues --    1.14233   1.14895   1.15109   1.15355   1.16887
  Beta virt. eigenvalues --    1.17509   1.18681   1.20024   1.20066   1.21738
  Beta virt. eigenvalues --    1.22625   1.23815   1.24696   1.26683   1.27022
  Beta virt. eigenvalues --    1.28237   1.28605   1.30227   1.31389   1.33909
  Beta virt. eigenvalues --    1.35623   1.36635   1.38409   1.39951   1.41151
  Beta virt. eigenvalues --    1.41678   1.42195   1.42973   1.44325   1.44410
  Beta virt. eigenvalues --    1.44751   1.45314   1.45961   1.46436   1.46781
  Beta virt. eigenvalues --    1.47067   1.48270   1.48926   1.49734   1.50069
  Beta virt. eigenvalues --    1.50819   1.51202   1.52173   1.52529   1.52642
  Beta virt. eigenvalues --    1.53444   1.53596   1.54239   1.55432   1.57706
  Beta virt. eigenvalues --    1.58336   1.59197   1.60909   1.62148   1.63126
  Beta virt. eigenvalues --    1.67111   1.67978   1.68489   1.70511   1.71910
  Beta virt. eigenvalues --    1.72556   1.73519   1.74066   1.75149   1.76631
  Beta virt. eigenvalues --    1.77449   1.78123   1.78421   1.79768   1.80197
  Beta virt. eigenvalues --    1.80848   1.82339   1.82930   1.83726   1.84143
  Beta virt. eigenvalues --    1.84490   1.85256   1.85835   1.86496   1.87843
  Beta virt. eigenvalues --    1.88507   1.89491   1.90153   1.90422   1.91085
  Beta virt. eigenvalues --    1.91676   1.91813   1.92461   1.93040   1.93801
  Beta virt. eigenvalues --    1.94247   1.95699   1.95936   1.96772   1.97885
  Beta virt. eigenvalues --    1.99059   1.99321   1.99628   1.99833   2.01534
  Beta virt. eigenvalues --    2.03369   2.04180   2.05471   2.06255   2.06484
  Beta virt. eigenvalues --    2.07044   2.07365   2.07802   2.08334   2.09278
  Beta virt. eigenvalues --    2.09378   2.10463   2.11376   2.11656   2.12107
  Beta virt. eigenvalues --    2.13214   2.14183   2.15170   2.15478   2.15824
  Beta virt. eigenvalues --    2.16341   2.16382   2.16639   2.17377   2.17668
  Beta virt. eigenvalues --    2.18434   2.18518   2.19345   2.20061   2.21257
  Beta virt. eigenvalues --    2.22659   2.24506   2.24970   2.25534   2.25971
  Beta virt. eigenvalues --    2.26510   2.26818   2.26958   2.27680   2.28484
  Beta virt. eigenvalues --    2.29067   2.31237   2.31500   2.31860   2.32165
  Beta virt. eigenvalues --    2.32658   2.33245   2.34306   2.35629   2.36839
  Beta virt. eigenvalues --    2.37602   2.40930   2.42343   2.43552   2.46576
  Beta virt. eigenvalues --    2.47814   2.49559   2.50222   2.51457   2.52224
  Beta virt. eigenvalues --    2.53406   2.56201   2.56677   2.57506   2.58170
  Beta virt. eigenvalues --    2.59114   2.59404   2.60314   2.60828   2.61121
  Beta virt. eigenvalues --    2.62456   2.64358   2.65022   2.65880   2.66231
  Beta virt. eigenvalues --    2.66627   2.67661   2.69337   2.70045   2.71637
  Beta virt. eigenvalues --    2.72416   2.72918   2.73583   2.74026   2.75106
  Beta virt. eigenvalues --    2.75536   2.75929   2.76158   2.77339   2.77977
  Beta virt. eigenvalues --    2.78806   2.79349   2.79535   2.81058   2.82172
  Beta virt. eigenvalues --    2.82964   2.85647   2.86949   2.90878   2.94356
  Beta virt. eigenvalues --    2.94613   2.97677   3.01255   3.06052   3.06739
  Beta virt. eigenvalues --    3.11948   3.15306   3.26869   3.37608   3.41150
  Beta virt. eigenvalues --    3.43324   3.43824   3.52492   3.63086   3.82438
  Beta virt. eigenvalues --    4.00846   4.07808   4.10250   4.10772   4.11559
  Beta virt. eigenvalues --    4.13524   4.14150   4.14386   4.16127   4.17311
  Beta virt. eigenvalues --    4.18389   4.21306   4.26525   4.27017   4.31465
  Beta virt. eigenvalues --    4.34602   4.34646   4.35445   4.36293   4.37545
  Beta virt. eigenvalues --    4.38852   4.44670   4.49578   4.52357   4.55745
  Beta virt. eigenvalues --    4.62938   4.68803   4.72592   4.75012   4.77329
  Beta virt. eigenvalues --    4.79845   4.90244   4.94600   5.97398   6.08750
  Beta virt. eigenvalues --    6.11609   6.21921   6.40867  11.13901  17.59810
  Beta virt. eigenvalues --   17.92377  18.02328  18.24953  18.88386  22.94104
  Beta virt. eigenvalues --   23.12076  23.18930  26.14232  56.96351 118.98217
  Beta virt. eigenvalues --  119.08018 119.09321 134.97282 379.24534 924.04771
  Beta virt. eigenvalues --  924.17405 924.934741451.33985**********
          Condensed to atoms (all electrons):
          Atomic-Atomic Spin Densities.
 Mulliken charges and spin densities:
               1          2
     1  C   -0.449810   0.000096
     2  C    0.096954   0.000605
     3  C   -0.454240   0.000037
     4  C   -0.523962   0.002210
     5  C   -0.285772   0.000359
     6  C    0.000131   0.001153
     7  C   -0.085450   0.003750
     8  O   -0.515248  -0.000864
     9  C    0.590420  -0.008505
    10  C    0.340908  -0.003006
    11  C   -0.169398   0.002385
    12  C   -0.103324  -0.005639
    13  C   -0.158631   0.004399
    14  C    0.404498  -0.007678
    15  C   -0.404136   0.003878
    16  C    0.145793  -0.000290
    17  C   -0.192423   0.000240
    18  C   -0.139182  -0.000154
    19  C   -0.125566   0.000258
    20  C   -0.137901  -0.000118
    21  C   -0.186152   0.000279
    22  C    0.151730  -0.000349
    23  C   -0.201245  -0.000004
    24  C   -0.146107   0.000006
    25  C   -0.125464  -0.000034
    26  C   -0.136185  -0.000062
    27  C   -0.199681   0.000050
    28  N   -0.631044   0.066966
    29  N   -0.518999   0.060857
    30  H    0.132819   0.000055
    31  H    0.146462   0.000007
    32  H    0.159230  -0.000003
    33  H    0.133030   0.000032
    34  H    0.152217   0.000003
    35  H    0.148929   0.000004
    36  H    0.206004  -0.000055
    37  H    0.191010  -0.000052
    38  H    0.152131   0.000864
    39  H    0.135456  -0.000072
    40  H    0.173275   0.000052
    41  H    0.189730   0.000287
    42  H    0.181592   0.000234
    43  H    0.177443  -0.000042
    44  H    0.177603   0.000642
    45  H    0.162994   0.000200
    46  H    0.169199   0.000818
    47  H    0.218902  -0.001541
    48  H    0.205571  -0.000084
    49  H    0.135869   0.000002
    50  H    0.126956  -0.000015
    51  H    0.125796   0.000008
    52  H    0.126747  -0.000027
    53  H    0.211267  -0.000436
    54  H    0.137726  -0.000009
    55  H    0.124474  -0.000001
    56  H    0.124677   0.000002
    57  H    0.137631  -0.000000
    58  Ni   0.625546   1.751879
    59  F   -0.462616   0.062951
    60  F   -0.468184   0.063471
 Sum of Mulliken charges =  -0.00000   2.00000
 Mulliken charges and spin densities with hydrogens summed into heavy atoms:
               1          2
     1  C   -0.011298   0.000155
     2  C    0.096954   0.000605
     3  C   -0.020063   0.000076
     4  C    0.025183   0.002968
     5  C    0.022959   0.000339
     6  C    0.189861   0.001440
     7  C    0.273585   0.003942
     8  O   -0.515248  -0.000864
     9  C    0.590420  -0.008505
    10  C    0.340908  -0.003006
    11  C    0.008205   0.003027
    12  C    0.059669  -0.005439
    13  C    0.010568   0.005217
    14  C    0.404498  -0.007678
    15  C   -0.185234   0.002337
    16  C    0.145793  -0.000290
    17  C    0.013147   0.000156
    18  C   -0.003313  -0.000152
    19  C    0.001390   0.000243
    20  C   -0.012104  -0.000110
    21  C   -0.059404   0.000252
    22  C    0.151730  -0.000349
    23  C    0.010022  -0.000439
    24  C   -0.008382  -0.000003
    25  C   -0.000990  -0.000036
    26  C   -0.011508  -0.000061
    27  C   -0.062050   0.000050
    28  N   -0.631044   0.066966
    29  N   -0.518999   0.060857
    58  Ni   0.625546   1.751879
    59  F   -0.462616   0.062951
    60  F   -0.468184   0.063471
 Electronic spatial extent (au):  <R**2>=          15083.9099
 Charge=             -0.0000 electrons
 Dipole moment (field-independent basis, Debye):
    X=              1.8282    Y=              1.8416    Z=              7.0944  Tot=              7.5541
 Quadrupole moment (field-independent basis, Debye-Ang):
   XX=           -159.2128   YY=           -197.7973   ZZ=           -184.2471
   XY=              1.0892   XZ=              0.7072   YZ=              0.3222
 Traceless Quadrupole moment (field-independent basis, Debye-Ang):
   XX=             21.2062   YY=            -17.3782   ZZ=             -3.8280
   XY=              1.0892   XZ=              0.7072   YZ=              0.3222
 Octapole moment (field-independent basis, Debye-Ang**2):
  XXX=            121.1375  YYY=              2.9781  ZZZ=             50.1881  XYY=            -11.2221
  XXY=              3.4829  XXZ=             43.0201  XZZ=             32.9205  YZZ=             -6.4021
  YYZ=            -17.6872  XYZ=             -1.8357
 Hexadecapole moment (field-independent basis, Debye-Ang**3):
 XXXX=         -12629.0928 YYYY=          -3632.3538 ZZZZ=          -3044.8668 XXXY=            -16.2674
 XXXZ=             96.1846 YYYX=            -16.9393 YYYZ=            -36.2263 ZZZX=           -115.7543
 ZZZY=             -2.8609 XXYY=          -2751.8076 XXZZ=          -2690.9835 YYZZ=          -1218.6120
 XXYZ=             67.2424 YYXZ=             82.2375 ZZXY=            -26.0883
 N-N= 3.617774364631D+03 E-N=-1.088728404130D+04  KE= 1.486608847452D+03
                          Isotropic Fermi Contact Couplings
        Atom                 a.u.       MegaHertz       Gauss      10(-4) cm-1
     1  C(13)              0.00007       0.03835       0.01368       0.01279
     2  C(13)              0.00023       0.13161       0.04696       0.04390
     3  C(13)             -0.00000      -0.00005      -0.00002      -0.00002
     4  C(13)              0.00196       1.10005       0.39252       0.36694
     5  C(13)              0.00029       0.16162       0.05767       0.05391
     6  C(13)              0.00377       2.11841       0.75590       0.70662
     7  C(13)              0.00320       1.80115       0.64270       0.60080
     8  O(17)              0.00257      -0.77972      -0.27822      -0.26009
     9  C(13)             -0.00010      -0.05785      -0.02064      -0.01930
    10  C(13)             -0.00147      -0.82907      -0.29583      -0.27655
    11  C(13)              0.00193       1.08598       0.38751       0.36225
    12  C(13)             -0.00034      -0.19049      -0.06797      -0.06354
    13  C(13)              0.00333       1.86942       0.66706       0.62357
    14  C(13)             -0.00053      -0.29892      -0.10666      -0.09971
    15  C(13)              0.00199       1.11922       0.39936       0.37333
    16  C(13)             -0.00012      -0.06486      -0.02314      -0.02164
    17  C(13)              0.00021       0.12036       0.04295       0.04015
    18  C(13)             -0.00001      -0.00695      -0.00248      -0.00232
    19  C(13)              0.00003       0.01626       0.00580       0.00542
    20  C(13)              0.00000       0.00157       0.00056       0.00052
    21  C(13)              0.00004       0.02376       0.00848       0.00793
    22  C(13)             -0.00027      -0.15326      -0.05469      -0.05112
    23  C(13)             -0.00017      -0.09366      -0.03342      -0.03124
    24  C(13)              0.00002       0.01077       0.00384       0.00359
    25  C(13)             -0.00001      -0.00535      -0.00191      -0.00178
    26  C(13)             -0.00000      -0.00226      -0.00081      -0.00075
    27  C(13)             -0.00001      -0.00387      -0.00138      -0.00129
    28  N(14)              0.10807      17.45924       6.22989       5.82377
    29  N(14)              0.10197      16.47376       5.87825       5.49505
    30  H(1)               0.00002       0.04127       0.01473       0.01377
    31  H(1)               0.00000       0.00500       0.00178       0.00167
    32  H(1)              -0.00000      -0.00574      -0.00205      -0.00192
    33  H(1)               0.00001       0.02392       0.00853       0.00798
    34  H(1)               0.00000       0.00891       0.00318       0.00297
    35  H(1)              -0.00000      -0.00245      -0.00087      -0.00082
    36  H(1)               0.00051       1.14655       0.40912       0.38245
    37  H(1)               0.00058       1.30426       0.46539       0.43505
    38  H(1)               0.00035       0.77785       0.27756       0.25946
    39  H(1)              -0.00003      -0.07706      -0.02750      -0.02570
    40  H(1)              -0.00002      -0.04825      -0.01722      -0.01610
    41  H(1)               0.00021       0.46426       0.16566       0.15486
    42  H(1)               0.00007       0.14633       0.05221       0.04881
    43  H(1)              -0.00004      -0.09385      -0.03349      -0.03130
    44  H(1)               0.00028       0.62197       0.22194       0.20747
    45  H(1)               0.00007       0.16463       0.05874       0.05491
    46  H(1)               0.00032       0.71194       0.25404       0.23748
    47  H(1)               0.00002       0.04812       0.01717       0.01605
    48  H(1)              -0.00000      -0.01015      -0.00362      -0.00338
    49  H(1)              -0.00000      -0.00134      -0.00048      -0.00045
    50  H(1)              -0.00000      -0.01018      -0.00363      -0.00339
    51  H(1)               0.00000       0.00775       0.00277       0.00258
    52  H(1)              -0.00000      -0.00326      -0.00116      -0.00109
    53  H(1)               0.00003       0.05606       0.02001       0.01870
    54  H(1)              -0.00000      -0.00470      -0.00168      -0.00157
    55  H(1)              -0.00000      -0.00033      -0.00012      -0.00011
    56  H(1)               0.00000       0.00272       0.00097       0.00091
    57  H(1)              -0.00000      -0.00438      -0.00156      -0.00146
    58  Ni(61)             0.00000      -0.00025      -0.00009      -0.00008
    59  F(19)              0.02895      60.89250      21.72796      20.31155
    60  F(19)              0.02296      48.29551      17.23304      16.10965
 --------------------------------------------------------
       Center         ----  Spin Dipole Couplings  ----
                      3XX-RR        3YY-RR        3ZZ-RR
 --------------------------------------------------------
     1   Atom        0.002952     -0.001418     -0.001534
     2   Atom        0.008387     -0.004472     -0.003915
     3   Atom        0.004242     -0.002164     -0.002078
     4   Atom        0.015894     -0.012023     -0.003872
     5   Atom        0.008921     -0.004349     -0.004572
     6   Atom        0.017929     -0.011269     -0.006661
     7   Atom       -0.000389     -0.005303      0.005692
     8   Atom       -0.000671     -0.025230      0.025901
     9   Atom        0.003829     -0.030504      0.026675
    10   Atom       -0.005839     -0.020083      0.025922
    11   Atom       -0.003680     -0.004787      0.008467
    12   Atom        0.002342     -0.008537      0.006195
    13   Atom        0.001723     -0.004445      0.002722
    14   Atom        0.021291     -0.020164     -0.001127
    15   Atom        0.016481     -0.010282     -0.006199
    16   Atom        0.005643     -0.001797     -0.003846
    17   Atom        0.002677      0.000675     -0.003352
    18   Atom        0.000741      0.000964     -0.001704
    19   Atom        0.000739      0.000202     -0.000941
    20   Atom        0.001237     -0.000169     -0.001068
    21   Atom        0.002585     -0.001108     -0.001478
    22   Atom        0.007567     -0.003413     -0.004154
    23   Atom        0.005141     -0.000430     -0.004712
    24   Atom        0.001647      0.000446     -0.002093
    25   Atom        0.001335     -0.000155     -0.001179
    26   Atom        0.001813     -0.000689     -0.001123
    27   Atom        0.003301     -0.001615     -0.001686
    28   Atom       -0.020914     -0.076324      0.097238
    29   Atom       -0.012516     -0.052333      0.064850
    30   Atom        0.002147     -0.000920     -0.001227
    31   Atom        0.001935     -0.001419     -0.000516
    32   Atom        0.002144     -0.000659     -0.001485
    33   Atom        0.002863     -0.001442     -0.001421
    34   Atom        0.002721     -0.001504     -0.001216
    35   Atom        0.004419     -0.001844     -0.002575
    36   Atom        0.010155     -0.011774      0.001619
    37   Atom        0.018700     -0.009182     -0.009518
    38   Atom        0.003301     -0.004882      0.001580
    39   Atom        0.004204     -0.001977     -0.002226
    40   Atom        0.006018     -0.000418     -0.005600
    41   Atom        0.008799     -0.004763     -0.004036
    42   Atom        0.001038     -0.002178      0.001140
    43   Atom        0.000820     -0.001422      0.000602
    44   Atom       -0.002297     -0.002455      0.004752
    45   Atom       -0.000120     -0.001503      0.001623
    46   Atom        0.002728     -0.002337     -0.000390
    47   Atom        0.033385     -0.017592     -0.015793
    48   Atom        0.002728      0.002439     -0.005167
    49   Atom       -0.000102      0.001333     -0.001232
    50   Atom        0.000352      0.000335     -0.000687
    51   Atom        0.000852     -0.000213     -0.000639
    52   Atom        0.002378     -0.001203     -0.001176
    53   Atom        0.006272      0.003593     -0.009865
    54   Atom        0.000372      0.001464     -0.001837
    55   Atom        0.000716      0.000029     -0.000745
    56   Atom        0.001203     -0.000517     -0.000687
    57   Atom        0.002729     -0.001375     -0.001355
    58   Atom       -0.401771      0.225583      0.176188
    59   Atom       -0.186252      0.266090     -0.079838
    60   Atom       -0.060865     -0.173780      0.234645
 --------------------------------------------------------
                        XY            XZ            YZ
 --------------------------------------------------------
     1   Atom        0.001933     -0.001959     -0.000758
     2   Atom        0.001859     -0.002321     -0.000183
     3   Atom       -0.000921     -0.000899      0.000082
     4   Atom        0.000084     -0.015375     -0.000263
     5   Atom        0.004639      0.001418      0.000262
     6   Atom       -0.000312      0.010966      0.000045
     7   Atom        0.000932      0.005620      0.002700
     8   Atom        0.001001      0.005893     -0.004960
     9   Atom        0.004407      0.007430      0.004536
    10   Atom       -0.001505     -0.001389      0.001626
    11   Atom       -0.000351     -0.004513      0.001222
    12   Atom        0.000305     -0.003877      0.000422
    13   Atom       -0.000268     -0.007901      0.000083
    14   Atom        0.001726     -0.012478     -0.000234
    15   Atom       -0.002751     -0.001048     -0.000230
    16   Atom       -0.004188     -0.000514      0.000156
    17   Atom       -0.005487      0.001388     -0.000889
    18   Atom       -0.002625      0.000413     -0.000597
    19   Atom       -0.001479      0.000226      0.000030
    20   Atom       -0.001391     -0.000315      0.000103
    21   Atom       -0.001759     -0.000521      0.000317
    22   Atom        0.002588     -0.000220     -0.000153
    23   Atom        0.006351     -0.000295      0.000020
    24   Atom        0.003062      0.000160      0.000130
    25   Atom        0.001551      0.000195      0.000117
    26   Atom        0.001029      0.000237      0.000108
    27   Atom        0.000911      0.000213      0.000100
    28   Atom       -0.004761     -0.126282      0.004381
    29   Atom        0.013960      0.104045      0.013953
    30   Atom        0.001345     -0.000799     -0.000314
    31   Atom        0.000926     -0.001996     -0.000522
    32   Atom        0.002947     -0.002199     -0.001430
    33   Atom       -0.000226     -0.000180      0.000011
    34   Atom       -0.000900     -0.001414      0.000296
    35   Atom       -0.002336     -0.000204      0.000091
    36   Atom        0.008819     -0.021402     -0.008686
    37   Atom       -0.013916     -0.015122      0.005527
    38   Atom       -0.001186     -0.007190      0.001244
    39   Atom        0.002136      0.001341      0.000371
    40   Atom        0.008214      0.001614      0.000815
    41   Atom       -0.005045      0.006363     -0.001503
    42   Atom       -0.000369      0.003361     -0.000221
    43   Atom        0.001859      0.003440      0.001762
    44   Atom       -0.000081     -0.000626      0.000491
    45   Atom       -0.000045     -0.001646      0.000110
    46   Atom       -0.000150     -0.002899      0.000082
    47   Atom       -0.007601      0.008413     -0.001416
    48   Atom       -0.009563      0.003738     -0.004146
    49   Atom       -0.001972      0.000558     -0.000818
    50   Atom       -0.001035      0.000060     -0.000055
    51   Atom       -0.000847     -0.000262      0.000135
    52   Atom       -0.000905     -0.000903      0.000190
    53   Atom        0.014033     -0.001326     -0.000969
    54   Atom        0.002677      0.000107      0.000142
    55   Atom        0.001076      0.000141      0.000104
    56   Atom        0.000590      0.000166      0.000055
    57   Atom        0.000046      0.000203     -0.000003
    58   Atom       -0.524137      0.291281     -0.304800
    59   Atom        0.063177      0.003889      0.285625
    60   Atom        0.100370      0.156833     -0.025066
 --------------------------------------------------------


 ---------------------------------------------------------------------------------
              Anisotropic Spin Dipole Couplings in Principal Axis System
 ---------------------------------------------------------------------------------

       Atom             a.u.   MegaHertz   Gauss  10(-4) cm-1        Axes

              Baa    -0.0023    -0.305    -0.109    -0.102  0.2692  0.2216  0.9372
     1 C(13)  Bbb    -0.0021    -0.288    -0.103    -0.096 -0.3875  0.9159 -0.1052
              Bcc     0.0044     0.594     0.212     0.198  0.8817  0.3348 -0.3324
 
              Baa    -0.0048    -0.641    -0.229    -0.214 -0.1846  0.9367 -0.2975
     2 C(13)  Bbb    -0.0043    -0.575    -0.205    -0.192  0.1245  0.3226  0.9383
              Bcc     0.0091     1.217     0.434     0.406  0.9749  0.1362 -0.1762
 
              Baa    -0.0023    -0.310    -0.111    -0.103  0.1786  0.9129  0.3671
     3 C(13)  Bbb    -0.0022    -0.293    -0.105    -0.098  0.0736 -0.3845  0.9202
              Bcc     0.0045     0.603     0.215     0.201  0.9812 -0.1374 -0.1358
 
              Baa    -0.0124    -1.660    -0.592    -0.554  0.4177  0.4813  0.7706
     4 C(13)  Bbb    -0.0119    -1.599    -0.571    -0.534 -0.2349  0.8765 -0.4201
              Bcc     0.0243     3.259     1.163     1.087  0.8777  0.0055 -0.4792
 
              Baa    -0.0058    -0.783    -0.280    -0.261 -0.3097  0.9385  0.1527
     5 C(13)  Bbb    -0.0047    -0.628    -0.224    -0.209 -0.0431 -0.1743  0.9837
              Bcc     0.0105     1.411     0.504     0.471  0.9499  0.2980  0.0945
 
              Baa    -0.0113    -1.519    -0.542    -0.507  0.1156  0.9527 -0.2812
     6 C(13)  Bbb    -0.0108    -1.448    -0.517    -0.483 -0.3370  0.3039  0.8911
              Bcc     0.0221     2.967     1.059     0.990  0.9344 -0.0083  0.3561
 
              Baa    -0.0060    -0.802    -0.286    -0.267  0.1220  0.9525 -0.2792
     7 C(13)  Bbb    -0.0036    -0.482    -0.172    -0.161  0.8596 -0.2420 -0.4500
              Bcc     0.0096     1.284     0.458     0.428  0.4961  0.1851  0.8483
 
              Baa    -0.0258     1.867     0.666     0.623 -0.0635  0.9927  0.1025
     8 O(17)  Bbb    -0.0018     0.127     0.045     0.042  0.9776  0.0825 -0.1935
              Bcc     0.0276    -1.994    -0.712    -0.665  0.2006 -0.0879  0.9757
 
              Baa    -0.0313    -4.198    -1.498    -1.400 -0.1111  0.9918 -0.0634
     9 C(13)  Bbb     0.0019     0.253     0.090     0.084  0.9498  0.0872 -0.3006
              Bcc     0.0294     3.946     1.408     1.316  0.2926  0.0936  0.9517
 
              Baa    -0.0203    -2.722    -0.971    -0.908  0.1005  0.9944 -0.0320
    10 C(13)  Bbb    -0.0058    -0.773    -0.276    -0.258  0.9939 -0.0989  0.0486
              Bcc     0.0260     3.495     1.247     1.166 -0.0452  0.0367  0.9983
 
              Baa    -0.0052    -0.695    -0.248    -0.232  0.9304 -0.1732  0.3231
    11 C(13)  Bbb    -0.0049    -0.656    -0.234    -0.219  0.1914  0.9812 -0.0251
              Bcc     0.0101     1.351     0.482     0.451 -0.3127  0.0852  0.9460
 
              Baa    -0.0086    -1.150    -0.410    -0.383 -0.0420  0.9983 -0.0396
    12 C(13)  Bbb    -0.0000    -0.005    -0.002    -0.002  0.8493  0.0565  0.5248
              Bcc     0.0086     1.154     0.412     0.385 -0.5262  0.0116  0.8503
 
              Baa    -0.0057    -0.766    -0.273    -0.256  0.7258  0.1096  0.6791
    13 C(13)  Bbb    -0.0044    -0.595    -0.212    -0.198 -0.0685  0.9938 -0.0872
              Bcc     0.0101     1.361     0.486     0.454 -0.6845  0.0167  0.7289
 
              Baa    -0.0202    -2.716    -0.969    -0.906 -0.0471  0.9987 -0.0185
    14 C(13)  Bbb    -0.0067    -0.896    -0.320    -0.299  0.4054  0.0360  0.9134
              Bcc     0.0269     3.612     1.289     1.205  0.9129  0.0355 -0.4065
 
              Baa    -0.0106    -1.421    -0.507    -0.474  0.1037  0.9916  0.0768
    15 C(13)  Bbb    -0.0062    -0.834    -0.298    -0.278  0.0362 -0.0809  0.9961
              Bcc     0.0168     2.255     0.805     0.752  0.9939 -0.1005 -0.0443
 
              Baa    -0.0039    -0.522    -0.186    -0.174  0.1643  0.2572  0.9523
    16 C(13)  Bbb    -0.0037    -0.491    -0.175    -0.164  0.3776  0.8755 -0.3016
              Bcc     0.0075     1.013     0.362     0.338  0.9113 -0.4091 -0.0467
 
              Baa    -0.0040    -0.537    -0.192    -0.179  0.6218  0.6447 -0.4447
    17 C(13)  Bbb    -0.0035    -0.469    -0.167    -0.156  0.1847  0.4312  0.8832
              Bcc     0.0075     1.006     0.359     0.336  0.7611 -0.6313  0.1490
 
              Baa    -0.0019    -0.255    -0.091    -0.085  0.4121  0.5314  0.7401
    18 C(13)  Bbb    -0.0017    -0.225    -0.080    -0.075 -0.6024 -0.4505  0.6589
              Bcc     0.0036     0.480     0.171     0.160 -0.6836  0.7174 -0.1345
 
              Baa    -0.0012    -0.156    -0.056    -0.052 -0.5286 -0.5859  0.6143
    19 C(13)  Bbb    -0.0008    -0.110    -0.039    -0.037  0.3607  0.5001  0.7873
              Bcc     0.0020     0.266     0.095     0.089  0.7685 -0.6377  0.0530
 
              Baa    -0.0011    -0.154    -0.055    -0.051  0.3481  0.4055  0.8452
    20 C(13)  Bbb    -0.0010    -0.131    -0.047    -0.044  0.3979  0.7524 -0.5249
              Bcc     0.0021     0.285     0.102     0.095  0.8488 -0.5191 -0.1006
 
              Baa    -0.0018    -0.248    -0.088    -0.083  0.3169  0.8930 -0.3197
    21 C(13)  Bbb    -0.0015    -0.204    -0.073    -0.068  0.2287  0.2552  0.9394
              Bcc     0.0034     0.451     0.161     0.151  0.9205 -0.3708 -0.1234
 
              Baa    -0.0042    -0.565    -0.201    -0.188 -0.0755  0.4201  0.9043
    22 C(13)  Bbb    -0.0039    -0.529    -0.189    -0.177 -0.2061  0.8808 -0.4263
              Bcc     0.0082     1.094     0.390     0.365  0.9756  0.2186 -0.0201
 
              Baa    -0.0048    -0.649    -0.232    -0.217  0.3212 -0.4664  0.8242
    23 C(13)  Bbb    -0.0045    -0.598    -0.213    -0.199 -0.4427  0.6954  0.5660
              Bcc     0.0093     1.247     0.445     0.416  0.8372  0.5467 -0.0169
 
              Baa    -0.0021    -0.282    -0.101    -0.094 -0.0509  0.0102  0.9987
    24 C(13)  Bbb    -0.0021    -0.278    -0.099    -0.093 -0.6339  0.7724 -0.0402
              Bcc     0.0042     0.560     0.200     0.187  0.7718  0.6351  0.0329
 
              Baa    -0.0012    -0.160    -0.057    -0.053 -0.0964  0.0323  0.9948
    25 C(13)  Bbb    -0.0011    -0.152    -0.054    -0.051 -0.5264  0.8466 -0.0785
              Bcc     0.0023     0.312     0.111     0.104  0.8447  0.5313  0.0646
 
              Baa    -0.0011    -0.154    -0.055    -0.051  0.0062 -0.2415  0.9704
    26 C(13)  Bbb    -0.0011    -0.141    -0.050    -0.047 -0.3457  0.9101  0.2287
              Bcc     0.0022     0.295     0.105     0.099  0.9383  0.3369  0.0779
 
              Baa    -0.0018    -0.243    -0.087    -0.081 -0.1358  0.8722 -0.4700
    27 C(13)  Bbb    -0.0017    -0.223    -0.080    -0.074 -0.1215  0.4561  0.8816
              Bcc     0.0035     0.466     0.166     0.156  0.9833  0.1769  0.0440
 
              Baa    -0.1014    -3.909    -1.395    -1.304  0.8426  0.0667  0.5343
    28 N(14)  Bbb    -0.0764    -2.945    -1.051    -0.982 -0.0431  0.9975 -0.0565
              Bcc     0.1777     6.855     2.446     2.287 -0.5367  0.0246  0.8434
 
              Baa    -0.0852    -3.287    -1.173    -1.096  0.8215 -0.1114 -0.5592
    29 N(14)  Bbb    -0.0539    -2.079    -0.742    -0.694  0.0345  0.9886 -0.1464
              Bcc     0.1391     5.366     1.915     1.790  0.5691  0.1010  0.8160
 
              Baa    -0.0014    -0.764    -0.273    -0.255 -0.2251  0.8654  0.4476
    30 H(1)   Bbb    -0.0014    -0.748    -0.267    -0.250  0.3335 -0.3632  0.8700
              Bcc     0.0028     1.512     0.540     0.504  0.9155  0.3452 -0.2069
 
              Baa    -0.0017    -0.885    -0.316    -0.295 -0.1349  0.9691  0.2067
    31 H(1)   Bbb    -0.0016    -0.871    -0.311    -0.291  0.5073 -0.1117  0.8545
              Bcc     0.0033     1.756     0.627     0.586  0.8512  0.2202 -0.4765
 
              Baa    -0.0026    -1.367    -0.488    -0.456 -0.0831  0.6778  0.7306
    32 H(1)   Bbb    -0.0025    -1.332    -0.475    -0.444  0.6154 -0.5417  0.5726
              Bcc     0.0051     2.699     0.963     0.900  0.7838  0.4972 -0.3721
 
              Baa    -0.0015    -0.776    -0.277    -0.259  0.0494  0.9966 -0.0661
    33 H(1)   Bbb    -0.0014    -0.762    -0.272    -0.254  0.0451  0.0639  0.9969
              Bcc     0.0029     1.538     0.549     0.513  0.9978 -0.0523 -0.0418
 
              Baa    -0.0017    -0.902    -0.322    -0.301  0.0919  0.9447 -0.3148
    34 H(1)   Bbb    -0.0017    -0.891    -0.318    -0.297  0.3446  0.2664  0.9002
              Bcc     0.0034     1.793     0.640     0.598  0.9343 -0.1912 -0.3010
 
              Baa    -0.0026    -1.403    -0.501    -0.468  0.2743  0.8644 -0.4214
    35 H(1)   Bbb    -0.0026    -1.372    -0.489    -0.458  0.1575  0.3920  0.9064
              Bcc     0.0052     2.775     0.990     0.926  0.9487 -0.3150 -0.0286
 
              Baa    -0.0167    -8.935    -3.188    -2.980  0.3836  0.5779  0.7203
    36 H(1)   Bbb    -0.0145    -7.735    -2.760    -2.580 -0.5538  0.7682 -0.3213
              Bcc     0.0312    16.671     5.948     5.561  0.7390  0.2756 -0.6147
 
              Baa    -0.0162    -8.659    -3.090    -2.888  0.4726  0.2773  0.8365
    37 H(1)   Bbb    -0.0146    -7.809    -2.787    -2.605  0.1902  0.8947 -0.4040
              Bcc     0.0309    16.469     5.876     5.493  0.8605 -0.3501 -0.3701
 
              Baa    -0.0051    -2.743    -0.979    -0.915 -0.1775  0.9161 -0.3595
    38 H(1)   Bbb    -0.0047    -2.529    -0.903    -0.844  0.6463  0.3840  0.6595
              Bcc     0.0099     5.272     1.881     1.759  0.7422 -0.1153 -0.6602
 
              Baa    -0.0027    -1.417    -0.506    -0.473 -0.3324  0.9086  0.2531
    39 H(1)   Bbb    -0.0025    -1.322    -0.472    -0.441 -0.0950 -0.2992  0.9495
              Bcc     0.0051     2.739     0.977     0.914  0.9384  0.2915  0.1857
 
              Baa    -0.0062    -3.290    -1.174    -1.098 -0.5236  0.6743  0.5208
    40 H(1)   Bbb    -0.0056    -3.009    -1.074    -1.004  0.2223 -0.4820  0.8475
              Bcc     0.0118     6.300     2.248     2.101  0.8225  0.5595  0.1025
 
              Baa    -0.0070    -3.747    -1.337    -1.250 -0.4566 -0.5602  0.6911
    41 H(1)   Bbb    -0.0059    -3.172    -1.132    -1.058 -0.0046  0.7783  0.6278
              Bcc     0.0130     6.919     2.469     2.308  0.8896 -0.2835  0.3580
 
              Baa    -0.0024    -1.254    -0.448    -0.418  0.6005  0.5889 -0.5409
    42 H(1)   Bbb    -0.0021    -1.134    -0.405    -0.378 -0.3845  0.8058  0.4504
              Bcc     0.0045     2.388     0.852     0.797  0.7011 -0.0625  0.7103
 
              Baa    -0.0027    -1.458    -0.520    -0.486  0.7143 -0.0784 -0.6954
    43 H(1)   Bbb    -0.0024    -1.290    -0.460    -0.430 -0.2017  0.9285 -0.3119
              Bcc     0.0052     2.748     0.981     0.917  0.6701  0.3630  0.6474
 
              Baa    -0.0025    -1.333    -0.476    -0.445  0.2550  0.9660 -0.0434
    44 H(1)   Bbb    -0.0023    -1.250    -0.446    -0.417  0.9629 -0.2496  0.1022
              Bcc     0.0048     2.583     0.922     0.862 -0.0879  0.0678  0.9938
 
              Baa    -0.0015    -0.804    -0.287    -0.268 -0.0248  0.9985 -0.0483
    45 H(1)   Bbb    -0.0011    -0.592    -0.211    -0.198  0.8566  0.0462  0.5140
              Bcc     0.0026     1.397     0.498     0.466 -0.5154  0.0286  0.8565
 
              Baa    -0.0023    -1.250    -0.446    -0.417  0.0371  0.9992  0.0131
    46 H(1)   Bbb    -0.0021    -1.133    -0.404    -0.378  0.5121 -0.0303  0.8584
              Bcc     0.0045     2.382     0.850     0.795  0.8581 -0.0251 -0.5128
 
              Baa    -0.0187    -9.990    -3.565    -3.332  0.1246  0.9851  0.1182
    47 H(1)   Bbb    -0.0172    -9.165    -3.270    -3.057 -0.1773 -0.0951  0.9796
              Bcc     0.0359    19.156     6.835     6.390  0.9762 -0.1430  0.1628
 
              Baa    -0.0072    -3.854    -1.375    -1.285  0.4394  0.6846  0.5816
    48 H(1)   Bbb    -0.0066    -3.502    -1.250    -1.168 -0.5866 -0.2717  0.7630
              Bcc     0.0138     7.356     2.625     2.454  0.6803 -0.6764  0.2822
 
              Baa    -0.0015    -0.794    -0.283    -0.265  0.6688  0.5962  0.4442
    49 H(1)   Bbb    -0.0015    -0.779    -0.278    -0.260 -0.4916 -0.0936  0.8658
              Bcc     0.0029     1.574     0.561     0.525 -0.5577  0.7974 -0.2305
 
              Baa    -0.0007    -0.370    -0.132    -0.124 -0.5469 -0.5146  0.6604
    50 H(1)   Bbb    -0.0007    -0.367    -0.131    -0.122  0.4443  0.4901  0.7499
              Bcc     0.0014     0.737     0.263     0.246  0.7095 -0.7036  0.0394
 
              Baa    -0.0007    -0.368    -0.131    -0.123  0.4198  0.5383  0.7307
    51 H(1)   Bbb    -0.0007    -0.359    -0.128    -0.120  0.2709  0.6941 -0.6670
              Bcc     0.0014     0.727     0.260     0.243  0.8662 -0.4780 -0.1455
 
              Baa    -0.0014    -0.764    -0.273    -0.255  0.3083  0.8243  0.4749
    52 H(1)   Bbb    -0.0014    -0.734    -0.262    -0.245  0.0792 -0.5197  0.8507
              Bcc     0.0028     1.498     0.535     0.500  0.9480 -0.2247 -0.2255
 
              Baa    -0.0100    -5.332    -1.903    -1.779  0.1791 -0.1153  0.9771
    53 H(1)   Bbb    -0.0091    -4.870    -1.738    -1.624 -0.6495  0.7321  0.2054
              Bcc     0.0191    10.202     3.640     3.403  0.7390  0.6713 -0.0563
 
              Baa    -0.0018    -0.984    -0.351    -0.328  0.1597 -0.1710  0.9722
    54 H(1)   Bbb    -0.0018    -0.967    -0.345    -0.322  0.7582 -0.6094 -0.2317
              Bcc     0.0037     1.951     0.696     0.651  0.6322  0.7742  0.0323
 
              Baa    -0.0008    -0.405    -0.145    -0.135  0.1561 -0.3358  0.9289
    55 H(1)   Bbb    -0.0008    -0.403    -0.144    -0.135 -0.5723  0.7358  0.3622
              Bcc     0.0015     0.809     0.289     0.270  0.8051  0.5881  0.0773
 
              Baa    -0.0007    -0.376    -0.134    -0.125  0.1222 -0.6142  0.7796
    56 H(1)   Bbb    -0.0007    -0.372    -0.133    -0.124 -0.2813  0.7319  0.6207
              Bcc     0.0014     0.747     0.267     0.249  0.9518  0.2952  0.0833
 
              Baa    -0.0014    -0.735    -0.262    -0.245 -0.0301  0.9149  0.4025
    57 H(1)   Bbb    -0.0014    -0.727    -0.259    -0.242 -0.0407 -0.4035  0.9141
              Bcc     0.0027     1.462     0.522     0.488  0.9987  0.0111  0.0494
 
              Baa    -0.7130    34.055    12.152    11.359  0.8831  0.4492 -0.1353
    58 Ni(61) Bbb    -0.0826     3.947     1.408     1.317 -0.1540  0.5499  0.8209
              Bcc     0.7957   -38.002   -13.560   -12.676 -0.4432  0.7041 -0.5548
 
              Baa    -0.2531  -127.106   -45.354   -42.398  0.4064 -0.4779  0.7787
    59 F(19)  Bbb    -0.1792   -90.003   -32.115   -30.022  0.9091  0.1258 -0.3972
              Bcc     0.4323   217.108    77.470    72.419  0.0918  0.8694  0.4856
 
              Baa    -0.2560  -128.591   -45.885   -42.893 -0.5830  0.7803  0.2262
    60 F(19)  Bbb    -0.0469   -23.575    -8.412    -7.864  0.7048  0.6243 -0.3370
              Bcc     0.3030   152.166    54.297    50.757  0.4042  0.0370  0.9139
 

 ---------------------------------------------------------------------------------

 PrsmSu:  requested number of processors reduced to:  12 ShMem   1 Linda.
   1 Symmetry operations used in ECPInt.
 ECPInt:  NShTT=   20301 NPrTT=  123456 LenC2=   16498 LenP2D=   54025.
 LDataN:  DoStor=T MaxTD1= 7 Len=  274
 Number of processors reduced to  14 by ecpmxn.
 Calling FoFJK, ICntrl=      2127 FMM=T ISym2X=0 I1Cent= 0 IOpClX= 1 NMat=1 NMatS=1 NMatT=0.
 ***** Axes restored to original set *****
 -------------------------------------------------------------------
 Center     Atomic                   Forces (Hartrees/Bohr)
 Number     Number              X              Y              Z
 -------------------------------------------------------------------
      1        6           0.000000740   -0.000002117   -0.000004067
      2        6           0.000000672    0.000000573   -0.000000813
      3        6          -0.000000904   -0.000000551   -0.000003679
      4        6          -0.000001778   -0.000000118   -0.000003471
      5        6          -0.000002007   -0.000002853   -0.000004105
      6        6           0.000002567    0.000001646   -0.000000650
      7        6          -0.000000830   -0.000001546    0.000000052
      8        8          -0.000001595    0.000000147   -0.000000804
      9        6           0.000002609   -0.000002948    0.000003272
     10        6           0.000003155    0.000001886    0.000001380
     11        6          -0.000001576   -0.000000914    0.000001677
     12        6           0.000000458    0.000002060   -0.000000039
     13        6           0.000004259    0.000001749    0.000000586
     14        6          -0.000003863   -0.000001711    0.000005846
     15        6           0.000006714    0.000004019    0.000003376
     16        6          -0.000000276    0.000001847   -0.000001616
     17        6           0.000000831   -0.000000347    0.000001473
     18        6           0.000001020    0.000000494    0.000001789
     19        6           0.000002042    0.000003037    0.000001048
     20        6           0.000001813    0.000000767    0.000000111
     21        6          -0.000000145   -0.000001358    0.000005153
     22        6          -0.000000516   -0.000000292    0.000000176
     23        6          -0.000000359    0.000000529    0.000002792
     24        6          -0.000004018   -0.000002990    0.000001556
     25        6           0.000000739    0.000000681    0.000000745
     26        6           0.000000389    0.000001640    0.000006607
     27        6          -0.000002139   -0.000002118    0.000001186
     28        7          -0.000007118   -0.000003813   -0.000015910
     29        7          -0.000012293    0.000003772   -0.000016284
     30        1           0.000000197   -0.000000373   -0.000003129
     31        1          -0.000000615   -0.000000725   -0.000002693
     32        1          -0.000000079   -0.000000380   -0.000002168
     33        1           0.000000181   -0.000000475   -0.000002732
     34        1          -0.000001648   -0.000001011   -0.000002823
     35        1          -0.000001890   -0.000000608   -0.000002467
     36        1           0.000000348   -0.000001125   -0.000000457
     37        1          -0.000002131   -0.000001647   -0.000001200
     38        1          -0.000000770   -0.000000711   -0.000001043
     39        1           0.000001132   -0.000000741   -0.000002675
     40        1           0.000000231    0.000000824   -0.000000670
     41        1          -0.000000521   -0.000000528   -0.000000982
     42        1          -0.000000341   -0.000000723   -0.000003676
     43        1           0.000001373   -0.000000547   -0.000002801
     44        1           0.000000611    0.000000289   -0.000001123
     45        1           0.000000598    0.000000247    0.000000621
     46        1           0.000000724    0.000000816    0.000001364
     47        1          -0.000000044   -0.000000185    0.000000013
     48        1           0.000000988    0.000000484    0.000000006
     49        1           0.000001863    0.000001949    0.000001425
     50        1           0.000002291    0.000002567    0.000002274
     51        1           0.000001925    0.000001795    0.000002863
     52        1           0.000000375    0.000002232    0.000002888
     53        1          -0.000000767   -0.000000449    0.000002822
     54        1          -0.000001104   -0.000000973    0.000002008
     55        1          -0.000002118   -0.000001249    0.000003701
     56        1          -0.000001067   -0.000000276    0.000003389
     57        1           0.000000763    0.000001024    0.000003368
     58       28           0.000005643    0.000006596    0.000016345
     59        9           0.000004193   -0.000005970    0.000001271
     60        9           0.000001070   -0.000001294   -0.000001110
 -------------------------------------------------------------------
 Cartesian Forces:  Max     0.000016345 RMS     0.000003184

 GradGradGradGradGradGradGradGradGradGradGradGradGradGradGradGradGradGrad
 Berny optimization.
 FormGI is forming the generalized inverse of G from B-inverse, IUseBI=4.
 Internal  Forces:  Max     0.000008946 RMS     0.000001612
 Search for a local minimum.
 Step number   1 out of a maximum of  360
 All quantities printed in internal units (Hartrees-Bohrs-Radians)
 Mixed Optimization -- En-DIIS/RFO-DIIS
 Second derivative matrix not updated -- first step.
 ITU=  0
     Eigenvalues ---    0.00230   0.00249   0.00251   0.00253   0.00325
     Eigenvalues ---    0.00388   0.00444   0.00490   0.00555   0.01398
     Eigenvalues ---    0.01419   0.01420   0.01550   0.01703   0.01830
     Eigenvalues ---    0.01929   0.02054   0.02067   0.02076   0.02107
     Eigenvalues ---    0.02108   0.02111   0.02116   0.02128   0.02137
     Eigenvalues ---    0.02139   0.02145   0.02151   0.02153   0.02154
     Eigenvalues ---    0.02154   0.02154   0.02159   0.02162   0.02168
     Eigenvalues ---    0.02168   0.02214   0.02233   0.02338   0.03126
     Eigenvalues ---    0.03883   0.03959   0.04304   0.04336   0.04684
     Eigenvalues ---    0.04701   0.04862   0.05060   0.05195   0.05305
     Eigenvalues ---    0.05405   0.05461   0.05496   0.05496   0.05557
     Eigenvalues ---    0.05912   0.06629   0.07117   0.07897   0.08919
     Eigenvalues ---    0.08931   0.10403   0.11196   0.12474   0.12634
     Eigenvalues ---    0.13245   0.13505   0.14142   0.14345   0.14622
     Eigenvalues ---    0.15939   0.15982   0.15989   0.15993   0.15996
     Eigenvalues ---    0.15997   0.15999   0.15999   0.16000   0.16000
     Eigenvalues ---    0.16000   0.16000   0.16000   0.16000   0.16000
     Eigenvalues ---    0.16000   0.16000   0.16000   0.16000   0.16000
     Eigenvalues ---    0.16000   0.16000   0.16000   0.18677   0.20202
     Eigenvalues ---    0.20339   0.21443   0.21632   0.21998   0.21999
     Eigenvalues ---    0.21999   0.22000   0.22001   0.22094   0.23450
     Eigenvalues ---    0.23474   0.23568   0.24382   0.24431   0.24635
     Eigenvalues ---    0.24845   0.24923   0.24987   0.24996   0.26965
     Eigenvalues ---    0.27747   0.28599   0.28615   0.28624   0.29118
     Eigenvalues ---    0.29555   0.29953   0.30283   0.33643   0.33744
     Eigenvalues ---    0.33969   0.33976   0.33980   0.34009   0.34073
     Eigenvalues ---    0.34078   0.34093   0.34111   0.34118   0.34151
     Eigenvalues ---    0.34178   0.34227   0.34456   0.34779   0.34803
     Eigenvalues ---    0.35031   0.35188   0.35200   0.35207   0.35212
     Eigenvalues ---    0.35214   0.35215   0.35262   0.35337   0.35364
     Eigenvalues ---    0.35561   0.35601   0.35636   0.35756   0.41636
     Eigenvalues ---    0.41814   0.41876   0.41943   0.42007   0.43010
     Eigenvalues ---    0.45395   0.45552   0.45927   0.46026   0.46156
     Eigenvalues ---    0.46343   0.46427   0.46471   0.46736   0.47615
     Eigenvalues ---    0.50085   0.52860   0.57021   0.63606
 RFO step:  Lambda= 0.00000000D+00 EMin= 2.30000000D-03
 Linear search not attempted -- first point.
 Iteration  1 RMS(Cart)=  0.00019414 RMS(Int)=  0.00000001
 Iteration  2 RMS(Cart)=  0.00000002 RMS(Int)=  0.00000000
 Variable       Old X    -DE/DX   Delta X   Delta X   Delta X     New X
                                 (Linear)    (Quad)   (Total)
    R1        2.90793  -0.00000   0.00000  -0.00001  -0.00001   2.90793
    R2        2.07364   0.00000   0.00000   0.00000   0.00000   2.07364
    R3        2.07075   0.00000   0.00000   0.00000   0.00000   2.07075
    R4        2.07143   0.00000   0.00000   0.00000   0.00000   2.07143
    R5        2.90847   0.00000   0.00000   0.00000   0.00000   2.90848
    R6        2.90812   0.00000   0.00000   0.00001   0.00001   2.90813
    R7        2.92695   0.00000   0.00000   0.00001   0.00001   2.92696
    R8        2.07370   0.00000   0.00000   0.00000   0.00000   2.07370
    R9        2.07031   0.00000   0.00000   0.00000   0.00000   2.07031
   R10        2.07173  -0.00000   0.00000  -0.00000  -0.00000   2.07173
   R11        2.07199   0.00000   0.00000   0.00000   0.00000   2.07199
   R12        2.07316   0.00000   0.00000   0.00000   0.00000   2.07316
   R13        2.07207  -0.00000   0.00000  -0.00000  -0.00000   2.07207
   R14        2.89758  -0.00000   0.00000  -0.00000  -0.00000   2.89758
   R15        2.07764   0.00000   0.00000   0.00000   0.00000   2.07764
   R16        2.07383   0.00000   0.00000   0.00000   0.00000   2.07383
   R17        2.92914   0.00000   0.00000   0.00001   0.00001   2.92915
   R18        2.78058   0.00000   0.00000   0.00001   0.00001   2.78059
   R19        2.07131  -0.00000   0.00000  -0.00000  -0.00000   2.07131
   R20        2.76629  -0.00000   0.00000  -0.00001  -0.00001   2.76629
   R21        2.05996   0.00000   0.00000   0.00000   0.00000   2.05996
   R22        2.06948  -0.00000   0.00000  -0.00000  -0.00000   2.06948
   R23        2.53770  -0.00000   0.00000  -0.00000  -0.00000   2.53770
   R24        2.77169   0.00000   0.00000   0.00000   0.00000   2.77169
   R25        2.42368   0.00001   0.00000   0.00001   0.00001   2.42369
   R26        2.61759  -0.00000   0.00000  -0.00000  -0.00000   2.61759
   R27        2.55599   0.00000   0.00000   0.00000   0.00000   2.55599
   R28        2.64609  -0.00000   0.00000  -0.00001  -0.00001   2.64608
   R29        2.04773   0.00000   0.00000   0.00000   0.00000   2.04773
   R30        2.62104  -0.00000   0.00000  -0.00000  -0.00000   2.62104
   R31        2.05131   0.00000   0.00000   0.00000   0.00000   2.05131
   R32        2.65649  -0.00000   0.00000  -0.00000  -0.00000   2.65649
   R33        2.04654  -0.00000   0.00000  -0.00000  -0.00000   2.04654
   R34        2.87402  -0.00000   0.00000  -0.00001  -0.00001   2.87401
   R35        2.52037   0.00000   0.00000   0.00000   0.00000   2.52038
   R36        2.88056   0.00000   0.00000   0.00000   0.00000   2.88056
   R37        2.88860   0.00000   0.00000   0.00000   0.00000   2.88860
   R38        2.06568   0.00000   0.00000   0.00000   0.00000   2.06568
   R39        2.64928  -0.00000   0.00000  -0.00000  -0.00000   2.64927
   R40        2.64889   0.00000   0.00000   0.00001   0.00001   2.64890
   R41        2.63627   0.00000   0.00000   0.00000   0.00000   2.63627
   R42        2.05624   0.00000   0.00000   0.00000   0.00000   2.05624
   R43        2.63635  -0.00000   0.00000  -0.00000  -0.00000   2.63634
   R44        2.05327   0.00000   0.00000   0.00000   0.00000   2.05327
   R45        2.63693   0.00000   0.00000   0.00000   0.00000   2.63693
   R46        2.05328   0.00000   0.00000   0.00000   0.00000   2.05328
   R47        2.63585  -0.00000   0.00000  -0.00000  -0.00000   2.63584
   R48        2.05351   0.00000   0.00000   0.00000   0.00000   2.05351
   R49        2.05088  -0.00000   0.00000  -0.00000  -0.00000   2.05088
   R50        2.65692  -0.00000   0.00000  -0.00000  -0.00000   2.65692
   R51        2.63859   0.00000   0.00000   0.00000   0.00000   2.63859
   R52        2.63159   0.00000   0.00000   0.00000   0.00000   2.63160
   R53        2.06035  -0.00000   0.00000  -0.00000  -0.00000   2.06035
   R54        2.64048  -0.00000   0.00000  -0.00000  -0.00000   2.64048
   R55        2.05333   0.00000   0.00000   0.00000   0.00000   2.05333
   R56        2.63231   0.00000   0.00000   0.00000   0.00000   2.63231
   R57        2.05340   0.00000   0.00000   0.00000   0.00000   2.05340
   R58        2.64147  -0.00000   0.00000  -0.00000  -0.00000   2.64147
   R59        2.05371   0.00000   0.00000   0.00000   0.00000   2.05371
   R60        2.04710   0.00000   0.00000   0.00000   0.00000   2.04710
   R61        3.90102  -0.00001   0.00000  -0.00004  -0.00004   3.90098
   R62        3.82891  -0.00001   0.00000  -0.00005  -0.00005   3.82885
   R63        3.47968   0.00000   0.00000   0.00000   0.00000   3.47968
   R64        3.47384  -0.00000   0.00000  -0.00001  -0.00001   3.47383
    A1        1.94455   0.00000   0.00000   0.00000   0.00000   1.94455
    A2        1.93101  -0.00000   0.00000  -0.00000  -0.00000   1.93101
    A3        1.93545  -0.00000   0.00000  -0.00000  -0.00000   1.93544
    A4        1.88193   0.00000   0.00000   0.00000   0.00000   1.88193
    A5        1.88698   0.00000   0.00000   0.00000   0.00000   1.88698
    A6        1.88167   0.00000   0.00000  -0.00000  -0.00000   1.88167
    A7        1.90200  -0.00000   0.00000  -0.00002  -0.00002   1.90199
    A8        1.90072   0.00000   0.00000  -0.00001  -0.00001   1.90071
    A9        1.87157  -0.00000   0.00000  -0.00001  -0.00001   1.87156
   A10        1.91019   0.00000   0.00000   0.00001   0.00001   1.91020
   A11        1.91922   0.00000   0.00000   0.00002   0.00002   1.91923
   A12        1.95900   0.00000   0.00000   0.00001   0.00001   1.95901
   A13        1.94251  -0.00000   0.00000  -0.00000  -0.00000   1.94251
   A14        1.92621  -0.00000   0.00000  -0.00000  -0.00000   1.92620
   A15        1.95542   0.00000   0.00000   0.00000   0.00000   1.95542
   A16        1.88163   0.00000   0.00000  -0.00000  -0.00000   1.88163
   A17        1.88680   0.00000   0.00000   0.00000   0.00000   1.88681
   A18        1.86809  -0.00000   0.00000  -0.00000  -0.00000   1.86809
   A19        1.95329  -0.00000   0.00000  -0.00001  -0.00001   1.95328
   A20        1.95972   0.00000   0.00000   0.00001   0.00001   1.95973
   A21        1.91736  -0.00000   0.00000  -0.00000  -0.00000   1.91735
   A22        1.89826  -0.00000   0.00000  -0.00001  -0.00001   1.89825
   A23        1.87125   0.00000   0.00000   0.00000   0.00000   1.87126
   A24        1.85954  -0.00000   0.00000   0.00000   0.00000   1.85954
   A25        2.03488   0.00001   0.00000   0.00003   0.00003   2.03491
   A26        1.88083  -0.00000   0.00000  -0.00001  -0.00001   1.88083
   A27        1.91570  -0.00000   0.00000   0.00000   0.00000   1.91570
   A28        1.88693  -0.00000   0.00000  -0.00001  -0.00001   1.88692
   A29        1.87603  -0.00000   0.00000  -0.00000  -0.00000   1.87603
   A30        1.86223   0.00000   0.00000  -0.00001  -0.00001   1.86222
   A31        1.99209  -0.00000   0.00000  -0.00001  -0.00001   1.99208
   A32        1.96730   0.00000   0.00000   0.00000   0.00000   1.96730
   A33        1.92582   0.00000   0.00000   0.00000   0.00000   1.92582
   A34        1.77509  -0.00000   0.00000   0.00000   0.00000   1.77510
   A35        1.92749  -0.00000   0.00000  -0.00001  -0.00001   1.92749
   A36        1.86776   0.00000   0.00000   0.00001   0.00001   1.86776
   A37        1.82672   0.00000   0.00000   0.00001   0.00001   1.82672
   A38        1.99630  -0.00000   0.00000  -0.00001  -0.00001   1.99629
   A39        1.96089   0.00000   0.00000   0.00001   0.00001   1.96090
   A40        1.88045  -0.00000   0.00000  -0.00000  -0.00000   1.88044
   A41        1.87187  -0.00000   0.00000  -0.00000  -0.00000   1.87187
   A42        1.91941  -0.00000   0.00000  -0.00000  -0.00000   1.91941
   A43        1.83279   0.00000   0.00000   0.00000   0.00000   1.83280
   A44        2.11431  -0.00000   0.00000  -0.00002  -0.00002   2.11430
   A45        2.05742   0.00000   0.00000   0.00001   0.00001   2.05743
   A46        2.11131   0.00000   0.00000   0.00001   0.00001   2.11132
   A47        2.18040  -0.00000   0.00000  -0.00000  -0.00000   2.18040
   A48        1.96009   0.00000   0.00000   0.00000   0.00000   1.96009
   A49        2.14233  -0.00000   0.00000  -0.00000  -0.00000   2.14233
   A50        2.04768   0.00000   0.00000  -0.00000  -0.00000   2.04768
   A51        2.10195  -0.00000   0.00000  -0.00000  -0.00000   2.10194
   A52        2.13333   0.00000   0.00000   0.00000   0.00000   2.13334
   A53        2.08804   0.00000   0.00000   0.00000   0.00000   2.08804
   A54        2.09597  -0.00000   0.00000   0.00000   0.00000   2.09597
   A55        2.09917  -0.00000   0.00000  -0.00000  -0.00000   2.09917
   A56        2.09119   0.00000   0.00000   0.00000   0.00000   2.09119
   A57        2.10996  -0.00000   0.00000  -0.00000  -0.00000   2.10996
   A58        2.08203  -0.00000   0.00000  -0.00000  -0.00000   2.08203
   A59        2.15282   0.00000   0.00000   0.00002   0.00002   2.15284
   A60        2.09322  -0.00000   0.00000  -0.00001  -0.00001   2.09321
   A61        2.03701  -0.00000   0.00000  -0.00001  -0.00001   2.03700
   A62        1.89984   0.00000   0.00000   0.00003   0.00003   1.89987
   A63        1.92520   0.00000   0.00000   0.00001   0.00001   1.92521
   A64        1.83862  -0.00000   0.00000  -0.00001  -0.00001   1.83861
   A65        2.08812  -0.00000   0.00000  -0.00002  -0.00002   2.08810
   A66        1.83331   0.00000   0.00000   0.00000   0.00000   1.83332
   A67        1.86039   0.00000   0.00000  -0.00002  -0.00002   1.86037
   A68        2.04560  -0.00000   0.00000  -0.00000  -0.00000   2.04560
   A69        2.16015   0.00000   0.00000   0.00001   0.00001   2.16016
   A70        2.07490  -0.00000   0.00000  -0.00000  -0.00000   2.07489
   A71        2.10084   0.00000   0.00000   0.00000   0.00000   2.10085
   A72        2.07340  -0.00000   0.00000  -0.00001  -0.00001   2.07339
   A73        2.10834   0.00000   0.00000   0.00000   0.00000   2.10835
   A74        2.10135   0.00000   0.00000  -0.00000  -0.00000   2.10135
   A75        2.08523   0.00000   0.00000   0.00000   0.00000   2.08523
   A76        2.09659  -0.00000   0.00000  -0.00000  -0.00000   2.09659
   A77        2.08654   0.00000   0.00000  -0.00000  -0.00000   2.08654
   A78        2.10020  -0.00000   0.00000  -0.00000  -0.00000   2.10020
   A79        2.09641   0.00000   0.00000   0.00000   0.00000   2.09641
   A80        2.09748   0.00000   0.00000   0.00000   0.00000   2.09749
   A81        2.09749  -0.00000   0.00000  -0.00000  -0.00000   2.09749
   A82        2.08821   0.00000   0.00000   0.00000   0.00000   2.08821
   A83        2.10484   0.00000   0.00000   0.00000   0.00000   2.10484
   A84        2.10238   0.00000   0.00000   0.00000   0.00000   2.10238
   A85        2.07595  -0.00000   0.00000  -0.00000  -0.00000   2.07595
   A86        2.03414  -0.00000   0.00000  -0.00000  -0.00000   2.03414
   A87        2.16918  -0.00000   0.00000  -0.00000  -0.00000   2.16917
   A88        2.07946   0.00000   0.00000   0.00000   0.00000   2.07946
   A89        2.09750  -0.00000   0.00000  -0.00000  -0.00000   2.09750
   A90        2.09690  -0.00000   0.00000  -0.00001  -0.00001   2.09689
   A91        2.08778   0.00000   0.00000   0.00001   0.00001   2.08779
   A92        2.10237  -0.00000   0.00000  -0.00000  -0.00000   2.10237
   A93        2.08328  -0.00000   0.00000  -0.00000  -0.00000   2.08327
   A94        2.09745   0.00000   0.00000   0.00000   0.00000   2.09745
   A95        2.08510  -0.00000   0.00000   0.00000   0.00000   2.08510
   A96        2.09935   0.00000   0.00000   0.00000   0.00000   2.09935
   A97        2.09859  -0.00000   0.00000  -0.00000  -0.00000   2.09858
   A98        2.10015   0.00000   0.00000   0.00000   0.00000   2.10015
   A99        2.09799  -0.00000   0.00000  -0.00000  -0.00000   2.09799
   A100       2.08501   0.00000   0.00000   0.00000   0.00000   2.08502
   A101       2.10125  -0.00000   0.00000  -0.00000  -0.00000   2.10125
   A102       2.09867  -0.00000   0.00000  -0.00000  -0.00000   2.09867
   A103       2.08289   0.00000   0.00000   0.00001   0.00001   2.08290
   A104       2.10278  -0.00000   0.00000   0.00000   0.00000   2.10278
   A105       1.97189  -0.00000   0.00000  -0.00001  -0.00001   1.97187
   A106       2.19295   0.00001   0.00000   0.00003   0.00003   2.19298
   A107       1.89261  -0.00000   0.00000  -0.00000  -0.00000   1.89261
   A108       2.41947   0.00001   0.00000   0.00003   0.00003   2.41950
   A109       1.96113  -0.00001   0.00000  -0.00002  -0.00002   1.96111
   A110       1.40671   0.00001   0.00000   0.00003   0.00003   1.40674
   A111       1.72749  -0.00001   0.00000  -0.00006  -0.00006   1.72743
   A112       1.83782  -0.00000   0.00000   0.00001   0.00001   1.83782
   A113       1.72036  -0.00001   0.00000  -0.00003  -0.00003   1.72032
   A114       2.07263   0.00000   0.00000   0.00003   0.00003   2.07265
   A115       2.40727   0.00001   0.00000   0.00002   0.00002   2.40730
    D1       -1.06950  -0.00000   0.00000  -0.00001  -0.00001  -1.06951
    D2        3.13095   0.00000   0.00000  -0.00000  -0.00000   3.13094
    D3        1.00728   0.00000   0.00000  -0.00000  -0.00000   1.00728
    D4        1.02387  -0.00000   0.00000  -0.00000  -0.00000   1.02386
    D5       -1.05887   0.00000   0.00000  -0.00000  -0.00000  -1.05887
    D6        3.10065   0.00000   0.00000  -0.00000  -0.00000   3.10065
    D7        3.11095  -0.00000   0.00000  -0.00001  -0.00001   3.11094
    D8        1.02821  -0.00000   0.00000  -0.00000  -0.00000   1.02820
    D9       -1.09546   0.00000   0.00000  -0.00000  -0.00000  -1.09546
   D10        1.05178  -0.00000   0.00000   0.00005   0.00005   1.05183
   D11       -1.03669   0.00000   0.00000   0.00006   0.00006  -1.03663
   D12       -3.11652   0.00000   0.00000   0.00006   0.00006  -3.11646
   D13        3.12862  -0.00000   0.00000   0.00004   0.00004   3.12866
   D14        1.04015  -0.00000   0.00000   0.00004   0.00004   1.04020
   D15       -1.03968  -0.00000   0.00000   0.00005   0.00005  -1.03963
   D16       -0.99501   0.00000   0.00000   0.00007   0.00007  -0.99494
   D17       -3.08348   0.00000   0.00000   0.00007   0.00007  -3.08341
   D18        1.11987   0.00000   0.00000   0.00008   0.00008   1.11995
   D19       -1.06973  -0.00000   0.00000  -0.00010  -0.00010  -1.06983
   D20        3.07277  -0.00000   0.00000  -0.00009  -0.00009   3.07268
   D21        1.00681  -0.00000   0.00000  -0.00010  -0.00010   1.00671
   D22        3.13582   0.00000   0.00000  -0.00008  -0.00008   3.13574
   D23        0.99514   0.00000   0.00000  -0.00007  -0.00007   0.99506
   D24       -1.07082   0.00000   0.00000  -0.00008  -0.00008  -1.07091
   D25        0.99986  -0.00000   0.00000  -0.00011  -0.00011   0.99974
   D26       -1.14083  -0.00000   0.00000  -0.00011  -0.00011  -1.14093
   D27        3.07640  -0.00000   0.00000  -0.00012  -0.00012   3.07628
   D28        3.04342   0.00000   0.00000  -0.00018  -0.00018   3.04323
   D29       -1.11576   0.00000   0.00000  -0.00019  -0.00019  -1.11594
   D30        0.90584  -0.00000   0.00000  -0.00020  -0.00020   0.90564
   D31       -1.17412  -0.00000   0.00000  -0.00020  -0.00020  -1.17432
   D32        0.94990  -0.00000   0.00000  -0.00021  -0.00021   0.94969
   D33        2.97149  -0.00000   0.00000  -0.00022  -0.00022   2.97127
   D34        0.95672   0.00000   0.00000  -0.00017  -0.00017   0.95655
   D35        3.08073   0.00000   0.00000  -0.00018  -0.00018   3.08056
   D36       -1.18086  -0.00000   0.00000  -0.00019  -0.00019  -1.18105
   D37        2.73392  -0.00000   0.00000  -0.00012  -0.00012   2.73380
   D38       -1.53549  -0.00000   0.00000  -0.00012  -0.00012  -1.53561
   D39        0.55147  -0.00000   0.00000  -0.00011  -0.00011   0.55136
   D40        0.61311  -0.00000   0.00000  -0.00012  -0.00012   0.61299
   D41        2.62689  -0.00000   0.00000  -0.00012  -0.00012   2.62677
   D42       -1.56934  -0.00000   0.00000  -0.00011  -0.00011  -1.56944
   D43       -1.39116   0.00000   0.00000  -0.00010  -0.00010  -1.39126
   D44        0.62263  -0.00000   0.00000  -0.00010  -0.00010   0.62253
   D45        2.70958   0.00000   0.00000  -0.00009  -0.00009   2.70949
   D46        2.38069   0.00000   0.00000  -0.00006  -0.00006   2.38063
   D47       -1.84875   0.00000   0.00000  -0.00006  -0.00006  -1.84880
   D48        0.35539  -0.00000   0.00000  -0.00006  -0.00006   0.35533
   D49        0.25713   0.00000   0.00000  -0.00006  -0.00006   0.25708
   D50        2.31089  -0.00000   0.00000  -0.00006  -0.00006   2.31083
   D51       -1.76816  -0.00000   0.00000  -0.00006  -0.00006  -1.76823
   D52       -1.72094  -0.00000   0.00000  -0.00006  -0.00006  -1.72100
   D53        0.33282  -0.00000   0.00000  -0.00007  -0.00007   0.33275
   D54        2.53695  -0.00000   0.00000  -0.00007  -0.00007   2.53688
   D55       -2.33711   0.00000   0.00000   0.00006   0.00006  -2.33704
   D56        0.97604   0.00000   0.00000  -0.00001  -0.00001   0.97603
   D57       -0.19647   0.00000   0.00000   0.00006   0.00006  -0.19641
   D58        3.11668  -0.00000   0.00000  -0.00002  -0.00002   3.11666
   D59        1.82583   0.00000   0.00000   0.00005   0.00005   1.82589
   D60       -1.14421  -0.00000   0.00000  -0.00002  -0.00002  -1.14423
   D61       -0.23285  -0.00000   0.00000   0.00004   0.00004  -0.23281
   D62       -2.36425   0.00000   0.00000   0.00005   0.00005  -2.36420
   D63        1.85330   0.00000   0.00000   0.00006   0.00006   1.85335
   D64       -3.03777  -0.00000   0.00000  -0.00003  -0.00003  -3.03779
   D65        0.12161   0.00000   0.00000  -0.00001  -0.00001   0.12161
   D66       -0.08414   0.00000   0.00000   0.00002   0.00002  -0.08412
   D67        3.08591   0.00000   0.00000   0.00004   0.00004   3.08594
   D68        3.03911  -0.00000   0.00000   0.00000   0.00000   3.03911
   D69       -0.07402  -0.00000   0.00000   0.00001   0.00001  -0.07401
   D70        0.05743  -0.00000   0.00000  -0.00003  -0.00003   0.05740
   D71        3.07670   0.00000   0.00000   0.00003   0.00003   3.07673
   D72       -3.06641   0.00000   0.00000  -0.00001  -0.00001  -3.06642
   D73       -0.04714   0.00000   0.00000   0.00005   0.00005  -0.04709
   D74       -3.08001   0.00000   0.00000   0.00001   0.00001  -3.07999
   D75        0.03936   0.00000   0.00000  -0.00001  -0.00001   0.03936
   D76        0.03028  -0.00000   0.00000  -0.00000  -0.00000   0.03028
   D77       -3.13353  -0.00000   0.00000  -0.00002  -0.00002  -3.13356
   D78        3.11620  -0.00000   0.00000   0.00003   0.00003   3.11623
   D79        0.15292  -0.00000   0.00000  -0.00007  -0.00007   0.15285
   D80        0.00235   0.00000   0.00000   0.00004   0.00004   0.00239
   D81       -2.96093  -0.00000   0.00000  -0.00006  -0.00006  -2.96099
   D82       -0.02420  -0.00000   0.00000  -0.00002  -0.00002  -0.02422
   D83        3.11406  -0.00000   0.00000  -0.00001  -0.00001   3.11404
   D84        3.14004   0.00000   0.00000   0.00000   0.00000   3.14004
   D85       -0.00489   0.00000   0.00000   0.00000   0.00000  -0.00488
   D86       -0.01208  -0.00000   0.00000   0.00000   0.00000  -0.01207
   D87        3.12568   0.00000   0.00000   0.00001   0.00001   3.12569
   D88        3.13286   0.00000   0.00000   0.00000   0.00000   3.13286
   D89       -0.01257   0.00000   0.00000   0.00001   0.00001  -0.01256
   D90       -3.07851   0.00000   0.00000   0.00001   0.00001  -3.07850
   D91        0.04531   0.00000   0.00000   0.00003   0.00003   0.04534
   D92        0.06686   0.00000   0.00000   0.00000   0.00000   0.06686
   D93       -3.09252   0.00000   0.00000   0.00003   0.00003  -3.09249
   D94        1.21284  -0.00000   0.00000  -0.00006  -0.00006   1.21277
   D95       -1.11060   0.00000   0.00000  -0.00007  -0.00007  -1.11067
   D96       -3.11185   0.00000   0.00000  -0.00005  -0.00005  -3.11190
   D97       -1.91151  -0.00000   0.00000  -0.00009  -0.00009  -1.91160
   D98        2.04824  -0.00000   0.00000  -0.00010  -0.00010   2.04814
   D99        0.04699   0.00000   0.00000  -0.00008  -0.00008   0.04691
   D100      -0.04046  -0.00000   0.00000  -0.00006  -0.00006  -0.04052
   D101       2.89881   0.00000   0.00000   0.00005   0.00005   2.89886
   D102       3.08450  -0.00000   0.00000  -0.00003  -0.00003   3.08448
   D103      -0.25941   0.00000   0.00000   0.00008   0.00008  -0.25933
   D104       1.75787  -0.00000   0.00000  -0.00004  -0.00004   1.75783
   D105      -1.30618  -0.00000   0.00000  -0.00007  -0.00007  -1.30624
   D106      -2.29060   0.00000   0.00000  -0.00002  -0.00002  -2.29062
   D107       0.92854   0.00000   0.00000  -0.00004  -0.00004   0.92850
   D108      -0.20414  -0.00000   0.00000  -0.00005  -0.00005  -0.20418
   D109       3.01500  -0.00000   0.00000  -0.00007  -0.00007   3.01493
   D110      -1.05692   0.00000   0.00000   0.00002   0.00002  -1.05689
   D111       2.11602   0.00000   0.00000   0.00005   0.00005   2.11607
   D112       3.00322  -0.00000   0.00000  -0.00001  -0.00001   3.00321
   D113      -0.10703  -0.00000   0.00000   0.00002   0.00002  -0.10701
   D114       0.93051  -0.00000   0.00000   0.00001   0.00001   0.93052
   D115      -2.17974   0.00000   0.00000   0.00004   0.00004  -2.17970
   D116      -3.09666  -0.00000   0.00000  -0.00001  -0.00001  -3.09667
   D117       0.00791  -0.00000   0.00000  -0.00001  -0.00001   0.00790
   D118      -0.02868   0.00000   0.00000   0.00001   0.00001  -0.02867
   D119       3.07589   0.00000   0.00000   0.00001   0.00001   3.07590
   D120       3.09244   0.00000   0.00000   0.00001   0.00001   3.09245
   D121      -0.05508   0.00000   0.00000   0.00001   0.00001  -0.05507
   D122       0.02961  -0.00000   0.00000  -0.00001  -0.00001   0.02960
   D123      -3.11790  -0.00000   0.00000  -0.00001  -0.00001  -3.11792
   D124       0.00892  -0.00000   0.00000  -0.00001  -0.00001   0.00891
   D125      -3.13849  -0.00000   0.00000  -0.00001  -0.00001  -3.13850
   D126      -3.09491  -0.00000   0.00000  -0.00000  -0.00000  -3.09491
   D127       0.04087  -0.00000   0.00000  -0.00001  -0.00001   0.04086
   D128       0.01040  -0.00000   0.00000  -0.00000  -0.00000   0.01040
   D129      -3.13897  -0.00000   0.00000  -0.00000  -0.00000  -3.13898
   D130      -3.12534   0.00000   0.00000   0.00000   0.00000  -3.12534
   D131       0.00847   0.00000   0.00000   0.00000   0.00000   0.00847
   D132      -0.00952   0.00000   0.00000   0.00001   0.00001  -0.00951
   D133       3.13193  -0.00000   0.00000   0.00000   0.00000   3.13193
   D134       3.13984   0.00000   0.00000   0.00001   0.00001   3.13985
   D135      -0.00190   0.00000   0.00000   0.00000   0.00000  -0.00190
   D136      -0.01069  -0.00000   0.00000  -0.00000  -0.00000  -0.01069
   D137       3.13673   0.00000   0.00000   0.00000   0.00000   3.13674
   D138       3.13105   0.00000   0.00000   0.00001   0.00001   3.13105
   D139      -0.00472   0.00000   0.00000   0.00001   0.00001  -0.00470
   D140       3.14111   0.00000   0.00000   0.00003   0.00003   3.14114
   D141      -0.04903   0.00000   0.00000   0.00003   0.00003  -0.04900
   D142      -0.03013   0.00000   0.00000   0.00001   0.00001  -0.03012
   D143       3.06291   0.00000   0.00000   0.00000   0.00000   3.06292
   D144       3.13949  -0.00000   0.00000  -0.00003  -0.00003   3.13946
   D145       0.02726  -0.00000   0.00000  -0.00002  -0.00002   0.02724
   D146       0.03000  -0.00000   0.00000  -0.00001  -0.00001   0.02999
   D147      -3.08223  -0.00000   0.00000   0.00000   0.00000  -3.08223
   D148       0.00588  -0.00000   0.00000  -0.00000  -0.00000   0.00588
   D149       3.13310   0.00000   0.00000   0.00000   0.00000   3.13310
   D150      -3.08742   0.00000   0.00000   0.00000   0.00000  -3.08742
   D151       0.03981   0.00000   0.00000   0.00000   0.00000   0.03981
   D152       0.01873  -0.00000   0.00000  -0.00000  -0.00000   0.01873
   D153      -3.14138  -0.00000   0.00000  -0.00000  -0.00000  -3.14139
   D154      -3.10838  -0.00000   0.00000  -0.00001  -0.00001  -3.10838
   D155       0.01469  -0.00000   0.00000  -0.00001  -0.00001   0.01469
   D156      -0.01891   0.00000   0.00000   0.00000   0.00000  -0.01890
   D157       3.11456  -0.00000   0.00000  -0.00000  -0.00000   3.11456
   D158       3.14120   0.00000   0.00000   0.00000   0.00000   3.14121
   D159      -0.00851  -0.00000   0.00000  -0.00001  -0.00001  -0.00852
   D160      -0.00560   0.00000   0.00000   0.00000   0.00000  -0.00560
   D161       3.10689  -0.00000   0.00000  -0.00001  -0.00001   3.10688
   D162      -3.13913   0.00000   0.00000   0.00001   0.00001  -3.13912
   D163      -0.02664   0.00000   0.00000  -0.00000  -0.00000  -0.02664
   D164      -0.14192   0.00000   0.00000   0.00007   0.00007  -0.14184
   D165       1.55597  -0.00000   0.00000   0.00005   0.00005   1.55602
   D166      -2.19094  -0.00000   0.00000   0.00004   0.00004  -2.19090
   D167      -3.09428   0.00000   0.00000  -0.00003  -0.00003  -3.09431
   D168      -1.39640  -0.00000   0.00000  -0.00005  -0.00005  -1.39644
   D169       1.13988  -0.00000   0.00000  -0.00006  -0.00006   1.13982
   D170       3.06526  -0.00000   0.00000   0.00002   0.00002   3.06527
   D171       1.35903   0.00000   0.00000   0.00007   0.00007   1.35910
   D172      -1.43124   0.00000   0.00000   0.00004   0.00004  -1.43120
   D173       0.09969  -0.00000   0.00000  -0.00006  -0.00006   0.09963
   D174      -1.60653   0.00000   0.00000  -0.00001  -0.00001  -1.60654
   D175       1.88638   0.00000   0.00000  -0.00004  -0.00004   1.88634
         Item               Value     Threshold  Converged?
 Maximum Force            0.000009     0.000450     YES
 RMS     Force            0.000002     0.000300     YES
 Maximum Displacement     0.001257     0.001800     YES
 RMS     Displacement     0.000194     0.001200     YES
 Predicted change in Energy=-4.009947D-09
 Optimization completed.
    -- Stationary point found.
                           ----------------------------
                           !   Optimized Parameters   !
                           ! (Angstroms and Degrees)  !
 --------------------------                            --------------------------
 ! Name  Definition              Value          Derivative Info.                !
 --------------------------------------------------------------------------------
 ! R1    R(1,2)                  1.5388         -DE/DX =    0.0                 !
 ! R2    R(1,30)                 1.0973         -DE/DX =    0.0                 !
 ! R3    R(1,31)                 1.0958         -DE/DX =    0.0                 !
 ! R4    R(1,32)                 1.0962         -DE/DX =    0.0                 !
 ! R5    R(2,3)                  1.5391         -DE/DX =    0.0                 !
 ! R6    R(2,4)                  1.5389         -DE/DX =    0.0                 !
 ! R7    R(2,5)                  1.5489         -DE/DX =    0.0                 !
 ! R8    R(3,33)                 1.0974         -DE/DX =    0.0                 !
 ! R9    R(3,34)                 1.0956         -DE/DX =    0.0                 !
 ! R10   R(3,35)                 1.0963         -DE/DX =    0.0                 !
 ! R11   R(4,36)                 1.0964         -DE/DX =    0.0                 !
 ! R12   R(4,37)                 1.0971         -DE/DX =    0.0                 !
 ! R13   R(4,38)                 1.0965         -DE/DX =    0.0                 !
 ! R14   R(5,6)                  1.5333         -DE/DX =    0.0                 !
 ! R15   R(5,39)                 1.0994         -DE/DX =    0.0                 !
 ! R16   R(5,40)                 1.0974         -DE/DX =    0.0                 !
 ! R17   R(6,7)                  1.55           -DE/DX =    0.0                 !
 ! R18   R(6,29)                 1.4714         -DE/DX =    0.0                 !
 ! R19   R(6,41)                 1.0961         -DE/DX =    0.0                 !
 ! R20   R(7,8)                  1.4639         -DE/DX =    0.0                 !
 ! R21   R(7,42)                 1.0901         -DE/DX =    0.0                 !
 ! R22   R(7,43)                 1.0951         -DE/DX =    0.0                 !
 ! R23   R(8,9)                  1.3429         -DE/DX =    0.0                 !
 ! R24   R(9,10)                 1.4667         -DE/DX =    0.0                 !
 ! R25   R(9,29)                 1.2826         -DE/DX =    0.0                 !
 ! R26   R(10,11)                1.3852         -DE/DX =    0.0                 !
 ! R27   R(10,28)                1.3526         -DE/DX =    0.0                 !
 ! R28   R(11,12)                1.4003         -DE/DX =    0.0                 !
 ! R29   R(11,44)                1.0836         -DE/DX =    0.0                 !
 ! R30   R(12,13)                1.387          -DE/DX =    0.0                 !
 ! R31   R(12,45)                1.0855         -DE/DX =    0.0                 !
 ! R32   R(13,14)                1.4058         -DE/DX =    0.0                 !
 ! R33   R(13,46)                1.083          -DE/DX =    0.0                 !
 ! R34   R(14,15)                1.5209         -DE/DX =    0.0                 !
 ! R35   R(14,28)                1.3337         -DE/DX =    0.0                 !
 ! R36   R(15,16)                1.5243         -DE/DX =    0.0                 !
 ! R37   R(15,22)                1.5286         -DE/DX =    0.0                 !
 ! R38   R(15,47)                1.0931         -DE/DX =    0.0                 !
 ! R39   R(16,17)                1.4019         -DE/DX =    0.0                 !
 ! R40   R(16,21)                1.4017         -DE/DX =    0.0                 !
 ! R41   R(17,18)                1.3951         -DE/DX =    0.0                 !
 ! R42   R(17,48)                1.0881         -DE/DX =    0.0                 !
 ! R43   R(18,19)                1.3951         -DE/DX =    0.0                 !
 ! R44   R(18,49)                1.0865         -DE/DX =    0.0                 !
 ! R45   R(19,20)                1.3954         -DE/DX =    0.0                 !
 ! R46   R(19,50)                1.0865         -DE/DX =    0.0                 !
 ! R47   R(20,21)                1.3948         -DE/DX =    0.0                 !
 ! R48   R(20,51)                1.0867         -DE/DX =    0.0                 !
 ! R49   R(21,52)                1.0853         -DE/DX =    0.0                 !
 ! R50   R(22,23)                1.406          -DE/DX =    0.0                 !
 ! R51   R(22,27)                1.3963         -DE/DX =    0.0                 !
 ! R52   R(23,24)                1.3926         -DE/DX =    0.0                 !
 ! R53   R(23,53)                1.0903         -DE/DX =    0.0                 !
 ! R54   R(24,25)                1.3973         -DE/DX =    0.0                 !
 ! R55   R(24,54)                1.0866         -DE/DX =    0.0                 !
 ! R56   R(25,26)                1.393          -DE/DX =    0.0                 !
 ! R57   R(25,55)                1.0866         -DE/DX =    0.0                 !
 ! R58   R(26,27)                1.3978         -DE/DX =    0.0                 !
 ! R59   R(26,56)                1.0868         -DE/DX =    0.0                 !
 ! R60   R(27,57)                1.0833         -DE/DX =    0.0                 !
 ! R61   R(28,58)                2.0643         -DE/DX =    0.0                 !
 ! R62   R(29,58)                2.0262         -DE/DX =    0.0                 !
 ! R63   R(58,59)                1.8414         -DE/DX =    0.0                 !
 ! R64   R(58,60)                1.8383         -DE/DX =    0.0                 !
 ! A1    A(2,1,30)             111.4146         -DE/DX =    0.0                 !
 ! A2    A(2,1,31)             110.6386         -DE/DX =    0.0                 !
 ! A3    A(2,1,32)             110.8929         -DE/DX =    0.0                 !
 ! A4    A(30,1,31)            107.8268         -DE/DX =    0.0                 !
 ! A5    A(30,1,32)            108.1158         -DE/DX =    0.0                 !
 ! A6    A(31,1,32)            107.8119         -DE/DX =    0.0                 !
 ! A7    A(1,2,3)              108.9768         -DE/DX =    0.0                 !
 ! A8    A(1,2,4)              108.9033         -DE/DX =    0.0                 !
 ! A9    A(1,2,5)              107.2331         -DE/DX =    0.0                 !
 ! A10   A(3,2,4)              109.4456         -DE/DX =    0.0                 !
 ! A11   A(3,2,5)              109.963          -DE/DX =    0.0                 !
 ! A12   A(4,2,5)              112.2423         -DE/DX =    0.0                 !
 ! A13   A(2,3,33)             111.2975         -DE/DX =    0.0                 !
 ! A14   A(2,3,34)             110.3636         -DE/DX =    0.0                 !
 ! A15   A(2,3,35)             112.0372         -DE/DX =    0.0                 !
 ! A16   A(33,3,34)            107.8097         -DE/DX =    0.0                 !
 ! A17   A(33,3,35)            108.1059         -DE/DX =    0.0                 !
 ! A18   A(34,3,35)            107.0338         -DE/DX =    0.0                 !
 ! A19   A(2,4,36)             111.9153         -DE/DX =    0.0                 !
 ! A20   A(2,4,37)             112.2834         -DE/DX =    0.0                 !
 ! A21   A(2,4,38)             109.8564         -DE/DX =    0.0                 !
 ! A22   A(36,4,37)            108.7621         -DE/DX =    0.0                 !
 ! A23   A(36,4,38)            107.2149         -DE/DX =    0.0                 !
 ! A24   A(37,4,38)            106.544          -DE/DX =    0.0                 !
 ! A25   A(2,5,6)              116.59           -DE/DX =    0.0                 !
 ! A26   A(2,5,39)             107.7638         -DE/DX =    0.0                 !
 ! A27   A(2,5,40)             109.7613         -DE/DX =    0.0                 !
 ! A28   A(6,5,39)             108.113          -DE/DX =    0.0                 !
 ! A29   A(6,5,40)             107.4888         -DE/DX =    0.0                 !
 ! A30   A(39,5,40)            106.6979         -DE/DX =    0.0                 !
 ! A31   A(5,6,7)              114.1385         -DE/DX =    0.0                 !
 ! A32   A(5,6,29)             112.718          -DE/DX =    0.0                 !
 ! A33   A(5,6,41)             110.3413         -DE/DX =    0.0                 !
 ! A34   A(7,6,29)             101.7054         -DE/DX =    0.0                 !
 ! A35   A(7,6,41)             110.437          -DE/DX =    0.0                 !
 ! A36   A(29,6,41)            107.0146         -DE/DX =    0.0                 !
 ! A37   A(6,7,8)              104.6631         -DE/DX =    0.0                 !
 ! A38   A(6,7,42)             114.3794         -DE/DX =    0.0                 !
 ! A39   A(6,7,43)             112.3509         -DE/DX =    0.0                 !
 ! A40   A(8,7,42)             107.7416         -DE/DX =    0.0                 !
 ! A41   A(8,7,43)             107.2504         -DE/DX =    0.0                 !
 ! A42   A(42,7,43)            109.9742         -DE/DX =    0.0                 !
 ! A43   A(7,8,9)              105.0113         -DE/DX =    0.0                 !
 ! A44   A(8,9,10)             121.1412         -DE/DX =    0.0                 !
 ! A45   A(8,9,29)             117.8816         -DE/DX =    0.0                 !
 ! A46   A(10,9,29)            120.9692         -DE/DX =    0.0                 !
 ! A47   A(9,10,11)            124.9279         -DE/DX =    0.0                 !
 ! A48   A(9,10,28)            112.3048         -DE/DX =    0.0                 !
 ! A49   A(11,10,28)           122.7464         -DE/DX =    0.0                 !
 ! A50   A(10,11,12)           117.3235         -DE/DX =    0.0                 !
 ! A51   A(10,11,44)           120.4327         -DE/DX =    0.0                 !
 ! A52   A(12,11,44)           122.231          -DE/DX =    0.0                 !
 ! A53   A(11,12,13)           119.6357         -DE/DX =    0.0                 !
 ! A54   A(11,12,45)           120.0904         -DE/DX =    0.0                 !
 ! A55   A(13,12,45)           120.2736         -DE/DX =    0.0                 !
 ! A56   A(12,13,14)           119.8161         -DE/DX =    0.0                 !
 ! A57   A(12,13,46)           120.8919         -DE/DX =    0.0                 !
 ! A58   A(14,13,46)           119.2916         -DE/DX =    0.0                 !
 ! A59   A(13,14,15)           123.3476         -DE/DX =    0.0                 !
 ! A60   A(13,14,28)           119.9327         -DE/DX =    0.0                 !
 ! A61   A(15,14,28)           116.7124         -DE/DX =    0.0                 !
 ! A62   A(14,15,16)           108.8529         -DE/DX =    0.0                 !
 ! A63   A(14,15,22)           110.3058         -DE/DX =    0.0                 !
 ! A64   A(14,15,47)           105.345          -DE/DX =    0.0                 !
 ! A65   A(16,15,22)           119.6405         -DE/DX =    0.0                 !
 ! A66   A(16,15,47)           105.0411         -DE/DX =    0.0                 !
 ! A67   A(22,15,47)           106.5923         -DE/DX =    0.0                 !
 ! A68   A(15,16,17)           117.2045         -DE/DX =    0.0                 !
 ! A69   A(15,16,21)           123.7673         -DE/DX =    0.0                 !
 ! A70   A(17,16,21)           118.8828         -DE/DX =    0.0                 !
 ! A71   A(16,17,18)           120.3694         -DE/DX =    0.0                 !
 ! A72   A(16,17,48)           118.7968         -DE/DX =    0.0                 !
 ! A73   A(18,17,48)           120.7992         -DE/DX =    0.0                 !
 ! A74   A(17,18,19)           120.3985         -DE/DX =    0.0                 !
 ! A75   A(17,18,49)           119.4747         -DE/DX =    0.0                 !
 ! A76   A(19,18,49)           120.1259         -DE/DX =    0.0                 !
 ! A77   A(18,19,20)           119.5502         -DE/DX =    0.0                 !
 ! A78   A(18,19,50)           120.3327         -DE/DX =    0.0                 !
 ! A79   A(20,19,50)           120.1155         -DE/DX =    0.0                 !
 ! A80   A(19,20,21)           120.177          -DE/DX =    0.0                 !
 ! A81   A(19,20,51)           120.1772         -DE/DX =    0.0                 !
 ! A82   A(21,20,51)           119.6458         -DE/DX =    0.0                 !
 ! A83   A(16,21,20)           120.5983         -DE/DX =    0.0                 !
 ! A84   A(16,21,52)           120.4575         -DE/DX =    0.0                 !
 ! A85   A(20,21,52)           118.9434         -DE/DX =    0.0                 !
 ! A86   A(15,22,23)           116.5475         -DE/DX =    0.0                 !
 ! A87   A(15,22,27)           124.2846         -DE/DX =    0.0                 !
 ! A88   A(23,22,27)           119.144          -DE/DX =    0.0                 !
 ! A89   A(22,23,24)           120.1776         -DE/DX =    0.0                 !
 ! A90   A(22,23,53)           120.1435         -DE/DX =    0.0                 !
 ! A91   A(24,23,53)           119.6208         -DE/DX =    0.0                 !
 ! A92   A(23,24,25)           120.4569         -DE/DX =    0.0                 !
 ! A93   A(23,24,54)           119.3629         -DE/DX =    0.0                 !
 ! A94   A(25,24,54)           120.175          -DE/DX =    0.0                 !
 ! A95   A(24,25,26)           119.4673         -DE/DX =    0.0                 !
 ! A96   A(24,25,55)           120.2839         -DE/DX =    0.0                 !
 ! A97   A(26,25,55)           120.2402         -DE/DX =    0.0                 !
 ! A98   A(25,26,27)           120.3297         -DE/DX =    0.0                 !
 ! A99   A(25,26,56)           120.2061         -DE/DX =    0.0                 !
 ! A100  A(27,26,56)           119.4626         -DE/DX =    0.0                 !
 ! A101  A(22,27,26)           120.3929         -DE/DX =    0.0                 !
 ! A102  A(22,27,57)           120.245          -DE/DX =    0.0                 !
 ! A103  A(26,27,57)           119.3411         -DE/DX =    0.0                 !
 ! A104  A(10,28,14)           120.4802         -DE/DX =    0.0                 !
 ! A105  A(10,28,58)           112.9808         -DE/DX =    0.0                 !
 ! A106  A(14,28,58)           125.6471         -DE/DX =    0.0                 !
 ! A107  A(6,29,9)             108.4385         -DE/DX =    0.0                 !
 ! A108  A(6,29,58)            138.6253         -DE/DX =    0.0                 !
 ! A109  A(9,29,58)            112.3647         -DE/DX =    0.0                 !
 ! A110  A(28,58,29)            80.5984         -DE/DX =    0.0                 !
 ! A111  A(28,58,59)            98.9781         -DE/DX =    0.0                 !
 ! A112  A(28,58,60)           105.2992         -DE/DX =    0.0                 !
 ! A113  A(29,58,59)            98.5693         -DE/DX =    0.0                 !
 ! A114  A(29,58,60)           118.7529         -DE/DX =    0.0                 !
 ! A115  A(59,58,60)           137.9265         -DE/DX =    0.0                 !
 ! D1    D(30,1,2,3)           -61.2778         -DE/DX =    0.0                 !
 ! D2    D(30,1,2,4)           179.39           -DE/DX =    0.0                 !
 ! D3    D(30,1,2,5)            57.7131         -DE/DX =    0.0                 !
 ! D4    D(31,1,2,3)            58.6634         -DE/DX =    0.0                 !
 ! D5    D(31,1,2,4)           -60.6688         -DE/DX =    0.0                 !
 ! D6    D(31,1,2,5)           177.6543         -DE/DX =    0.0                 !
 ! D7    D(32,1,2,3)           178.2441         -DE/DX =    0.0                 !
 ! D8    D(32,1,2,4)            58.9119         -DE/DX =    0.0                 !
 ! D9    D(32,1,2,5)           -62.7651         -DE/DX =    0.0                 !
 ! D10   D(1,2,3,33)            60.2624         -DE/DX =    0.0                 !
 ! D11   D(1,2,3,34)           -59.3978         -DE/DX =    0.0                 !
 ! D12   D(1,2,3,35)          -178.5634         -DE/DX =    0.0                 !
 ! D13   D(4,2,3,33)           179.2567         -DE/DX =    0.0                 !
 ! D14   D(4,2,3,34)            59.5965         -DE/DX =    0.0                 !
 ! D15   D(4,2,3,35)           -59.5691         -DE/DX =    0.0                 !
 ! D16   D(5,2,3,33)           -57.0101         -DE/DX =    0.0                 !
 ! D17   D(5,2,3,34)          -176.6703         -DE/DX =    0.0                 !
 ! D18   D(5,2,3,35)            64.1641         -DE/DX =    0.0                 !
 ! D19   D(1,2,4,36)           -61.2912         -DE/DX =    0.0                 !
 ! D20   D(1,2,4,37)           176.0568         -DE/DX =    0.0                 !
 ! D21   D(1,2,4,38)            57.686          -DE/DX =    0.0                 !
 ! D22   D(3,2,4,36)           179.6691         -DE/DX =    0.0                 !
 ! D23   D(3,2,4,37)            57.0171         -DE/DX =    0.0                 !
 ! D24   D(3,2,4,38)           -61.3537         -DE/DX =    0.0                 !
 ! D25   D(5,2,4,36)            57.2875         -DE/DX =    0.0                 !
 ! D26   D(5,2,4,37)           -65.3645         -DE/DX =    0.0                 !
 ! D27   D(5,2,4,38)           176.2647         -DE/DX =    0.0                 !
 ! D28   D(1,2,5,6)            174.3749         -DE/DX =    0.0                 !
 ! D29   D(1,2,5,39)           -63.9281         -DE/DX =    0.0                 !
 ! D30   D(1,2,5,40)            51.9008         -DE/DX =    0.0                 !
 ! D31   D(3,2,5,6)            -67.2719         -DE/DX =    0.0                 !
 ! D32   D(3,2,5,39)            54.4252         -DE/DX =    0.0                 !
 ! D33   D(3,2,5,40)           170.2541         -DE/DX =    0.0                 !
 ! D34   D(4,2,5,6)             54.8159         -DE/DX =    0.0                 !
 ! D35   D(4,2,5,39)           176.5129         -DE/DX =    0.0                 !
 ! D36   D(4,2,5,40)           -67.6582         -DE/DX =    0.0                 !
 ! D37   D(2,5,6,7)            156.6419         -DE/DX =    0.0                 !
 ! D38   D(2,5,6,29)           -87.9769         -DE/DX =    0.0                 !
 ! D39   D(2,5,6,41)            31.5968         -DE/DX =    0.0                 !
 ! D40   D(39,5,6,7)            35.1285         -DE/DX =    0.0                 !
 ! D41   D(39,5,6,29)          150.5098         -DE/DX =    0.0                 !
 ! D42   D(39,5,6,41)          -89.9165         -DE/DX =    0.0                 !
 ! D43   D(40,5,6,7)           -79.7074         -DE/DX =    0.0                 !
 ! D44   D(40,5,6,29)           35.6739         -DE/DX =    0.0                 !
 ! D45   D(40,5,6,41)          155.2476         -DE/DX =    0.0                 !
 ! D46   D(5,6,7,8)            136.4034         -DE/DX =    0.0                 !
 ! D47   D(5,6,7,42)          -105.9253         -DE/DX =    0.0                 !
 ! D48   D(5,6,7,43)            20.3623         -DE/DX =    0.0                 !
 ! D49   D(29,6,7,8)            14.7327         -DE/DX =    0.0                 !
 ! D50   D(29,6,7,42)          132.404          -DE/DX =    0.0                 !
 ! D51   D(29,6,7,43)         -101.3084         -DE/DX =    0.0                 !
 ! D52   D(41,6,7,8)           -98.6024         -DE/DX =    0.0                 !
 ! D53   D(41,6,7,42)           19.0689         -DE/DX =    0.0                 !
 ! D54   D(41,6,7,43)          145.3565         -DE/DX =    0.0                 !
 ! D55   D(5,6,29,9)          -133.9063         -DE/DX =    0.0                 !
 ! D56   D(5,6,29,58)           55.923          -DE/DX =    0.0                 !
 ! D57   D(7,6,29,9)           -11.2567         -DE/DX =    0.0                 !
 ! D58   D(7,6,29,58)          178.5726         -DE/DX =    0.0                 !
 ! D59   D(41,6,29,9)          104.6125         -DE/DX =    0.0                 !
 ! D60   D(41,6,29,58)         -65.5582         -DE/DX =    0.0                 !
 ! D61   D(6,7,8,9)            -13.3413         -DE/DX =    0.0                 !
 ! D62   D(42,7,8,9)          -135.4613         -DE/DX =    0.0                 !
 ! D63   D(43,7,8,9)           106.1862         -DE/DX =    0.0                 !
 ! D64   D(7,8,9,10)          -174.0512         -DE/DX =    0.0                 !
 ! D65   D(7,8,9,29)             6.968          -DE/DX =    0.0                 !
 ! D66   D(8,9,10,11)           -4.8211         -DE/DX =    0.0                 !
 ! D67   D(8,9,10,28)          176.8094         -DE/DX =    0.0                 !
 ! D68   D(29,9,10,11)         174.1283         -DE/DX =    0.0                 !
 ! D69   D(29,9,10,28)          -4.2412         -DE/DX =    0.0                 !
 ! D70   D(8,9,29,6)             3.2904         -DE/DX =    0.0                 !
 ! D71   D(8,9,29,58)          176.2819         -DE/DX =    0.0                 !
 ! D72   D(10,9,29,6)         -175.6923         -DE/DX =    0.0                 !
 ! D73   D(10,9,29,58)          -2.7008         -DE/DX =    0.0                 !
 ! D74   D(9,10,11,12)        -176.4714         -DE/DX =    0.0                 !
 ! D75   D(9,10,11,44)           2.2553         -DE/DX =    0.0                 !
 ! D76   D(28,10,11,12)          1.735          -DE/DX =    0.0                 !
 ! D77   D(28,10,11,44)       -179.5383         -DE/DX =    0.0                 !
 ! D78   D(9,10,28,14)         178.5453         -DE/DX =    0.0                 !
 ! D79   D(9,10,28,58)           8.7618         -DE/DX =    0.0                 !
 ! D80   D(11,10,28,14)          0.1347         -DE/DX =    0.0                 !
 ! D81   D(11,10,28,58)       -169.6488         -DE/DX =    0.0                 !
 ! D82   D(10,11,12,13)         -1.3867         -DE/DX =    0.0                 !
 ! D83   D(10,11,12,45)        178.4222         -DE/DX =    0.0                 !
 ! D84   D(44,11,12,13)        179.9111         -DE/DX =    0.0                 !
 ! D85   D(44,11,12,45)         -0.2799         -DE/DX =    0.0                 !
 ! D86   D(11,12,13,14)         -0.6919         -DE/DX =    0.0                 !
 ! D87   D(11,12,13,46)        179.0885         -DE/DX =    0.0                 !
 ! D88   D(45,12,13,14)        179.4995         -DE/DX =    0.0                 !
 ! D89   D(45,12,13,46)         -0.7201         -DE/DX =    0.0                 !
 ! D90   D(12,13,14,15)       -176.3854         -DE/DX =    0.0                 !
 ! D91   D(12,13,14,28)          2.5959         -DE/DX =    0.0                 !
 ! D92   D(46,13,14,15)          3.8307         -DE/DX =    0.0                 !
 ! D93   D(46,13,14,28)       -177.1881         -DE/DX =    0.0                 !
 ! D94   D(13,14,15,16)         69.4905         -DE/DX =    0.0                 !
 ! D95   D(13,14,15,22)        -63.6329         -DE/DX =    0.0                 !
 ! D96   D(13,14,15,47)       -178.2958         -DE/DX =    0.0                 !
 ! D97   D(28,14,15,16)       -109.5212         -DE/DX =    0.0                 !
 ! D98   D(28,14,15,22)        117.3554         -DE/DX =    0.0                 !
 ! D99   D(28,14,15,47)          2.6925         -DE/DX =    0.0                 !
 ! D100  D(13,14,28,10)         -2.3182         -DE/DX =    0.0                 !
 ! D101  D(13,14,28,58)        166.0897         -DE/DX =    0.0                 !
 ! D102  D(15,14,28,10)        176.7291         -DE/DX =    0.0                 !
 ! D103  D(15,14,28,58)        -14.863          -DE/DX =    0.0                 !
 ! D104  D(14,15,16,17)        100.7186         -DE/DX =    0.0                 !
 ! D105  D(14,15,16,21)        -74.8384         -DE/DX =    0.0                 !
 ! D106  D(22,15,16,17)       -131.2416         -DE/DX =    0.0                 !
 ! D107  D(22,15,16,21)         53.2014         -DE/DX =    0.0                 !
 ! D108  D(47,15,16,17)        -11.6962         -DE/DX =    0.0                 !
 ! D109  D(47,15,16,21)        172.7468         -DE/DX =    0.0                 !
 ! D110  D(14,15,22,23)        -60.5569         -DE/DX =    0.0                 !
 ! D111  D(14,15,22,27)        121.2389         -DE/DX =    0.0                 !
 ! D112  D(16,15,22,23)        172.0718         -DE/DX =    0.0                 !
 ! D113  D(16,15,22,27)         -6.1324         -DE/DX =    0.0                 !
 ! D114  D(47,15,22,23)         53.3143         -DE/DX =    0.0                 !
 ! D115  D(47,15,22,27)       -124.8899         -DE/DX =    0.0                 !
 ! D116  D(15,16,17,18)       -177.4256         -DE/DX =    0.0                 !
 ! D117  D(15,16,17,48)          0.4534         -DE/DX =    0.0                 !
 ! D118  D(21,16,17,18)         -1.6434         -DE/DX =    0.0                 !
 ! D119  D(21,16,17,48)        176.2357         -DE/DX =    0.0                 !
 ! D120  D(15,16,21,20)        177.1835         -DE/DX =    0.0                 !
 ! D121  D(15,16,21,52)         -3.1556         -DE/DX =    0.0                 !
 ! D122  D(17,16,21,20)          1.6965         -DE/DX =    0.0                 !
 ! D123  D(17,16,21,52)       -178.6426         -DE/DX =    0.0                 !
 ! D124  D(16,17,18,19)          0.5109         -DE/DX =    0.0                 !
 ! D125  D(16,17,18,49)       -179.8224         -DE/DX =    0.0                 !
 ! D126  D(48,17,18,19)       -177.3253         -DE/DX =    0.0                 !
 ! D127  D(48,17,18,49)          2.3414         -DE/DX =    0.0                 !
 ! D128  D(17,18,19,20)          0.5959         -DE/DX =    0.0                 !
 ! D129  D(17,18,19,50)       -179.85           -DE/DX =    0.0                 !
 ! D130  D(49,18,19,20)       -179.0687         -DE/DX =    0.0                 !
 ! D131  D(49,18,19,50)          0.4854         -DE/DX =    0.0                 !
 ! D132  D(18,19,20,21)         -0.5455         -DE/DX =    0.0                 !
 ! D133  D(18,19,20,51)        179.4462         -DE/DX =    0.0                 !
 ! D134  D(50,19,20,21)        179.8994         -DE/DX =    0.0                 !
 ! D135  D(50,19,20,51)         -0.1089         -DE/DX =    0.0                 !
 ! D136  D(19,20,21,16)         -0.6125         -DE/DX =    0.0                 !
 ! D137  D(19,20,21,52)        179.7216         -DE/DX =    0.0                 !
 ! D138  D(51,20,21,16)        179.3958         -DE/DX =    0.0                 !
 ! D139  D(51,20,21,52)         -0.2702         -DE/DX =    0.0                 !
 ! D140  D(15,22,23,24)        179.9725         -DE/DX =    0.0                 !
 ! D141  D(15,22,23,53)         -2.8093         -DE/DX =    0.0                 !
 ! D142  D(27,22,23,24)         -1.7263         -DE/DX =    0.0                 !
 ! D143  D(27,22,23,53)        175.4919         -DE/DX =    0.0                 !
 ! D144  D(15,22,27,26)        179.8796         -DE/DX =    0.0                 !
 ! D145  D(15,22,27,57)          1.5619         -DE/DX =    0.0                 !
 ! D146  D(23,22,27,26)          1.7188         -DE/DX =    0.0                 !
 ! D147  D(23,22,27,57)       -176.5988         -DE/DX =    0.0                 !
 ! D148  D(22,23,24,25)          0.3367         -DE/DX =    0.0                 !
 ! D149  D(22,23,24,54)        179.5135         -DE/DX =    0.0                 !
 ! D150  D(53,23,24,25)       -176.896          -DE/DX =    0.0                 !
 ! D151  D(53,23,24,54)          2.2808         -DE/DX =    0.0                 !
 ! D152  D(23,24,25,26)          1.0733         -DE/DX =    0.0                 !
 ! D153  D(23,24,25,55)       -179.988          -DE/DX =    0.0                 !
 ! D154  D(54,24,25,26)       -178.0968         -DE/DX =    0.0                 !
 ! D155  D(54,24,25,55)          0.8418         -DE/DX =    0.0                 !
 ! D156  D(24,25,26,27)         -1.0832         -DE/DX =    0.0                 !
 ! D157  D(24,25,26,56)        178.4513         -DE/DX =    0.0                 !
 ! D158  D(55,25,26,27)        179.9777         -DE/DX =    0.0                 !
 ! D159  D(55,25,26,56)         -0.4878         -DE/DX =    0.0                 !
 ! D160  D(25,26,27,22)         -0.321          -DE/DX =    0.0                 !
 ! D161  D(25,26,27,57)        178.0117         -DE/DX =    0.0                 !
 ! D162  D(56,26,27,22)       -179.859          -DE/DX =    0.0                 !
 ! D163  D(56,26,27,57)         -1.5263         -DE/DX =    0.0                 !
 ! D164  D(10,28,58,29)         -8.1313         -DE/DX =    0.0                 !
 ! D165  D(10,28,58,59)         89.1504         -DE/DX =    0.0                 !
 ! D166  D(10,28,58,60)       -125.5315         -DE/DX =    0.0                 !
 ! D167  D(14,28,58,29)       -177.2893         -DE/DX =    0.0                 !
 ! D168  D(14,28,58,59)        -80.0075         -DE/DX =    0.0                 !
 ! D169  D(14,28,58,60)         65.3105         -DE/DX =    0.0                 !
 ! D170  D(6,29,58,28)         175.6263         -DE/DX =    0.0                 !
 ! D171  D(6,29,58,59)          77.8666         -DE/DX =    0.0                 !
 ! D172  D(6,29,58,60)         -82.0041         -DE/DX =    0.0                 !
 ! D173  D(9,29,58,28)           5.712          -DE/DX =    0.0                 !
 ! D174  D(9,29,58,59)         -92.0476         -DE/DX =    0.0                 !
 ! D175  D(9,29,58,60)         108.0817         -DE/DX =    0.0                 !
 --------------------------------------------------------------------------------
 GradGradGradGradGradGradGradGradGradGradGradGradGradGradGradGradGradGrad

 Stoichiometry    C26H28F2N2NiO(3)
 Framework group  C1[X(C26H28F2N2NiO)]
 Deg. of freedom   174
 Full point group                 C1      NOp   1
 Largest Abelian subgroup         C1      NOp   1
 Largest concise Abelian subgroup C1      NOp   1
                         Standard orientation:                         
 ---------------------------------------------------------------------
 Center     Atomic      Atomic             Coordinates (Angstroms)
 Number     Number       Type             X           Y           Z
 ---------------------------------------------------------------------
      1          6           0        5.474758    1.284416   -2.292641
      2          6           0        4.876574    0.156898   -1.433095
      3          6           0        5.911962   -0.974075   -1.300090
      4          6           0        3.614124   -0.383354   -2.127791
      5          6           0        4.567298    0.757316   -0.039229
      6          6           0        3.836136   -0.154008    0.953747
      7          6           0        4.046731    0.230471    2.440499
      8          8           0        2.716747    0.124019    3.042742
      9          6           0        1.870316    0.038024    2.003741
     10          6           0        0.417652    0.046504    2.206103
     11          6           0       -0.211173    0.044561    3.440313
     12          6           0       -1.609769   -0.022931    3.448977
     13          6           0       -2.302323   -0.054965    2.247687
     14          6           0       -1.597011   -0.004791    1.032712
     15          6           0       -2.276502    0.045320   -0.326998
     16          6           0       -2.954288    1.400992   -0.489277
     17          6           0       -2.288761    2.361699   -1.263577
     18          6           0       -2.823077    3.641855   -1.411497
     19          6           0       -4.020164    3.984220   -0.782168
     20          6           0       -4.676273    3.040336    0.008877
     21          6           0       -4.143908    1.759920    0.159439
     22          6           0       -3.077823   -1.234063   -0.567037
     23          6           0       -2.352695   -2.438624   -0.569161
     24          6           0       -3.007416   -3.649465   -0.780066
     25          6           0       -4.387219   -3.679952   -0.998269
     26          6           0       -5.103151   -2.485379   -1.025945
     27          6           0       -4.451580   -1.266903   -0.814667
     28          7           0       -0.263547    0.021059    1.037871
     29          7           0        2.372339   -0.072002    0.828657
     30          1           0        6.374236    1.708009   -1.828280
     31          1           0        5.754055    0.908220   -3.283216
     32          1           0        4.750192    2.094752   -2.433759
     33          1           0        6.831776   -0.617849   -0.819222
     34          1           0        6.179794   -1.363894   -2.288299
     35          1           0        5.526713   -1.817815   -0.715637
     36          1           0        2.845070    0.390287   -2.238406
     37          1           0        3.180112   -1.238759   -1.595370
     38          1           0        3.865626   -0.737229   -3.134676
     39          1           0        5.521612    1.061054    0.414415
     40          1           0        3.967738    1.669431   -0.152858
     41          1           0        4.114219   -1.200892    0.786064
     42          1           0        4.713436   -0.436225    2.987586
     43          1           0        4.375106    1.268373    2.559757
     44          1           0        0.371721    0.073059    4.353353
     45          1           0       -2.147354   -0.053089    4.391537
     46          1           0       -3.383101   -0.121893    2.230570
     47          1           0       -1.462960    0.045699   -1.057092
     48          1           0       -1.334094    2.100753   -1.715807
     49          1           0       -2.296565    4.374218   -2.017305
     50          1           0       -4.436614    4.980843   -0.900079
     51          1           0       -5.604631    3.298930    0.511008
     52          1           0       -4.668388    1.043030    0.782994
     53          1           0       -1.268916   -2.425473   -0.450888
     54          1           0       -2.432876   -4.571690   -0.786934
     55          1           0       -4.895266   -4.626366   -1.162340
     56          1           0       -6.172488   -2.493171   -1.219687
     57          1           0       -5.017908   -0.345220   -0.871794
     58         28           0        0.952500   -0.309755   -0.597141
     59          9           0        0.899284   -2.150109   -0.627174
     60          9           0        0.610685    1.084151   -1.745810
 ---------------------------------------------------------------------
 Rotational constants (GHZ):           0.1960024           0.0831186           0.0804568
 Unable to Open any file for archive entry.
 1\1\GINC-NOTCH033\FOpt\UB3LYP\Gen\C26H28F2N2Ni1O1(3)\U1365460\06-Mar-2
 026\0\\# B3LYP gen 6D pseudo=read int=(grid=fine) empiricaldispersion=
 GD3BJ opt freq=noraman\\Lig2224.xyz\\0,3\C,2.5437082215,2.3470233574,0
 .0201782354\C,2.8532617765,0.9730507732,-0.5997561376\C,3.6276803038,1
 .1798195601,-1.9136594273\C,1.5276812938,0.2491633423,-0.8948436487\C,
 3.73073,0.1989444127,0.4150468061\C,4.0565070983,-1.2588404763,0.06886
 20228\C,5.3371823436,-1.8017746554,0.7527472121\O,4.9688697366,-3.1390
 34919,1.220683109\C,3.6303650379,-3.1854436101,1.1226248714\C,2.872340
 9252,-4.3356053445,1.6263933638\C,3.4346530173,-5.4903938386,2.1450116
 701\C,2.5615527269,-6.5220408321,2.5112100033\C,1.1930506808,-6.344021
 1242,2.3724074893\C,0.693043584,-5.1260604983,1.8797477272\C,-0.791620
 4716,-4.8150535871,1.7698566164\C,-1.3672877139,-4.6587413438,3.172622
 006\C,-1.5654326117,-3.3527464666,3.6422395162\C,-2.0383131636,-3.1326
 362902,4.9361124755\C,-2.3094072483,-4.2089719382,5.7812734133\C,-2.09
 26103755,-5.5109963535,5.3286386109\C,-1.6189021758,-5.7341149756,4.03
 58250212\C,-1.4613074708,-5.7677812098,0.7797129152\C,-0.9860130029,-5
 .7353163533,-0.5430965363\C,-1.5418844785,-6.5722120876,-1.5074039909\
 C,-2.5799317195,-7.4459450061,-1.1735655557\C,-3.0724057748,-7.4588611
 744,0.129366089\C,-2.518356452,-6.6213431892,1.1017136807\N,1.53655006
 94,-4.1656816638,1.4989728689\N,3.035969868,-2.2002826531,0.5559597559
 \H,3.4637565328,2.8958855244,0.2576316784\H,1.9567554831,2.9600910035,
 -0.6729330188\H,1.9641486719,2.2373866895,0.9441077195\H,4.5744844254,
 1.7065580717,-1.7396011857\H,3.0355703744,1.7778369822,-2.6151094494\H
 ,3.8529908533,0.2297790058,-2.4122147771\H,0.9444004697,0.0754884705,0
 .0171979146\H,1.682069626,-0.7107309995,-1.4030994092\H,0.9101809357,0
 .860704033,-1.5634325074\H,4.6790066224,0.7446621543,0.5233471895\H,3.
 2495500901,0.204082703,1.401341153\H,4.1190118396,-1.3875676292,-1.017
 8468873\H,6.1931242567,-1.9072025601,0.0860156718\H,5.6192271371,-1.21
 56626916,1.6337796243\H,4.5103133979,-5.5836327149,2.2371051252\H,2.95
 534163,-7.4565230033,2.8985080664\H,0.5001110474,-7.1336124853,2.63553
 18663\H,-0.8461067872,-3.8167177187,1.3279919836\H,-1.3108818512,-2.51
 78416172,2.9925225887\H,-2.1893593073,-2.1144801277,5.2841318402\H,-2.
 6799897772,-4.0363801518,6.7879866199\H,-2.291800325,-6.3565418865,5.9
 815012269\H,-1.4530546815,-6.7546961536,3.7060696938\H,-0.2117337101,-
 5.0230729183,-0.8293459452\H,-1.1698612583,-6.5305199974,-2.5274547434
 \H,-3.0114814161,-8.0978803991,-1.9282017812\H,-3.8962800371,-8.115530
 9093,0.3960015809\H,-2.9348907618,-6.6208490511,2.1017087721\Ni,1.0384
 772187,-2.49694876,0.3904943518\F,1.0124877477,-3.2617489215,-1.284330
 8869\F,-0.0921424718,-1.5219357968,1.4630157417\\Version=ES64L-G16RevC
 .01\State=3-A\HF=-1561.6635022\S2=2.006208\S2-1=0.\S2A=2.000022\RMSD=5
 .727e-09\RMSF=3.184e-06\Dipole=2.6082687,-0.7867169,1.1878122\Quadrupo
 le=5.0267911,4.9401654,-9.9669566,8.8225035,-2.8095269,-7.2496765\PG=C
 01 [X(C26H28F2N2Ni1O1)]\\@
 The archive entry for this job was punched.


 A MAN IS NEVER SO BRILLIANT AS WHEN HE TAKES THE WORDS RIGHT OUT
 OF YOUR MOUTH. -- ARNOT SHEPPARD, JR.
 Job cpu time:       0 days  1 hours 48 minutes 33.6 seconds.
 Elapsed time:       0 days  0 hours  6 minutes 50.3 seconds.
 File lengths (MBytes):  RWF=    348 Int=      0 D2E=      0 Chk=     35 Scr=      2
 Normal termination of Gaussian 16 at Fri Mar  6 16:31:49 2026.
 Link1:  Proceeding to internal job step number  2.
 ------------------------------------------------------------------
 #N Geom=AllCheck Guess=TCheck SCRF=Check GenChk UB3LYP/ChkBas Freq
 ------------------------------------------------------------------
 1/10=4,29=7,30=1,38=1,40=1/1,3;
 2/12=2,40=1/2;
 3/5=7,6=2,8=2,11=2,14=-4,16=1,17=8,25=1,30=1,67=1,70=2,71=2,74=-5,75=-4,82=7,116=2,124=41,140=1/1,2,3;
 4/5=101/1;
 5/5=2,38=6,98=1/2;
 8/6=4,10=90,11=11/1;
 11/6=1,8=1,9=11,15=111,16=1/1,2,10;
 10/6=1/2;
 6/7=2,8=2,9=2,10=2,28=1/1;
 7/8=1,10=1,25=1/1,2,3,16;
 1/10=4,30=1/3;
 99//99;
 Structure from the checkpoint file:  "Lig2224_xyz_3.chk"
 -----------
 Lig2224.xyz
 -----------
 Charge =  0 Multiplicity = 3
 Redundant internal coordinates found in file.  (old form).
 C,0,2.5437082215,2.3470233574,0.0201782354
 C,0,2.8532617765,0.9730507732,-0.5997561376
 C,0,3.6276803038,1.1798195601,-1.9136594273
 C,0,1.5276812938,0.2491633423,-0.8948436487
 C,0,3.73073,0.1989444127,0.4150468061
 C,0,4.0565070983,-1.2588404763,0.0688620228
 C,0,5.3371823436,-1.8017746554,0.7527472121
 O,0,4.9688697366,-3.139034919,1.220683109
 C,0,3.6303650379,-3.1854436101,1.1226248714
 C,0,2.8723409252,-4.3356053445,1.6263933638
 C,0,3.4346530173,-5.4903938386,2.1450116701
 C,0,2.5615527269,-6.5220408321,2.5112100033
 C,0,1.1930506808,-6.3440211242,2.3724074893
 C,0,0.693043584,-5.1260604983,1.8797477272
 C,0,-0.7916204716,-4.8150535871,1.7698566164
 C,0,-1.3672877139,-4.6587413438,3.172622006
 C,0,-1.5654326117,-3.3527464666,3.6422395162
 C,0,-2.0383131636,-3.1326362902,4.9361124755
 C,0,-2.3094072483,-4.2089719382,5.7812734133
 C,0,-2.0926103755,-5.5109963535,5.3286386109
 C,0,-1.6189021758,-5.7341149756,4.0358250212
 C,0,-1.4613074708,-5.7677812098,0.7797129152
 C,0,-0.9860130029,-5.7353163533,-0.5430965363
 C,0,-1.5418844785,-6.5722120876,-1.5074039909
 C,0,-2.5799317195,-7.4459450061,-1.1735655557
 C,0,-3.0724057748,-7.4588611744,0.129366089
 C,0,-2.518356452,-6.6213431892,1.1017136807
 N,0,1.5365500694,-4.1656816638,1.4989728689
 N,0,3.035969868,-2.2002826531,0.5559597559
 H,0,3.4637565328,2.8958855244,0.2576316784
 H,0,1.9567554831,2.9600910035,-0.6729330188
 H,0,1.9641486719,2.2373866895,0.9441077195
 H,0,4.5744844254,1.7065580717,-1.7396011857
 H,0,3.0355703744,1.7778369822,-2.6151094494
 H,0,3.8529908533,0.2297790058,-2.4122147771
 H,0,0.9444004697,0.0754884705,0.0171979146
 H,0,1.682069626,-0.7107309995,-1.4030994092
 H,0,0.9101809357,0.860704033,-1.5634325074
 H,0,4.6790066224,0.7446621543,0.5233471895
 H,0,3.2495500901,0.204082703,1.401341153
 H,0,4.1190118396,-1.3875676292,-1.0178468873
 H,0,6.1931242567,-1.9072025601,0.0860156718
 H,0,5.6192271371,-1.2156626916,1.6337796243
 H,0,4.5103133979,-5.5836327149,2.2371051252
 H,0,2.95534163,-7.4565230033,2.8985080664
 H,0,0.5001110474,-7.1336124853,2.6355318663
 H,0,-0.8461067872,-3.8167177187,1.3279919836
 H,0,-1.3108818512,-2.5178416172,2.9925225887
 H,0,-2.1893593073,-2.1144801277,5.2841318402
 H,0,-2.6799897772,-4.0363801518,6.7879866199
 H,0,-2.291800325,-6.3565418865,5.9815012269
 H,0,-1.4530546815,-6.7546961536,3.7060696938
 H,0,-0.2117337101,-5.0230729183,-0.8293459452
 H,0,-1.1698612583,-6.5305199974,-2.5274547434
 H,0,-3.0114814161,-8.0978803991,-1.9282017812
 H,0,-3.8962800371,-8.1155309093,0.3960015809
 H,0,-2.9348907618,-6.6208490511,2.1017087721
 Ni,0,1.0384772187,-2.49694876,0.3904943518
 F,0,1.0124877477,-3.2617489215,-1.2843308869
 F,0,-0.0921424718,-1.5219357968,1.4630157417
 Recover connectivity data from disk.

 GradGradGradGradGradGradGradGradGradGradGradGradGradGradGradGradGradGrad
 Berny optimization.
 Initialization pass.
                           ----------------------------
                           !    Initial Parameters    !
                           ! (Angstroms and Degrees)  !
 --------------------------                            --------------------------
 ! Name  Definition              Value          Derivative Info.                !
 --------------------------------------------------------------------------------
 ! R1    R(1,2)                  1.5388         calculate D2E/DX2 analytically  !
 ! R2    R(1,30)                 1.0973         calculate D2E/DX2 analytically  !
 ! R3    R(1,31)                 1.0958         calculate D2E/DX2 analytically  !
 ! R4    R(1,32)                 1.0962         calculate D2E/DX2 analytically  !
 ! R5    R(2,3)                  1.5391         calculate D2E/DX2 analytically  !
 ! R6    R(2,4)                  1.5389         calculate D2E/DX2 analytically  !
 ! R7    R(2,5)                  1.5489         calculate D2E/DX2 analytically  !
 ! R8    R(3,33)                 1.0974         calculate D2E/DX2 analytically  !
 ! R9    R(3,34)                 1.0956         calculate D2E/DX2 analytically  !
 ! R10   R(3,35)                 1.0963         calculate D2E/DX2 analytically  !
 ! R11   R(4,36)                 1.0964         calculate D2E/DX2 analytically  !
 ! R12   R(4,37)                 1.0971         calculate D2E/DX2 analytically  !
 ! R13   R(4,38)                 1.0965         calculate D2E/DX2 analytically  !
 ! R14   R(5,6)                  1.5333         calculate D2E/DX2 analytically  !
 ! R15   R(5,39)                 1.0994         calculate D2E/DX2 analytically  !
 ! R16   R(5,40)                 1.0974         calculate D2E/DX2 analytically  !
 ! R17   R(6,7)                  1.55           calculate D2E/DX2 analytically  !
 ! R18   R(6,29)                 1.4714         calculate D2E/DX2 analytically  !
 ! R19   R(6,41)                 1.0961         calculate D2E/DX2 analytically  !
 ! R20   R(7,8)                  1.4639         calculate D2E/DX2 analytically  !
 ! R21   R(7,42)                 1.0901         calculate D2E/DX2 analytically  !
 ! R22   R(7,43)                 1.0951         calculate D2E/DX2 analytically  !
 ! R23   R(8,9)                  1.3429         calculate D2E/DX2 analytically  !
 ! R24   R(9,10)                 1.4667         calculate D2E/DX2 analytically  !
 ! R25   R(9,29)                 1.2826         calculate D2E/DX2 analytically  !
 ! R26   R(10,11)                1.3852         calculate D2E/DX2 analytically  !
 ! R27   R(10,28)                1.3526         calculate D2E/DX2 analytically  !
 ! R28   R(11,12)                1.4003         calculate D2E/DX2 analytically  !
 ! R29   R(11,44)                1.0836         calculate D2E/DX2 analytically  !
 ! R30   R(12,13)                1.387          calculate D2E/DX2 analytically  !
 ! R31   R(12,45)                1.0855         calculate D2E/DX2 analytically  !
 ! R32   R(13,14)                1.4058         calculate D2E/DX2 analytically  !
 ! R33   R(13,46)                1.083          calculate D2E/DX2 analytically  !
 ! R34   R(14,15)                1.5209         calculate D2E/DX2 analytically  !
 ! R35   R(14,28)                1.3337         calculate D2E/DX2 analytically  !
 ! R36   R(15,16)                1.5243         calculate D2E/DX2 analytically  !
 ! R37   R(15,22)                1.5286         calculate D2E/DX2 analytically  !
 ! R38   R(15,47)                1.0931         calculate D2E/DX2 analytically  !
 ! R39   R(16,17)                1.4019         calculate D2E/DX2 analytically  !
 ! R40   R(16,21)                1.4017         calculate D2E/DX2 analytically  !
 ! R41   R(17,18)                1.3951         calculate D2E/DX2 analytically  !
 ! R42   R(17,48)                1.0881         calculate D2E/DX2 analytically  !
 ! R43   R(18,19)                1.3951         calculate D2E/DX2 analytically  !
 ! R44   R(18,49)                1.0865         calculate D2E/DX2 analytically  !
 ! R45   R(19,20)                1.3954         calculate D2E/DX2 analytically  !
 ! R46   R(19,50)                1.0865         calculate D2E/DX2 analytically  !
 ! R47   R(20,21)                1.3948         calculate D2E/DX2 analytically  !
 ! R48   R(20,51)                1.0867         calculate D2E/DX2 analytically  !
 ! R49   R(21,52)                1.0853         calculate D2E/DX2 analytically  !
 ! R50   R(22,23)                1.406          calculate D2E/DX2 analytically  !
 ! R51   R(22,27)                1.3963         calculate D2E/DX2 analytically  !
 ! R52   R(23,24)                1.3926         calculate D2E/DX2 analytically  !
 ! R53   R(23,53)                1.0903         calculate D2E/DX2 analytically  !
 ! R54   R(24,25)                1.3973         calculate D2E/DX2 analytically  !
 ! R55   R(24,54)                1.0866         calculate D2E/DX2 analytically  !
 ! R56   R(25,26)                1.393          calculate D2E/DX2 analytically  !
 ! R57   R(25,55)                1.0866         calculate D2E/DX2 analytically  !
 ! R58   R(26,27)                1.3978         calculate D2E/DX2 analytically  !
 ! R59   R(26,56)                1.0868         calculate D2E/DX2 analytically  !
 ! R60   R(27,57)                1.0833         calculate D2E/DX2 analytically  !
 ! R61   R(28,58)                2.0643         calculate D2E/DX2 analytically  !
 ! R62   R(29,58)                2.0262         calculate D2E/DX2 analytically  !
 ! R63   R(58,59)                1.8414         calculate D2E/DX2 analytically  !
 ! R64   R(58,60)                1.8383         calculate D2E/DX2 analytically  !
 ! A1    A(2,1,30)             111.4146         calculate D2E/DX2 analytically  !
 ! A2    A(2,1,31)             110.6386         calculate D2E/DX2 analytically  !
 ! A3    A(2,1,32)             110.8929         calculate D2E/DX2 analytically  !
 ! A4    A(30,1,31)            107.8268         calculate D2E/DX2 analytically  !
 ! A5    A(30,1,32)            108.1158         calculate D2E/DX2 analytically  !
 ! A6    A(31,1,32)            107.8119         calculate D2E/DX2 analytically  !
 ! A7    A(1,2,3)              108.9768         calculate D2E/DX2 analytically  !
 ! A8    A(1,2,4)              108.9033         calculate D2E/DX2 analytically  !
 ! A9    A(1,2,5)              107.2331         calculate D2E/DX2 analytically  !
 ! A10   A(3,2,4)              109.4456         calculate D2E/DX2 analytically  !
 ! A11   A(3,2,5)              109.963          calculate D2E/DX2 analytically  !
 ! A12   A(4,2,5)              112.2423         calculate D2E/DX2 analytically  !
 ! A13   A(2,3,33)             111.2975         calculate D2E/DX2 analytically  !
 ! A14   A(2,3,34)             110.3636         calculate D2E/DX2 analytically  !
 ! A15   A(2,3,35)             112.0372         calculate D2E/DX2 analytically  !
 ! A16   A(33,3,34)            107.8097         calculate D2E/DX2 analytically  !
 ! A17   A(33,3,35)            108.1059         calculate D2E/DX2 analytically  !
 ! A18   A(34,3,35)            107.0338         calculate D2E/DX2 analytically  !
 ! A19   A(2,4,36)             111.9153         calculate D2E/DX2 analytically  !
 ! A20   A(2,4,37)             112.2834         calculate D2E/DX2 analytically  !
 ! A21   A(2,4,38)             109.8564         calculate D2E/DX2 analytically  !
 ! A22   A(36,4,37)            108.7621         calculate D2E/DX2 analytically  !
 ! A23   A(36,4,38)            107.2149         calculate D2E/DX2 analytically  !
 ! A24   A(37,4,38)            106.544          calculate D2E/DX2 analytically  !
 ! A25   A(2,5,6)              116.59           calculate D2E/DX2 analytically  !
 ! A26   A(2,5,39)             107.7638         calculate D2E/DX2 analytically  !
 ! A27   A(2,5,40)             109.7613         calculate D2E/DX2 analytically  !
 ! A28   A(6,5,39)             108.113          calculate D2E/DX2 analytically  !
 ! A29   A(6,5,40)             107.4888         calculate D2E/DX2 analytically  !
 ! A30   A(39,5,40)            106.6979         calculate D2E/DX2 analytically  !
 ! A31   A(5,6,7)              114.1385         calculate D2E/DX2 analytically  !
 ! A32   A(5,6,29)             112.718          calculate D2E/DX2 analytically  !
 ! A33   A(5,6,41)             110.3413         calculate D2E/DX2 analytically  !
 ! A34   A(7,6,29)             101.7054         calculate D2E/DX2 analytically  !
 ! A35   A(7,6,41)             110.437          calculate D2E/DX2 analytically  !
 ! A36   A(29,6,41)            107.0146         calculate D2E/DX2 analytically  !
 ! A37   A(6,7,8)              104.6631         calculate D2E/DX2 analytically  !
 ! A38   A(6,7,42)             114.3794         calculate D2E/DX2 analytically  !
 ! A39   A(6,7,43)             112.3509         calculate D2E/DX2 analytically  !
 ! A40   A(8,7,42)             107.7416         calculate D2E/DX2 analytically  !
 ! A41   A(8,7,43)             107.2504         calculate D2E/DX2 analytically  !
 ! A42   A(42,7,43)            109.9742         calculate D2E/DX2 analytically  !
 ! A43   A(7,8,9)              105.0113         calculate D2E/DX2 analytically  !
 ! A44   A(8,9,10)             121.1412         calculate D2E/DX2 analytically  !
 ! A45   A(8,9,29)             117.8816         calculate D2E/DX2 analytically  !
 ! A46   A(10,9,29)            120.9692         calculate D2E/DX2 analytically  !
 ! A47   A(9,10,11)            124.9279         calculate D2E/DX2 analytically  !
 ! A48   A(9,10,28)            112.3048         calculate D2E/DX2 analytically  !
 ! A49   A(11,10,28)           122.7464         calculate D2E/DX2 analytically  !
 ! A50   A(10,11,12)           117.3235         calculate D2E/DX2 analytically  !
 ! A51   A(10,11,44)           120.4327         calculate D2E/DX2 analytically  !
 ! A52   A(12,11,44)           122.231          calculate D2E/DX2 analytically  !
 ! A53   A(11,12,13)           119.6357         calculate D2E/DX2 analytically  !
 ! A54   A(11,12,45)           120.0904         calculate D2E/DX2 analytically  !
 ! A55   A(13,12,45)           120.2736         calculate D2E/DX2 analytically  !
 ! A56   A(12,13,14)           119.8161         calculate D2E/DX2 analytically  !
 ! A57   A(12,13,46)           120.8919         calculate D2E/DX2 analytically  !
 ! A58   A(14,13,46)           119.2916         calculate D2E/DX2 analytically  !
 ! A59   A(13,14,15)           123.3476         calculate D2E/DX2 analytically  !
 ! A60   A(13,14,28)           119.9327         calculate D2E/DX2 analytically  !
 ! A61   A(15,14,28)           116.7124         calculate D2E/DX2 analytically  !
 ! A62   A(14,15,16)           108.8529         calculate D2E/DX2 analytically  !
 ! A63   A(14,15,22)           110.3058         calculate D2E/DX2 analytically  !
 ! A64   A(14,15,47)           105.345          calculate D2E/DX2 analytically  !
 ! A65   A(16,15,22)           119.6405         calculate D2E/DX2 analytically  !
 ! A66   A(16,15,47)           105.0411         calculate D2E/DX2 analytically  !
 ! A67   A(22,15,47)           106.5923         calculate D2E/DX2 analytically  !
 ! A68   A(15,16,17)           117.2045         calculate D2E/DX2 analytically  !
 ! A69   A(15,16,21)           123.7673         calculate D2E/DX2 analytically  !
 ! A70   A(17,16,21)           118.8828         calculate D2E/DX2 analytically  !
 ! A71   A(16,17,18)           120.3694         calculate D2E/DX2 analytically  !
 ! A72   A(16,17,48)           118.7968         calculate D2E/DX2 analytically  !
 ! A73   A(18,17,48)           120.7992         calculate D2E/DX2 analytically  !
 ! A74   A(17,18,19)           120.3985         calculate D2E/DX2 analytically  !
 ! A75   A(17,18,49)           119.4747         calculate D2E/DX2 analytically  !
 ! A76   A(19,18,49)           120.1259         calculate D2E/DX2 analytically  !
 ! A77   A(18,19,20)           119.5502         calculate D2E/DX2 analytically  !
 ! A78   A(18,19,50)           120.3327         calculate D2E/DX2 analytically  !
 ! A79   A(20,19,50)           120.1155         calculate D2E/DX2 analytically  !
 ! A80   A(19,20,21)           120.177          calculate D2E/DX2 analytically  !
 ! A81   A(19,20,51)           120.1772         calculate D2E/DX2 analytically  !
 ! A82   A(21,20,51)           119.6458         calculate D2E/DX2 analytically  !
 ! A83   A(16,21,20)           120.5983         calculate D2E/DX2 analytically  !
 ! A84   A(16,21,52)           120.4575         calculate D2E/DX2 analytically  !
 ! A85   A(20,21,52)           118.9434         calculate D2E/DX2 analytically  !
 ! A86   A(15,22,23)           116.5475         calculate D2E/DX2 analytically  !
 ! A87   A(15,22,27)           124.2846         calculate D2E/DX2 analytically  !
 ! A88   A(23,22,27)           119.144          calculate D2E/DX2 analytically  !
 ! A89   A(22,23,24)           120.1776         calculate D2E/DX2 analytically  !
 ! A90   A(22,23,53)           120.1435         calculate D2E/DX2 analytically  !
 ! A91   A(24,23,53)           119.6208         calculate D2E/DX2 analytically  !
 ! A92   A(23,24,25)           120.4569         calculate D2E/DX2 analytically  !
 ! A93   A(23,24,54)           119.3629         calculate D2E/DX2 analytically  !
 ! A94   A(25,24,54)           120.175          calculate D2E/DX2 analytically  !
 ! A95   A(24,25,26)           119.4673         calculate D2E/DX2 analytically  !
 ! A96   A(24,25,55)           120.2839         calculate D2E/DX2 analytically  !
 ! A97   A(26,25,55)           120.2402         calculate D2E/DX2 analytically  !
 ! A98   A(25,26,27)           120.3297         calculate D2E/DX2 analytically  !
 ! A99   A(25,26,56)           120.2061         calculate D2E/DX2 analytically  !
 ! A100  A(27,26,56)           119.4626         calculate D2E/DX2 analytically  !
 ! A101  A(22,27,26)           120.3929         calculate D2E/DX2 analytically  !
 ! A102  A(22,27,57)           120.245          calculate D2E/DX2 analytically  !
 ! A103  A(26,27,57)           119.3411         calculate D2E/DX2 analytically  !
 ! A104  A(10,28,14)           120.4802         calculate D2E/DX2 analytically  !
 ! A105  A(10,28,58)           112.9808         calculate D2E/DX2 analytically  !
 ! A106  A(14,28,58)           125.6471         calculate D2E/DX2 analytically  !
 ! A107  A(6,29,9)             108.4385         calculate D2E/DX2 analytically  !
 ! A108  A(6,29,58)            138.6253         calculate D2E/DX2 analytically  !
 ! A109  A(9,29,58)            112.3647         calculate D2E/DX2 analytically  !
 ! A110  A(28,58,29)            80.5984         calculate D2E/DX2 analytically  !
 ! A111  A(28,58,59)            98.9781         calculate D2E/DX2 analytically  !
 ! A112  A(28,58,60)           105.2992         calculate D2E/DX2 analytically  !
 ! A113  A(29,58,59)            98.5693         calculate D2E/DX2 analytically  !
 ! A114  A(29,58,60)           118.7529         calculate D2E/DX2 analytically  !
 ! A115  A(59,58,60)           137.9265         calculate D2E/DX2 analytically  !
 ! D1    D(30,1,2,3)           -61.2778         calculate D2E/DX2 analytically  !
 ! D2    D(30,1,2,4)           179.39           calculate D2E/DX2 analytically  !
 ! D3    D(30,1,2,5)            57.7131         calculate D2E/DX2 analytically  !
 ! D4    D(31,1,2,3)            58.6634         calculate D2E/DX2 analytically  !
 ! D5    D(31,1,2,4)           -60.6688         calculate D2E/DX2 analytically  !
 ! D6    D(31,1,2,5)           177.6543         calculate D2E/DX2 analytically  !
 ! D7    D(32,1,2,3)           178.2441         calculate D2E/DX2 analytically  !
 ! D8    D(32,1,2,4)            58.9119         calculate D2E/DX2 analytically  !
 ! D9    D(32,1,2,5)           -62.7651         calculate D2E/DX2 analytically  !
 ! D10   D(1,2,3,33)            60.2624         calculate D2E/DX2 analytically  !
 ! D11   D(1,2,3,34)           -59.3978         calculate D2E/DX2 analytically  !
 ! D12   D(1,2,3,35)          -178.5634         calculate D2E/DX2 analytically  !
 ! D13   D(4,2,3,33)           179.2567         calculate D2E/DX2 analytically  !
 ! D14   D(4,2,3,34)            59.5965         calculate D2E/DX2 analytically  !
 ! D15   D(4,2,3,35)           -59.5691         calculate D2E/DX2 analytically  !
 ! D16   D(5,2,3,33)           -57.0101         calculate D2E/DX2 analytically  !
 ! D17   D(5,2,3,34)          -176.6703         calculate D2E/DX2 analytically  !
 ! D18   D(5,2,3,35)            64.1641         calculate D2E/DX2 analytically  !
 ! D19   D(1,2,4,36)           -61.2912         calculate D2E/DX2 analytically  !
 ! D20   D(1,2,4,37)           176.0568         calculate D2E/DX2 analytically  !
 ! D21   D(1,2,4,38)            57.686          calculate D2E/DX2 analytically  !
 ! D22   D(3,2,4,36)           179.6691         calculate D2E/DX2 analytically  !
 ! D23   D(3,2,4,37)            57.0171         calculate D2E/DX2 analytically  !
 ! D24   D(3,2,4,38)           -61.3537         calculate D2E/DX2 analytically  !
 ! D25   D(5,2,4,36)            57.2875         calculate D2E/DX2 analytically  !
 ! D26   D(5,2,4,37)           -65.3645         calculate D2E/DX2 analytically  !
 ! D27   D(5,2,4,38)           176.2647         calculate D2E/DX2 analytically  !
 ! D28   D(1,2,5,6)            174.3749         calculate D2E/DX2 analytically  !
 ! D29   D(1,2,5,39)           -63.9281         calculate D2E/DX2 analytically  !
 ! D30   D(1,2,5,40)            51.9008         calculate D2E/DX2 analytically  !
 ! D31   D(3,2,5,6)            -67.2719         calculate D2E/DX2 analytically  !
 ! D32   D(3,2,5,39)            54.4252         calculate D2E/DX2 analytically  !
 ! D33   D(3,2,5,40)           170.2541         calculate D2E/DX2 analytically  !
 ! D34   D(4,2,5,6)             54.8159         calculate D2E/DX2 analytically  !
 ! D35   D(4,2,5,39)           176.5129         calculate D2E/DX2 analytically  !
 ! D36   D(4,2,5,40)           -67.6582         calculate D2E/DX2 analytically  !
 ! D37   D(2,5,6,7)            156.6419         calculate D2E/DX2 analytically  !
 ! D38   D(2,5,6,29)           -87.9769         calculate D2E/DX2 analytically  !
 ! D39   D(2,5,6,41)            31.5968         calculate D2E/DX2 analytically  !
 ! D40   D(39,5,6,7)            35.1285         calculate D2E/DX2 analytically  !
 ! D41   D(39,5,6,29)          150.5098         calculate D2E/DX2 analytically  !
 ! D42   D(39,5,6,41)          -89.9165         calculate D2E/DX2 analytically  !
 ! D43   D(40,5,6,7)           -79.7074         calculate D2E/DX2 analytically  !
 ! D44   D(40,5,6,29)           35.6739         calculate D2E/DX2 analytically  !
 ! D45   D(40,5,6,41)          155.2476         calculate D2E/DX2 analytically  !
 ! D46   D(5,6,7,8)            136.4034         calculate D2E/DX2 analytically  !
 ! D47   D(5,6,7,42)          -105.9253         calculate D2E/DX2 analytically  !
 ! D48   D(5,6,7,43)            20.3623         calculate D2E/DX2 analytically  !
 ! D49   D(29,6,7,8)            14.7327         calculate D2E/DX2 analytically  !
 ! D50   D(29,6,7,42)          132.404          calculate D2E/DX2 analytically  !
 ! D51   D(29,6,7,43)         -101.3084         calculate D2E/DX2 analytically  !
 ! D52   D(41,6,7,8)           -98.6024         calculate D2E/DX2 analytically  !
 ! D53   D(41,6,7,42)           19.0689         calculate D2E/DX2 analytically  !
 ! D54   D(41,6,7,43)          145.3565         calculate D2E/DX2 analytically  !
 ! D55   D(5,6,29,9)          -133.9063         calculate D2E/DX2 analytically  !
 ! D56   D(5,6,29,58)           55.923          calculate D2E/DX2 analytically  !
 ! D57   D(7,6,29,9)           -11.2567         calculate D2E/DX2 analytically  !
 ! D58   D(7,6,29,58)          178.5726         calculate D2E/DX2 analytically  !
 ! D59   D(41,6,29,9)          104.6125         calculate D2E/DX2 analytically  !
 ! D60   D(41,6,29,58)         -65.5582         calculate D2E/DX2 analytically  !
 ! D61   D(6,7,8,9)            -13.3413         calculate D2E/DX2 analytically  !
 ! D62   D(42,7,8,9)          -135.4613         calculate D2E/DX2 analytically  !
 ! D63   D(43,7,8,9)           106.1862         calculate D2E/DX2 analytically  !
 ! D64   D(7,8,9,10)          -174.0512         calculate D2E/DX2 analytically  !
 ! D65   D(7,8,9,29)             6.968          calculate D2E/DX2 analytically  !
 ! D66   D(8,9,10,11)           -4.8211         calculate D2E/DX2 analytically  !
 ! D67   D(8,9,10,28)          176.8094         calculate D2E/DX2 analytically  !
 ! D68   D(29,9,10,11)         174.1283         calculate D2E/DX2 analytically  !
 ! D69   D(29,9,10,28)          -4.2412         calculate D2E/DX2 analytically  !
 ! D70   D(8,9,29,6)             3.2904         calculate D2E/DX2 analytically  !
 ! D71   D(8,9,29,58)          176.2819         calculate D2E/DX2 analytically  !
 ! D72   D(10,9,29,6)         -175.6923         calculate D2E/DX2 analytically  !
 ! D73   D(10,9,29,58)          -2.7008         calculate D2E/DX2 analytically  !
 ! D74   D(9,10,11,12)        -176.4714         calculate D2E/DX2 analytically  !
 ! D75   D(9,10,11,44)           2.2553         calculate D2E/DX2 analytically  !
 ! D76   D(28,10,11,12)          1.735          calculate D2E/DX2 analytically  !
 ! D77   D(28,10,11,44)       -179.5383         calculate D2E/DX2 analytically  !
 ! D78   D(9,10,28,14)         178.5453         calculate D2E/DX2 analytically  !
 ! D79   D(9,10,28,58)           8.7618         calculate D2E/DX2 analytically  !
 ! D80   D(11,10,28,14)          0.1347         calculate D2E/DX2 analytically  !
 ! D81   D(11,10,28,58)       -169.6488         calculate D2E/DX2 analytically  !
 ! D82   D(10,11,12,13)         -1.3867         calculate D2E/DX2 analytically  !
 ! D83   D(10,11,12,45)        178.4222         calculate D2E/DX2 analytically  !
 ! D84   D(44,11,12,13)        179.9111         calculate D2E/DX2 analytically  !
 ! D85   D(44,11,12,45)         -0.2799         calculate D2E/DX2 analytically  !
 ! D86   D(11,12,13,14)         -0.6919         calculate D2E/DX2 analytically  !
 ! D87   D(11,12,13,46)        179.0885         calculate D2E/DX2 analytically  !
 ! D88   D(45,12,13,14)        179.4995         calculate D2E/DX2 analytically  !
 ! D89   D(45,12,13,46)         -0.7201         calculate D2E/DX2 analytically  !
 ! D90   D(12,13,14,15)       -176.3854         calculate D2E/DX2 analytically  !
 ! D91   D(12,13,14,28)          2.5959         calculate D2E/DX2 analytically  !
 ! D92   D(46,13,14,15)          3.8307         calculate D2E/DX2 analytically  !
 ! D93   D(46,13,14,28)       -177.1881         calculate D2E/DX2 analytically  !
 ! D94   D(13,14,15,16)         69.4905         calculate D2E/DX2 analytically  !
 ! D95   D(13,14,15,22)        -63.6329         calculate D2E/DX2 analytically  !
 ! D96   D(13,14,15,47)       -178.2958         calculate D2E/DX2 analytically  !
 ! D97   D(28,14,15,16)       -109.5212         calculate D2E/DX2 analytically  !
 ! D98   D(28,14,15,22)        117.3554         calculate D2E/DX2 analytically  !
 ! D99   D(28,14,15,47)          2.6925         calculate D2E/DX2 analytically  !
 ! D100  D(13,14,28,10)         -2.3182         calculate D2E/DX2 analytically  !
 ! D101  D(13,14,28,58)        166.0897         calculate D2E/DX2 analytically  !
 ! D102  D(15,14,28,10)        176.7291         calculate D2E/DX2 analytically  !
 ! D103  D(15,14,28,58)        -14.863          calculate D2E/DX2 analytically  !
 ! D104  D(14,15,16,17)        100.7186         calculate D2E/DX2 analytically  !
 ! D105  D(14,15,16,21)        -74.8384         calculate D2E/DX2 analytically  !
 ! D106  D(22,15,16,17)       -131.2416         calculate D2E/DX2 analytically  !
 ! D107  D(22,15,16,21)         53.2014         calculate D2E/DX2 analytically  !
 ! D108  D(47,15,16,17)        -11.6962         calculate D2E/DX2 analytically  !
 ! D109  D(47,15,16,21)        172.7468         calculate D2E/DX2 analytically  !
 ! D110  D(14,15,22,23)        -60.5569         calculate D2E/DX2 analytically  !
 ! D111  D(14,15,22,27)        121.2389         calculate D2E/DX2 analytically  !
 ! D112  D(16,15,22,23)        172.0718         calculate D2E/DX2 analytically  !
 ! D113  D(16,15,22,27)         -6.1324         calculate D2E/DX2 analytically  !
 ! D114  D(47,15,22,23)         53.3143         calculate D2E/DX2 analytically  !
 ! D115  D(47,15,22,27)       -124.8899         calculate D2E/DX2 analytically  !
 ! D116  D(15,16,17,18)       -177.4256         calculate D2E/DX2 analytically  !
 ! D117  D(15,16,17,48)          0.4534         calculate D2E/DX2 analytically  !
 ! D118  D(21,16,17,18)         -1.6434         calculate D2E/DX2 analytically  !
 ! D119  D(21,16,17,48)        176.2357         calculate D2E/DX2 analytically  !
 ! D120  D(15,16,21,20)        177.1835         calculate D2E/DX2 analytically  !
 ! D121  D(15,16,21,52)         -3.1556         calculate D2E/DX2 analytically  !
 ! D122  D(17,16,21,20)          1.6965         calculate D2E/DX2 analytically  !
 ! D123  D(17,16,21,52)       -178.6426         calculate D2E/DX2 analytically  !
 ! D124  D(16,17,18,19)          0.5109         calculate D2E/DX2 analytically  !
 ! D125  D(16,17,18,49)       -179.8224         calculate D2E/DX2 analytically  !
 ! D126  D(48,17,18,19)       -177.3253         calculate D2E/DX2 analytically  !
 ! D127  D(48,17,18,49)          2.3414         calculate D2E/DX2 analytically  !
 ! D128  D(17,18,19,20)          0.5959         calculate D2E/DX2 analytically  !
 ! D129  D(17,18,19,50)       -179.85           calculate D2E/DX2 analytically  !
 ! D130  D(49,18,19,20)       -179.0687         calculate D2E/DX2 analytically  !
 ! D131  D(49,18,19,50)          0.4854         calculate D2E/DX2 analytically  !
 ! D132  D(18,19,20,21)         -0.5455         calculate D2E/DX2 analytically  !
 ! D133  D(18,19,20,51)        179.4462         calculate D2E/DX2 analytically  !
 ! D134  D(50,19,20,21)        179.8994         calculate D2E/DX2 analytically  !
 ! D135  D(50,19,20,51)         -0.1089         calculate D2E/DX2 analytically  !
 ! D136  D(19,20,21,16)         -0.6125         calculate D2E/DX2 analytically  !
 ! D137  D(19,20,21,52)        179.7216         calculate D2E/DX2 analytically  !
 ! D138  D(51,20,21,16)        179.3958         calculate D2E/DX2 analytically  !
 ! D139  D(51,20,21,52)         -0.2702         calculate D2E/DX2 analytically  !
 ! D140  D(15,22,23,24)        179.9725         calculate D2E/DX2 analytically  !
 ! D141  D(15,22,23,53)         -2.8093         calculate D2E/DX2 analytically  !
 ! D142  D(27,22,23,24)         -1.7263         calculate D2E/DX2 analytically  !
 ! D143  D(27,22,23,53)        175.4919         calculate D2E/DX2 analytically  !
 ! D144  D(15,22,27,26)        179.8796         calculate D2E/DX2 analytically  !
 ! D145  D(15,22,27,57)          1.5619         calculate D2E/DX2 analytically  !
 ! D146  D(23,22,27,26)          1.7188         calculate D2E/DX2 analytically  !
 ! D147  D(23,22,27,57)       -176.5988         calculate D2E/DX2 analytically  !
 ! D148  D(22,23,24,25)          0.3367         calculate D2E/DX2 analytically  !
 ! D149  D(22,23,24,54)        179.5135         calculate D2E/DX2 analytically  !
 ! D150  D(53,23,24,25)       -176.896          calculate D2E/DX2 analytically  !
 ! D151  D(53,23,24,54)          2.2808         calculate D2E/DX2 analytically  !
 ! D152  D(23,24,25,26)          1.0733         calculate D2E/DX2 analytically  !
 ! D153  D(23,24,25,55)       -179.988          calculate D2E/DX2 analytically  !
 ! D154  D(54,24,25,26)       -178.0968         calculate D2E/DX2 analytically  !
 ! D155  D(54,24,25,55)          0.8418         calculate D2E/DX2 analytically  !
 ! D156  D(24,25,26,27)         -1.0832         calculate D2E/DX2 analytically  !
 ! D157  D(24,25,26,56)        178.4513         calculate D2E/DX2 analytically  !
 ! D158  D(55,25,26,27)        179.9777         calculate D2E/DX2 analytically  !
 ! D159  D(55,25,26,56)         -0.4878         calculate D2E/DX2 analytically  !
 ! D160  D(25,26,27,22)         -0.321          calculate D2E/DX2 analytically  !
 ! D161  D(25,26,27,57)        178.0117         calculate D2E/DX2 analytically  !
 ! D162  D(56,26,27,22)       -179.859          calculate D2E/DX2 analytically  !
 ! D163  D(56,26,27,57)         -1.5263         calculate D2E/DX2 analytically  !
 ! D164  D(10,28,58,29)         -8.1313         calculate D2E/DX2 analytically  !
 ! D165  D(10,28,58,59)         89.1504         calculate D2E/DX2 analytically  !
 ! D166  D(10,28,58,60)       -125.5315         calculate D2E/DX2 analytically  !
 ! D167  D(14,28,58,29)       -177.2893         calculate D2E/DX2 analytically  !
 ! D168  D(14,28,58,59)        -80.0075         calculate D2E/DX2 analytically  !
 ! D169  D(14,28,58,60)         65.3105         calculate D2E/DX2 analytically  !
 ! D170  D(6,29,58,28)         175.6263         calculate D2E/DX2 analytically  !
 ! D171  D(6,29,58,59)          77.8666         calculate D2E/DX2 analytically  !
 ! D172  D(6,29,58,60)         -82.0041         calculate D2E/DX2 analytically  !
 ! D173  D(9,29,58,28)           5.712          calculate D2E/DX2 analytically  !
 ! D174  D(9,29,58,59)         -92.0476         calculate D2E/DX2 analytically  !
 ! D175  D(9,29,58,60)         108.0817         calculate D2E/DX2 analytically  !
 --------------------------------------------------------------------------------
 Trust Radius=3.00D-01 FncErr=1.00D-07 GrdErr=1.00D-07 EigMax=2.50D+02 EigMin=1.00D-04
 Number of steps in this run=      2 maximum allowed number of steps=      2.
 GradGradGradGradGradGradGradGradGradGradGradGradGradGradGradGradGradGrad

 Stoichiometry    C26H28F2N2NiO(3)
 Framework group  C1[X(C26H28F2N2NiO)]
 Deg. of freedom   174
 Full point group                 C1      NOp   1
 Largest Abelian subgroup         C1      NOp   1
 Largest concise Abelian subgroup C1      NOp   1
                         Standard orientation:                         
 ---------------------------------------------------------------------
 Center     Atomic      Atomic             Coordinates (Angstroms)
 Number     Number       Type             X           Y           Z
 ---------------------------------------------------------------------
      1          6           0        5.474758    1.284416   -2.292641
      2          6           0        4.876574    0.156898   -1.433095
      3          6           0        5.911962   -0.974075   -1.300090
      4          6           0        3.614124   -0.383354   -2.127791
      5          6           0        4.567298    0.757316   -0.039229
      6          6           0        3.836136   -0.154008    0.953747
      7          6           0        4.046731    0.230471    2.440499
      8          8           0        2.716747    0.124019    3.042742
      9          6           0        1.870316    0.038024    2.003741
     10          6           0        0.417652    0.046504    2.206103
     11          6           0       -0.211173    0.044561    3.440313
     12          6           0       -1.609769   -0.022931    3.448977
     13          6           0       -2.302323   -0.054965    2.247687
     14          6           0       -1.597011   -0.004791    1.032712
     15          6           0       -2.276502    0.045320   -0.326998
     16          6           0       -2.954288    1.400992   -0.489277
     17          6           0       -2.288761    2.361699   -1.263577
     18          6           0       -2.823077    3.641855   -1.411497
     19          6           0       -4.020164    3.984220   -0.782168
     20          6           0       -4.676273    3.040336    0.008877
     21          6           0       -4.143908    1.759920    0.159439
     22          6           0       -3.077823   -1.234063   -0.567037
     23          6           0       -2.352695   -2.438624   -0.569161
     24          6           0       -3.007416   -3.649465   -0.780066
     25          6           0       -4.387219   -3.679952   -0.998269
     26          6           0       -5.103151   -2.485379   -1.025945
     27          6           0       -4.451580   -1.266903   -0.814667
     28          7           0       -0.263547    0.021059    1.037871
     29          7           0        2.372339   -0.072002    0.828657
     30          1           0        6.374236    1.708009   -1.828280
     31          1           0        5.754055    0.908220   -3.283216
     32          1           0        4.750192    2.094752   -2.433759
     33          1           0        6.831776   -0.617849   -0.819222
     34          1           0        6.179794   -1.363894   -2.288299
     35          1           0        5.526713   -1.817815   -0.715637
     36          1           0        2.845070    0.390287   -2.238406
     37          1           0        3.180112   -1.238759   -1.595370
     38          1           0        3.865626   -0.737229   -3.134676
     39          1           0        5.521612    1.061054    0.414415
     40          1           0        3.967738    1.669431   -0.152858
     41          1           0        4.114219   -1.200892    0.786064
     42          1           0        4.713436   -0.436225    2.987586
     43          1           0        4.375106    1.268373    2.559757
     44          1           0        0.371721    0.073059    4.353353
     45          1           0       -2.147354   -0.053089    4.391537
     46          1           0       -3.383101   -0.121893    2.230570
     47          1           0       -1.462960    0.045699   -1.057092
     48          1           0       -1.334094    2.100753   -1.715807
     49          1           0       -2.296565    4.374218   -2.017305
     50          1           0       -4.436614    4.980843   -0.900079
     51          1           0       -5.604631    3.298930    0.511008
     52          1           0       -4.668388    1.043030    0.782994
     53          1           0       -1.268916   -2.425473   -0.450888
     54          1           0       -2.432876   -4.571690   -0.786934
     55          1           0       -4.895266   -4.626366   -1.162340
     56          1           0       -6.172488   -2.493171   -1.219687
     57          1           0       -5.017908   -0.345220   -0.871794
     58         28           0        0.952500   -0.309755   -0.597141
     59          9           0        0.899284   -2.150109   -0.627174
     60          9           0        0.610685    1.084151   -1.745810
 ---------------------------------------------------------------------
 Rotational constants (GHZ):           0.1960024           0.0831186           0.0804568
 Basis read from chk: "Lig2224_xyz_3.chk" (6D, 7F)
 Pseudo-potential data read from chk file.
 There are   598 symmetry adapted cartesian basis functions of A   symmetry.
 There are   595 symmetry adapted basis functions of A   symmetry.
   595 basis functions,  1134 primitive gaussians,   598 cartesian basis functions
   122 alpha electrons      120 beta electrons
       nuclear repulsion energy      3617.9227642778 Hartrees.
 NAtoms=   60 NActive=   60 NUniq=   60 SFac= 1.00D+00 NAtFMM=   60 NAOKFM=T Big=T
 Integral buffers will be    131072 words long.
 Raffenetti 2 integral format.
 Two-electron integral symmetry is turned on.
 Nuclear repulsion after empirical dispersion term =     3617.7743646307 Hartrees.
 One-electron integrals computed using PRISM.
 PrsmSu:  requested number of processors reduced to:  12 ShMem   1 Linda.
   1 Symmetry operations used in ECPInt.
 ECPInt:  NShTT=   20301 NPrTT=  123456 LenC2=   16498 LenP2D=   54025.
 LDataN:  DoStor=T MaxTD1= 6 Len=  172
 Number of processors reduced to  12 by ecpmxn.
 NBasis=   595 RedAO= T EigKep=  6.98D-06  NBF=   595
 NBsUse=   594 1.00D-06 EigRej=  9.99D-07 NBFU=   594
 Initial guess from the checkpoint file:  "Lig2224_xyz_3.chk"
 B after Tr=     0.000000   -0.000000   -0.000000
         Rot=    1.000000    0.000000    0.000000   -0.000000 Ang=   0.00 deg.
 Initial guess <Sx>= 0.0000 <Sy>= 0.0000 <Sz>= 1.0000 <S**2>= 2.0062 S= 1.0021
 Requested convergence on RMS density matrix=1.00D-08 within 128 cycles.
 Requested convergence on MAX density matrix=1.00D-06.
 Requested convergence on             energy=1.00D-06.
 No special actions if energy rises.
 SCF Done:  E(UB3LYP) =  -1561.66350222     A.U. after    1 cycles
            NFock=  1  Conv=0.24D-08     -V/T= 2.0505
 <Sx>= 0.0000 <Sy>= 0.0000 <Sz>= 1.0000 <S**2>= 2.0062 S= 1.0021
 <L.S>=  0.00000000000    
 Annihilation of the first spin contaminant:
 S**2 before annihilation     2.0062,   after     2.0000
 DoSCS=F DFT=T ScalE2(SS,OS)=  1.000000  1.000000
 Range of M.O.s used for correlation:     1   594
 NBasis=   595 NAE=   122 NBE=   120 NFC=     0 NFV=     0
 NROrb=    594 NOA=   122 NOB=   120 NVA=   472 NVB=   474

 **** Warning!!: The largest alpha MO coefficient is  0.15906764D+03


 **** Warning!!: The largest beta MO coefficient is  0.15903977D+03

 PrsmSu:  requested number of processors reduced to:  11 ShMem   1 Linda.
 PrsmSu:  requested number of processors reduced to:   2 ShMem   1 Linda.
   1 Symmetry operations used in ECPInt.
 ECPInt:  NShTT=   20301 NPrTT=  123456 LenC2=   16498 LenP2D=   54025.
 LDataN:  DoStor=T MaxTD1= 7 Len=  274
 Number of processors reduced to   1 by ecpmxn.
 Symmetrizing basis deriv contribution to polar:
 IMax=3 JMax=2 DiffMx= 0.00D+00
 G2DrvN: will do     1 centers at a time, making   61 passes.
 Calling FoFCou, ICntrl=  3107 FMM=T I1Cent=   0 AccDes= 0.00D+00.
 Calling FoFCou, ICntrl=  3107 FMM=T I1Cent=   0 AccDes= 0.00D+00.
 Calling FoFCou, ICntrl=  3107 FMM=T I1Cent=   0 AccDes= 0.00D+00.
 Calling FoFCou, ICntrl=  3107 FMM=T I1Cent=   0 AccDes= 0.00D+00.
 Calling FoFCou, ICntrl=  3107 FMM=T I1Cent=   0 AccDes= 0.00D+00.
 Calling FoFCou, ICntrl=  3107 FMM=T I1Cent=   0 AccDes= 0.00D+00.
 Calling FoFCou, ICntrl=  3107 FMM=T I1Cent=   0 AccDes= 0.00D+00.
 Calling FoFCou, ICntrl=  3107 FMM=T I1Cent=   0 AccDes= 0.00D+00.
 Calling FoFCou, ICntrl=  3107 FMM=T I1Cent=   0 AccDes= 0.00D+00.
 Calling FoFCou, ICntrl=  3107 FMM=T I1Cent=   0 AccDes= 0.00D+00.
 Calling FoFCou, ICntrl=  3107 FMM=T I1Cent=   0 AccDes= 0.00D+00.
 Calling FoFCou, ICntrl=  3107 FMM=T I1Cent=   0 AccDes= 0.00D+00.
 Calling FoFCou, ICntrl=  3107 FMM=T I1Cent=   0 AccDes= 0.00D+00.
 Calling FoFCou, ICntrl=  3107 FMM=T I1Cent=   0 AccDes= 0.00D+00.
 Calling FoFCou, ICntrl=  3107 FMM=T I1Cent=   0 AccDes= 0.00D+00.
 Calling FoFCou, ICntrl=  3107 FMM=T I1Cent=   0 AccDes= 0.00D+00.
 Calling FoFCou, ICntrl=  3107 FMM=T I1Cent=   0 AccDes= 0.00D+00.
 Calling FoFCou, ICntrl=  3107 FMM=T I1Cent=   0 AccDes= 0.00D+00.
 Calling FoFCou, ICntrl=  3107 FMM=T I1Cent=   0 AccDes= 0.00D+00.
 Calling FoFCou, ICntrl=  3107 FMM=T I1Cent=   0 AccDes= 0.00D+00.
 Calling FoFCou, ICntrl=  3107 FMM=T I1Cent=   0 AccDes= 0.00D+00.
 Calling FoFCou, ICntrl=  3107 FMM=T I1Cent=   0 AccDes= 0.00D+00.
 Calling FoFCou, ICntrl=  3107 FMM=T I1Cent=   0 AccDes= 0.00D+00.
 Calling FoFCou, ICntrl=  3107 FMM=T I1Cent=   0 AccDes= 0.00D+00.
 Calling FoFCou, ICntrl=  3107 FMM=T I1Cent=   0 AccDes= 0.00D+00.
 Calling FoFCou, ICntrl=  3107 FMM=T I1Cent=   0 AccDes= 0.00D+00.
 Calling FoFCou, ICntrl=  3107 FMM=T I1Cent=   0 AccDes= 0.00D+00.
 Calling FoFCou, ICntrl=  3107 FMM=T I1Cent=   0 AccDes= 0.00D+00.
 Calling FoFCou, ICntrl=  3107 FMM=T I1Cent=   0 AccDes= 0.00D+00.
 Calling FoFCou, ICntrl=  3107 FMM=T I1Cent=   0 AccDes= 0.00D+00.
 Calling FoFCou, ICntrl=  3107 FMM=T I1Cent=   0 AccDes= 0.00D+00.
 Calling FoFCou, ICntrl=  3107 FMM=T I1Cent=   0 AccDes= 0.00D+00.
 Calling FoFCou, ICntrl=  3107 FMM=T I1Cent=   0 AccDes= 0.00D+00.
 Calling FoFCou, ICntrl=  3107 FMM=T I1Cent=   0 AccDes= 0.00D+00.
 Calling FoFCou, ICntrl=  3107 FMM=T I1Cent=   0 AccDes= 0.00D+00.
 Calling FoFCou, ICntrl=  3107 FMM=T I1Cent=   0 AccDes= 0.00D+00.
 Calling FoFCou, ICntrl=  3107 FMM=T I1Cent=   0 AccDes= 0.00D+00.
 Calling FoFCou, ICntrl=  3107 FMM=T I1Cent=   0 AccDes= 0.00D+00.
 Calling FoFCou, ICntrl=  3107 FMM=T I1Cent=   0 AccDes= 0.00D+00.
 Calling FoFCou, ICntrl=  3107 FMM=T I1Cent=   0 AccDes= 0.00D+00.
 Calling FoFCou, ICntrl=  3107 FMM=T I1Cent=   0 AccDes= 0.00D+00.
 Calling FoFCou, ICntrl=  3107 FMM=T I1Cent=   0 AccDes= 0.00D+00.
 Calling FoFCou, ICntrl=  3107 FMM=T I1Cent=   0 AccDes= 0.00D+00.
 Calling FoFCou, ICntrl=  3107 FMM=T I1Cent=   0 AccDes= 0.00D+00.
 Calling FoFCou, ICntrl=  3107 FMM=T I1Cent=   0 AccDes= 0.00D+00.
 Calling FoFCou, ICntrl=  3107 FMM=T I1Cent=   0 AccDes= 0.00D+00.
 Calling FoFCou, ICntrl=  3107 FMM=T I1Cent=   0 AccDes= 0.00D+00.
 Calling FoFCou, ICntrl=  3107 FMM=T I1Cent=   0 AccDes= 0.00D+00.
 Calling FoFCou, ICntrl=  3107 FMM=T I1Cent=   0 AccDes= 0.00D+00.
 Calling FoFCou, ICntrl=  3107 FMM=T I1Cent=   0 AccDes= 0.00D+00.
 Calling FoFCou, ICntrl=  3107 FMM=T I1Cent=   0 AccDes= 0.00D+00.
 Calling FoFCou, ICntrl=  3107 FMM=T I1Cent=   0 AccDes= 0.00D+00.
 Calling FoFCou, ICntrl=  3107 FMM=T I1Cent=   0 AccDes= 0.00D+00.
 Calling FoFCou, ICntrl=  3107 FMM=T I1Cent=   0 AccDes= 0.00D+00.
 Calling FoFCou, ICntrl=  3107 FMM=T I1Cent=   0 AccDes= 0.00D+00.
 Calling FoFCou, ICntrl=  3107 FMM=T I1Cent=   0 AccDes= 0.00D+00.
 Calling FoFCou, ICntrl=  3107 FMM=T I1Cent=   0 AccDes= 0.00D+00.
 Calling FoFCou, ICntrl=  3107 FMM=T I1Cent=   0 AccDes= 0.00D+00.
 Calling FoFCou, ICntrl=  3107 FMM=T I1Cent=   0 AccDes= 0.00D+00.
 Calling FoFCou, ICntrl=  3107 FMM=T I1Cent=   0 AccDes= 0.00D+00.
 Calling FoFCou, ICntrl=  3107 FMM=T I1Cent=   0 AccDes= 0.00D+00.
 End of G2Drv F.D. properties file   721 does not exist.
 End of G2Drv F.D. properties file   722 does not exist.
 End of G2Drv F.D. properties file   788 does not exist.
          IDoAtm=11111111111111111111111111111111111111111111111111
          IDoAtm=1111111111
          Differentiating once with respect to electric field.
                with respect to dipole field.
          Differentiating once with respect to nuclear coordinates.
 CalDSu exits because no D1Ps are significant.
          There are   183 degrees of freedom in the 1st order CPHF.  IDoFFX=6 NUNeed=     3.
    183 vectors produced by pass  0 Test12= 1.14D-13 1.00D-09 XBig12= 7.83D+02 6.18D+00.
 AX will form     3 AO Fock derivatives at one time.
